       N       E                     dE             d eps       ncg     rms          rms(c)
DAV:   1     0.159361451810E+03    0.15936E+03   -0.16708E+04 21348   0.201E+03
DAV:   2    -0.215388568323E+02   -0.18090E+03   -0.17478E+03 21156   0.299E+02
DAV:   3    -0.261385027440E+02   -0.45996E+01   -0.45506E+01 27936   0.672E+01
DAV:   4    -0.261799117206E+02   -0.41409E-01   -0.41401E-01 24408   0.509E+00
DAV:   5    -0.261809524346E+02   -0.10407E-02   -0.10407E-02 28500   0.815E-01    0.176E+01
DAV:   6    -0.264489225580E+02   -0.26797E+00   -0.48978E+01 23784   0.116E+02    0.159E+01
DAV:   7    -0.221021266781E+02    0.43468E+01   -0.20227E+01 24432   0.613E+01    0.229E+00
DAV:   8    -0.220319363540E+02    0.70190E-01   -0.19560E-01 24276   0.372E+00    0.115E+00
DAV:   9    -0.220073536642E+02    0.24583E-01   -0.27922E-02 29496   0.217E+00    0.574E-01
DAV:  10    -0.220081553972E+02   -0.80173E-03   -0.14201E-03 25068   0.454E-01    0.393E-01
DAV:  11    -0.220107114230E+02   -0.25560E-02   -0.61214E-03 26184   0.108E+00    0.226E-01
DAV:  12    -0.220117927206E+02   -0.10813E-02   -0.13248E-03 30024   0.520E-01    0.681E-02
DAV:  13    -0.220119604794E+02   -0.16776E-03   -0.20104E-04 30120   0.209E-01    0.526E-02
DAV:  14    -0.220119993929E+02   -0.38914E-04   -0.12786E-04 26088   0.156E-01    0.202E-02
DAV:  15    -0.220119984521E+02    0.94084E-06   -0.42857E-05 25332   0.966E-02    0.354E-02
DAV:  16    -0.220120066260E+02   -0.81739E-05   -0.47016E-05 24324   0.996E-02    0.231E-02
DAV:  17    -0.220120112899E+02   -0.46640E-05   -0.49414E-06 21948   0.346E-02    0.933E-04
DAV:  18    -0.220120113605E+02   -0.70556E-07   -0.81890E-08 11184   0.455E-03
   1 F= -.22012011E+02 E0= -.22012609E+02  d E =-.220120E+02  mag=     0.6928
