 vasp.6.3.0 20Jan22 (build Jun 30 2026 15:27:26) complex                        
  
 executed on             LinuxIFC date 2026.07.21  05:49:50
 running on   24 total cores
 distrk:  each k-point on   24 cores,    1 groups
 distr:  one band on NCORE=   4 cores,    6 groups


--------------------------------------------------------------------------------------------------------


 INCAR:
   SYSTEM = Ni3Al EOS
   PREC = Accurate
   NCORE = 4
   LREAL = .FALSE.
   LWAVE = .FALSE.
   LASPH = .TRUE.
   ADDGRID = .TRUE.
   SYMPREC = 1.0E-5
   ISYM = 2
   ISPIN = 2
   MAGMOM = 1*0.0 3*0.6
   ISMEAR = 1
   SIGMA = 0.2
   ISTART = 0
   ICHARG = 2
   ENCUT = 600
   NEDOS = 2000
   EDIFF = 1.0E-6
   IBRION = 2
   ISIF = 2
   NSW = 100
   EDIFFG = -0.01

 POTCAR:   PAW_PBE Al 04Jan2001                   
 POTCAR:   PAW_PBE Ni 06Sep2000                   
 POTCAR:   PAW_PBE Al 04Jan2001                   
   VRHFIN =Al: s2p1                                                                                 
   LEXCH  = PE                                                                                      
   EATOM  =    53.5387 eV,    3.9350 Ry                                                             
                                                                                                    
   TITEL  = PAW_PBE Al 04Jan2001                                                                    
   LULTRA =        F    use ultrasoft PP ?                                                          
   IUNSCR =        1    unscreen: 0-lin 1-nonlin 2-no                                               
   RPACOR =    1.500    partial core radius                                                         
   POMASS =   26.982; ZVAL   =    3.000    mass and valenz                                          
   RCORE  =    1.900    outmost cutoff radius                                                       
   RWIGS  =    2.650; RWIGS  =    1.402    wigner-seitz radius (au A)                               
   ENMAX  =  240.300; ENMIN  =  180.225 eV                                                          
   ICORE  =        2    local potential                                                             
   LCOR   =        T    correct aug charges                                                         
   LPAW   =        T    paw PP                                                                      
   EAUG   =  291.052                                                                                
   DEXC   =    -.041                                                                                
   RMAX   =    2.974    core radius for proj-oper                                                   
   RAUG   =    1.300    factor for augmentation sphere                                              
   RDEP   =    1.966    radius for radial grids                                                     
   QCUT   =   -4.203; QGAM   =    8.405    optimization parameters                                  
                                                                                                    
   Description                                                                                      
     l     E      TYP  RCUT    TYP  RCUT                                                            
     0   .000     23  1.900                                                                         
     0   .000     23  1.900                                                                         
     1   .000     23  1.900                                                                         
     1  1.000     23  1.900                                                                         
     2   .000      7  1.900                                                                         
  local pseudopotential read in
  partial core-charges read in
  atomic valenz-charges read in
  non local Contribution for L=           0  read in
    real space projection operators read in
  non local Contribution for L=           0  read in
    real space projection operators read in
  non local Contribution for L=           1  read in
    real space projection operators read in
  non local Contribution for L=           1  read in
    real space projection operators read in
    PAW grid and wavefunctions read in
 
   number of l-projection  operators is LMAX  =           4
   number of lm-projection operators is LMMAX =           8
 
 POTCAR:   PAW_PBE Ni 06Sep2000                   
   VRHFIN =Ni:                                                                                      
   LEXCH  = PE                                                                                      
   EATOM  =  1077.9025 eV,   79.2236 Ry                                                             
                                                                                                    
   TITEL  = PAW_PBE Ni 06Sep2000                                                                    
   LULTRA =        F    use ultrasoft PP ?                                                          
   IUNSCR =        1    unscreen: 0-lin 1-nonlin 2-no                                               
   RPACOR =    2.000    partial core radius                                                         
   POMASS =   58.690; ZVAL   =   10.000    mass and valenz                                          
   RCORE  =    2.300    outmost cutoff radius                                                       
   RWIGS  =    2.430; RWIGS  =    1.286    wigner-seitz radius (au A)                               
   ENMAX  =  269.533; ENMIN  =  202.150 eV                                                          
   RCLOC  =    1.681    cutoff for local pot                                                        
   LCOR   =        T    correct aug charges                                                         
   LPAW   =        T    paw PP                                                                      
   EAUG   =  544.565                                                                                
   DEXC   =    -.009                                                                                
   RMAX   =    2.808    core radius for proj-oper                                                   
   RAUG   =    1.300    factor for augmentation sphere                                              
   RDEP   =    2.390    radius for radial grids                                                     
   QCUT   =   -4.451; QGAM   =    8.902    optimization parameters                                  
                                                                                                    
   Description                                                                                      
     l     E      TYP  RCUT    TYP  RCUT                                                            
     2   .000     23  2.300                                                                         
     2   .000     23  2.300                                                                         
     0   .000     23  2.300                                                                         
     0   .000     23  2.300                                                                         
     1  -.200     23  2.300                                                                         
     1   .000     23  2.300                                                                         
     3   .000      7   .000                                                                         
  local pseudopotential read in
  partial core-charges read in
  atomic valenz-charges read in
  non local Contribution for L=           2  read in
    real space projection operators read in
  non local Contribution for L=           2  read in
    real space projection operators read in
  non local Contribution for L=           0  read in
    real space projection operators read in
  non local Contribution for L=           0  read in
    real space projection operators read in
  non local Contribution for L=           1  read in
    real space projection operators read in
  non local Contribution for L=           1  read in
    real space projection operators read in
    PAW grid and wavefunctions read in
 
   number of l-projection  operators is LMAX  =           6
   number of lm-projection operators is LMMAX =          18
 
 PAW_PBE Al 04Jan2001                   :
 energy of atom  1       EATOM=  -53.5387
 kinetic energy error for atom=    0.0002 (will be added to EATOM!!)
 PAW_PBE Ni 06Sep2000                   :
 energy of atom  2       EATOM=-1077.9025
 kinetic energy error for atom=    0.0019 (will be added to EATOM!!)
 
 
 POSCAR: Al1 Ni3
  positions in direct lattice
  No initial velocities read in
 exchange correlation table for  LEXCH =        8
   RHO(1)=    0.500       N(1)  =     2000
   RHO(2)=  100.500       N(2)  =     4000
 


--------------------------------------------------------------------------------------------------------


 ion  position               nearest neighbor table
   1  0.000  0.000  0.000-   2 2.58   3 2.58   4 2.58   2 2.58   4 2.58   3 2.58   4 2.58   4 2.58
                             2 2.58   3 2.58   2 2.58   3 2.58
   2  0.500  0.000  0.500-   1 2.58   3 2.58   4 2.58   1 2.58   3 2.58   3 2.58   4 2.58   3 2.58
                             1 2.58   4 2.58   1 2.58   4 2.58
   3  0.500  0.500  0.000-   1 2.58   2 2.58   4 2.58   2 2.58   4 2.58   1 2.58   2 2.58   2 2.58
                             1 2.58   4 2.58   4 2.58   1 2.58
   4  0.000  0.500  0.500-   1 2.58   2 2.58   3 2.58   1 2.58   3 2.58   1 2.58   2 2.58   1 2.58
                             2 2.58   3 2.58   3 2.58   2 2.58
 
  LATTYP: Found a simple cubic cell.
 ALAT       =     3.6500000000
  
  Lattice vectors:
  
 A1 = (   3.6500000000,   0.0000000000,   0.0000000000)
 A2 = (   0.0000000000,   3.6500000000,   0.0000000000)
 A3 = (   0.0000000000,   0.0000000000,   3.6500000000)


Analysis of symmetry for initial positions (statically):
=====================================================================
 Subroutine PRICEL returns:
 Original cell was already a primitive cell.
 

 Routine SETGRP: Setting up the symmetry group for a 
 simple cubic supercell.


 Subroutine GETGRP returns: Found 48 space group operations
 (whereof 48 operations were pure point group operations)
 out of a pool of 48 trial point group operations.


The static configuration has the point symmetry O_h .


Analysis of symmetry for dynamics (positions and initial velocities):
=====================================================================
 Subroutine PRICEL returns:
 Original cell was already a primitive cell.
 

 Routine SETGRP: Setting up the symmetry group for a 
 simple cubic supercell.


 Subroutine GETGRP returns: Found 48 space group operations
 (whereof 48 operations were pure point group operations)
 out of a pool of 48 trial point group operations.


The dynamic configuration has the point symmetry O_h .


Analysis of structural, dynamic, and magnetic symmetry:
=====================================================================
 Subroutine PRICEL returns:
 Original cell was already a primitive cell.
 

 Routine SETGRP: Setting up the symmetry group for a 
 simple cubic supercell.


 Subroutine GETGRP returns: Found 48 space group operations
 (whereof 48 operations were pure point group operations)
 out of a pool of 48 trial point group operations.


The overall configuration has the point symmetry O_h .


 Subroutine INISYM returns: Found 48 space group operations
 (whereof 48 operations are pure point group operations),
 and found     1 'primitive' translations


----------------------------------------------------------------------------------------

                                     Primitive cell                                     

  volume of cell :      48.6271

  direct lattice vectors                    reciprocal lattice vectors
     3.650000000  0.000000000  0.000000000     0.273972603  0.000000000  0.000000000
     0.000000000  3.650000000  0.000000000     0.000000000  0.273972603  0.000000000
     0.000000000  0.000000000  3.650000000     0.000000000  0.000000000  0.273972603

  length of vectors
     3.650000000  3.650000000  3.650000000     0.273972603  0.273972603  0.273972603

  position of ions in fractional coordinates (direct lattice)
     0.000000000  0.000000000  0.000000000
     0.500000000  0.000000000  0.500000000
     0.500000000  0.500000000  0.000000000
     0.000000000  0.500000000  0.500000000

  ion indices of the primitive-cell ions
   primitive index   ion index
                 1           1
                 2           2
                 3           3
                 4           4

----------------------------------------------------------------------------------------

 
 
 KPOINTS: Automatic mesh                          

Automatic generation of k-mesh.
 Grid dimensions read from file:
 generate k-points for:   18   18   18

 Generating k-lattice:

  Cartesian coordinates                     Fractional coordinates (reciprocal lattice)
     0.015220700  0.000000000  0.000000000     0.055555556  0.000000000  0.000000000
     0.000000000  0.015220700  0.000000000     0.000000000  0.055555556  0.000000000
     0.000000000  0.000000000  0.015220700     0.000000000  0.000000000  0.055555556

  Length of vectors
     0.015220700  0.015220700  0.015220700

  Shift w.r.t. Gamma in fractional coordinates (k-lattice)
     0.000000000  0.000000000  0.000000000

 
 Subroutine IBZKPT returns following result:
 ===========================================
 
 Found    220 irreducible k-points:
 
 Following reciprocal coordinates:
            Coordinates               Weight
  0.000000  0.000000  0.000000      1.000000
  0.055556  0.000000  0.000000      6.000000
  0.111111  0.000000  0.000000      6.000000
  0.166667  0.000000  0.000000      6.000000
  0.222222  0.000000  0.000000      6.000000
  0.277778  0.000000  0.000000      6.000000
  0.333333  0.000000  0.000000      6.000000
  0.388889  0.000000  0.000000      6.000000
  0.444444  0.000000  0.000000      6.000000
  0.500000  0.000000  0.000000      3.000000
  0.055556  0.055556  0.000000     12.000000
  0.111111  0.055556  0.000000     24.000000
  0.166667  0.055556  0.000000     24.000000
  0.222222  0.055556  0.000000     24.000000
  0.277778  0.055556  0.000000     24.000000
  0.333333  0.055556  0.000000     24.000000
  0.388889  0.055556  0.000000     24.000000
  0.444444  0.055556  0.000000     24.000000
  0.500000  0.055556  0.000000     12.000000
  0.111111  0.111111  0.000000     12.000000
  0.166667  0.111111  0.000000     24.000000
  0.222222  0.111111  0.000000     24.000000
  0.277778  0.111111  0.000000     24.000000
  0.333333  0.111111  0.000000     24.000000
  0.388889  0.111111  0.000000     24.000000
  0.444444  0.111111  0.000000     24.000000
  0.500000  0.111111  0.000000     12.000000
  0.166667  0.166667  0.000000     12.000000
  0.222222  0.166667  0.000000     24.000000
  0.277778  0.166667  0.000000     24.000000
  0.333333  0.166667  0.000000     24.000000
  0.388889  0.166667  0.000000     24.000000
  0.444444  0.166667  0.000000     24.000000
  0.500000  0.166667  0.000000     12.000000
  0.222222  0.222222  0.000000     12.000000
  0.277778  0.222222  0.000000     24.000000
  0.333333  0.222222  0.000000     24.000000
  0.388889  0.222222  0.000000     24.000000
  0.444444  0.222222  0.000000     24.000000
  0.500000  0.222222  0.000000     12.000000
  0.277778  0.277778  0.000000     12.000000
  0.333333  0.277778  0.000000     24.000000
  0.388889  0.277778  0.000000     24.000000
  0.444444  0.277778  0.000000     24.000000
  0.500000  0.277778  0.000000     12.000000
  0.333333  0.333333  0.000000     12.000000
  0.388889  0.333333  0.000000     24.000000
  0.444444  0.333333  0.000000     24.000000
  0.500000  0.333333  0.000000     12.000000
  0.388889  0.388889  0.000000     12.000000
  0.444444  0.388889  0.000000     24.000000
  0.500000  0.388889  0.000000     12.000000
  0.444444  0.444444  0.000000     12.000000
  0.500000  0.444444  0.000000     12.000000
  0.500000  0.500000  0.000000      3.000000
  0.055556  0.055556  0.055556      8.000000
  0.111111  0.055556  0.055556     24.000000
  0.166667  0.055556  0.055556     24.000000
  0.222222  0.055556  0.055556     24.000000
  0.277778  0.055556  0.055556     24.000000
  0.333333  0.055556  0.055556     24.000000
  0.388889  0.055556  0.055556     24.000000
  0.444444  0.055556  0.055556     24.000000
  0.500000  0.055556  0.055556     12.000000
  0.111111  0.111111  0.055556     24.000000
  0.166667  0.111111  0.055556     48.000000
  0.222222  0.111111  0.055556     48.000000
  0.277778  0.111111  0.055556     48.000000
  0.333333  0.111111  0.055556     48.000000
  0.388889  0.111111  0.055556     48.000000
  0.444444  0.111111  0.055556     48.000000
  0.500000  0.111111  0.055556     24.000000
  0.166667  0.166667  0.055556     24.000000
  0.222222  0.166667  0.055556     48.000000
  0.277778  0.166667  0.055556     48.000000
  0.333333  0.166667  0.055556     48.000000
  0.388889  0.166667  0.055556     48.000000
  0.444444  0.166667  0.055556     48.000000
  0.500000  0.166667  0.055556     24.000000
  0.222222  0.222222  0.055556     24.000000
  0.277778  0.222222  0.055556     48.000000
  0.333333  0.222222  0.055556     48.000000
  0.388889  0.222222  0.055556     48.000000
  0.444444  0.222222  0.055556     48.000000
  0.500000  0.222222  0.055556     24.000000
  0.277778  0.277778  0.055556     24.000000
  0.333333  0.277778  0.055556     48.000000
  0.388889  0.277778  0.055556     48.000000
  0.444444  0.277778  0.055556     48.000000
  0.500000  0.277778  0.055556     24.000000
  0.333333  0.333333  0.055556     24.000000
  0.388889  0.333333  0.055556     48.000000
  0.444444  0.333333  0.055556     48.000000
  0.500000  0.333333  0.055556     24.000000
  0.388889  0.388889  0.055556     24.000000
  0.444444  0.388889  0.055556     48.000000
  0.500000  0.388889  0.055556     24.000000
  0.444444  0.444444  0.055556     24.000000
  0.500000  0.444444  0.055556     24.000000
  0.500000  0.500000  0.055556      6.000000
  0.111111  0.111111  0.111111      8.000000
  0.166667  0.111111  0.111111     24.000000
  0.222222  0.111111  0.111111     24.000000
  0.277778  0.111111  0.111111     24.000000
  0.333333  0.111111  0.111111     24.000000
  0.388889  0.111111  0.111111     24.000000
  0.444444  0.111111  0.111111     24.000000
  0.500000  0.111111  0.111111     12.000000
  0.166667  0.166667  0.111111     24.000000
  0.222222  0.166667  0.111111     48.000000
  0.277778  0.166667  0.111111     48.000000
  0.333333  0.166667  0.111111     48.000000
  0.388889  0.166667  0.111111     48.000000
  0.444444  0.166667  0.111111     48.000000
  0.500000  0.166667  0.111111     24.000000
  0.222222  0.222222  0.111111     24.000000
  0.277778  0.222222  0.111111     48.000000
  0.333333  0.222222  0.111111     48.000000
  0.388889  0.222222  0.111111     48.000000
  0.444444  0.222222  0.111111     48.000000
  0.500000  0.222222  0.111111     24.000000
  0.277778  0.277778  0.111111     24.000000
  0.333333  0.277778  0.111111     48.000000
  0.388889  0.277778  0.111111     48.000000
  0.444444  0.277778  0.111111     48.000000
  0.500000  0.277778  0.111111     24.000000
  0.333333  0.333333  0.111111     24.000000
  0.388889  0.333333  0.111111     48.000000
  0.444444  0.333333  0.111111     48.000000
  0.500000  0.333333  0.111111     24.000000
  0.388889  0.388889  0.111111     24.000000
  0.444444  0.388889  0.111111     48.000000
  0.500000  0.388889  0.111111     24.000000
  0.444444  0.444444  0.111111     24.000000
  0.500000  0.444444  0.111111     24.000000
  0.500000  0.500000  0.111111      6.000000
  0.166667  0.166667  0.166667      8.000000
  0.222222  0.166667  0.166667     24.000000
  0.277778  0.166667  0.166667     24.000000
  0.333333  0.166667  0.166667     24.000000
  0.388889  0.166667  0.166667     24.000000
  0.444444  0.166667  0.166667     24.000000
  0.500000  0.166667  0.166667     12.000000
  0.222222  0.222222  0.166667     24.000000
  0.277778  0.222222  0.166667     48.000000
  0.333333  0.222222  0.166667     48.000000
  0.388889  0.222222  0.166667     48.000000
  0.444444  0.222222  0.166667     48.000000
  0.500000  0.222222  0.166667     24.000000
  0.277778  0.277778  0.166667     24.000000
  0.333333  0.277778  0.166667     48.000000
  0.388889  0.277778  0.166667     48.000000
  0.444444  0.277778  0.166667     48.000000
  0.500000  0.277778  0.166667     24.000000
  0.333333  0.333333  0.166667     24.000000
  0.388889  0.333333  0.166667     48.000000
  0.444444  0.333333  0.166667     48.000000
  0.500000  0.333333  0.166667     24.000000
  0.388889  0.388889  0.166667     24.000000
  0.444444  0.388889  0.166667     48.000000
  0.500000  0.388889  0.166667     24.000000
  0.444444  0.444444  0.166667     24.000000
  0.500000  0.444444  0.166667     24.000000
  0.500000  0.500000  0.166667      6.000000
  0.222222  0.222222  0.222222      8.000000
  0.277778  0.222222  0.222222     24.000000
  0.333333  0.222222  0.222222     24.000000
  0.388889  0.222222  0.222222     24.000000
  0.444444  0.222222  0.222222     24.000000
  0.500000  0.222222  0.222222     12.000000
  0.277778  0.277778  0.222222     24.000000
  0.333333  0.277778  0.222222     48.000000
  0.388889  0.277778  0.222222     48.000000
  0.444444  0.277778  0.222222     48.000000
  0.500000  0.277778  0.222222     24.000000
  0.333333  0.333333  0.222222     24.000000
  0.388889  0.333333  0.222222     48.000000
  0.444444  0.333333  0.222222     48.000000
  0.500000  0.333333  0.222222     24.000000
  0.388889  0.388889  0.222222     24.000000
  0.444444  0.388889  0.222222     48.000000
  0.500000  0.388889  0.222222     24.000000
  0.444444  0.444444  0.222222     24.000000
  0.500000  0.444444  0.222222     24.000000
  0.500000  0.500000  0.222222      6.000000
  0.277778  0.277778  0.277778      8.000000
  0.333333  0.277778  0.277778     24.000000
  0.388889  0.277778  0.277778     24.000000
  0.444444  0.277778  0.277778     24.000000
  0.500000  0.277778  0.277778     12.000000
  0.333333  0.333333  0.277778     24.000000
  0.388889  0.333333  0.277778     48.000000
  0.444444  0.333333  0.277778     48.000000
  0.500000  0.333333  0.277778     24.000000
  0.388889  0.388889  0.277778     24.000000
  0.444444  0.388889  0.277778     48.000000
  0.500000  0.388889  0.277778     24.000000
  0.444444  0.444444  0.277778     24.000000
  0.500000  0.444444  0.277778     24.000000
  0.500000  0.500000  0.277778      6.000000
  0.333333  0.333333  0.333333      8.000000
  0.388889  0.333333  0.333333     24.000000
  0.444444  0.333333  0.333333     24.000000
  0.500000  0.333333  0.333333     12.000000
  0.388889  0.388889  0.333333     24.000000
  0.444444  0.388889  0.333333     48.000000
  0.500000  0.388889  0.333333     24.000000
  0.444444  0.444444  0.333333     24.000000
  0.500000  0.444444  0.333333     24.000000
  0.500000  0.500000  0.333333      6.000000
  0.388889  0.388889  0.388889      8.000000
  0.444444  0.388889  0.388889     24.000000
  0.500000  0.388889  0.388889     12.000000
  0.444444  0.444444  0.388889     24.000000
  0.500000  0.444444  0.388889     24.000000
  0.500000  0.500000  0.388889      6.000000
  0.444444  0.444444  0.444444      8.000000
  0.500000  0.444444  0.444444     12.000000
  0.500000  0.500000  0.444444      6.000000
  0.500000  0.500000  0.500000      1.000000
 
 Following cartesian coordinates:
            Coordinates               Weight
  0.000000  0.000000  0.000000      1.000000
  0.055556  0.000000  0.000000      6.000000
  0.111111  0.000000  0.000000      6.000000
  0.166667  0.000000  0.000000      6.000000
  0.222222  0.000000  0.000000      6.000000
  0.277778  0.000000  0.000000      6.000000
  0.333333  0.000000  0.000000      6.000000
  0.388889  0.000000  0.000000      6.000000
  0.444444  0.000000  0.000000      6.000000
  0.500000  0.000000  0.000000      3.000000
  0.055556  0.055556  0.000000     12.000000
  0.111111  0.055556  0.000000     24.000000
  0.166667  0.055556  0.000000     24.000000
  0.222222  0.055556  0.000000     24.000000
  0.277778  0.055556  0.000000     24.000000
  0.333333  0.055556  0.000000     24.000000
  0.388889  0.055556  0.000000     24.000000
  0.444444  0.055556  0.000000     24.000000
  0.500000  0.055556  0.000000     12.000000
  0.111111  0.111111  0.000000     12.000000
  0.166667  0.111111  0.000000     24.000000
  0.222222  0.111111  0.000000     24.000000
  0.277778  0.111111  0.000000     24.000000
  0.333333  0.111111  0.000000     24.000000
  0.388889  0.111111  0.000000     24.000000
  0.444444  0.111111  0.000000     24.000000
  0.500000  0.111111  0.000000     12.000000
  0.166667  0.166667  0.000000     12.000000
  0.222222  0.166667  0.000000     24.000000
  0.277778  0.166667  0.000000     24.000000
  0.333333  0.166667  0.000000     24.000000
  0.388889  0.166667  0.000000     24.000000
  0.444444  0.166667  0.000000     24.000000
  0.500000  0.166667  0.000000     12.000000
  0.222222  0.222222  0.000000     12.000000
  0.277778  0.222222  0.000000     24.000000
  0.333333  0.222222  0.000000     24.000000
  0.388889  0.222222  0.000000     24.000000
  0.444444  0.222222  0.000000     24.000000
  0.500000  0.222222  0.000000     12.000000
  0.277778  0.277778  0.000000     12.000000
  0.333333  0.277778  0.000000     24.000000
  0.388889  0.277778  0.000000     24.000000
  0.444444  0.277778  0.000000     24.000000
  0.500000  0.277778  0.000000     12.000000
  0.333333  0.333333  0.000000     12.000000
  0.388889  0.333333  0.000000     24.000000
  0.444444  0.333333  0.000000     24.000000
  0.500000  0.333333  0.000000     12.000000
  0.388889  0.388889  0.000000     12.000000
  0.444444  0.388889  0.000000     24.000000
  0.500000  0.388889  0.000000     12.000000
  0.444444  0.444444  0.000000     12.000000
  0.500000  0.444444  0.000000     12.000000
  0.500000  0.500000  0.000000      3.000000
  0.055556  0.055556  0.055556      8.000000
  0.111111  0.055556  0.055556     24.000000
  0.166667  0.055556  0.055556     24.000000
  0.222222  0.055556  0.055556     24.000000
  0.277778  0.055556  0.055556     24.000000
  0.333333  0.055556  0.055556     24.000000
  0.388889  0.055556  0.055556     24.000000
  0.444444  0.055556  0.055556     24.000000
  0.500000  0.055556  0.055556     12.000000
  0.111111  0.111111  0.055556     24.000000
  0.166667  0.111111  0.055556     48.000000
  0.222222  0.111111  0.055556     48.000000
  0.277778  0.111111  0.055556     48.000000
  0.333333  0.111111  0.055556     48.000000
  0.388889  0.111111  0.055556     48.000000
  0.444444  0.111111  0.055556     48.000000
  0.500000  0.111111  0.055556     24.000000
  0.166667  0.166667  0.055556     24.000000
  0.222222  0.166667  0.055556     48.000000
  0.277778  0.166667  0.055556     48.000000
  0.333333  0.166667  0.055556     48.000000
  0.388889  0.166667  0.055556     48.000000
  0.444444  0.166667  0.055556     48.000000
  0.500000  0.166667  0.055556     24.000000
  0.222222  0.222222  0.055556     24.000000
  0.277778  0.222222  0.055556     48.000000
  0.333333  0.222222  0.055556     48.000000
  0.388889  0.222222  0.055556     48.000000
  0.444444  0.222222  0.055556     48.000000
  0.500000  0.222222  0.055556     24.000000
  0.277778  0.277778  0.055556     24.000000
  0.333333  0.277778  0.055556     48.000000
  0.388889  0.277778  0.055556     48.000000
  0.444444  0.277778  0.055556     48.000000
  0.500000  0.277778  0.055556     24.000000
  0.333333  0.333333  0.055556     24.000000
  0.388889  0.333333  0.055556     48.000000
  0.444444  0.333333  0.055556     48.000000
  0.500000  0.333333  0.055556     24.000000
  0.388889  0.388889  0.055556     24.000000
  0.444444  0.388889  0.055556     48.000000
  0.500000  0.388889  0.055556     24.000000
  0.444444  0.444444  0.055556     24.000000
  0.500000  0.444444  0.055556     24.000000
  0.500000  0.500000  0.055556      6.000000
  0.111111  0.111111  0.111111      8.000000
  0.166667  0.111111  0.111111     24.000000
  0.222222  0.111111  0.111111     24.000000
  0.277778  0.111111  0.111111     24.000000
  0.333333  0.111111  0.111111     24.000000
  0.388889  0.111111  0.111111     24.000000
  0.444444  0.111111  0.111111     24.000000
  0.500000  0.111111  0.111111     12.000000
  0.166667  0.166667  0.111111     24.000000
  0.222222  0.166667  0.111111     48.000000
  0.277778  0.166667  0.111111     48.000000
  0.333333  0.166667  0.111111     48.000000
  0.388889  0.166667  0.111111     48.000000
  0.444444  0.166667  0.111111     48.000000
  0.500000  0.166667  0.111111     24.000000
  0.222222  0.222222  0.111111     24.000000
  0.277778  0.222222  0.111111     48.000000
  0.333333  0.222222  0.111111     48.000000
  0.388889  0.222222  0.111111     48.000000
  0.444444  0.222222  0.111111     48.000000
  0.500000  0.222222  0.111111     24.000000
  0.277778  0.277778  0.111111     24.000000
  0.333333  0.277778  0.111111     48.000000
  0.388889  0.277778  0.111111     48.000000
  0.444444  0.277778  0.111111     48.000000
  0.500000  0.277778  0.111111     24.000000
  0.333333  0.333333  0.111111     24.000000
  0.388889  0.333333  0.111111     48.000000
  0.444444  0.333333  0.111111     48.000000
  0.500000  0.333333  0.111111     24.000000
  0.388889  0.388889  0.111111     24.000000
  0.444444  0.388889  0.111111     48.000000
  0.500000  0.388889  0.111111     24.000000
  0.444444  0.444444  0.111111     24.000000
  0.500000  0.444444  0.111111     24.000000
  0.500000  0.500000  0.111111      6.000000
  0.166667  0.166667  0.166667      8.000000
  0.222222  0.166667  0.166667     24.000000
  0.277778  0.166667  0.166667     24.000000
  0.333333  0.166667  0.166667     24.000000
  0.388889  0.166667  0.166667     24.000000
  0.444444  0.166667  0.166667     24.000000
  0.500000  0.166667  0.166667     12.000000
  0.222222  0.222222  0.166667     24.000000
  0.277778  0.222222  0.166667     48.000000
  0.333333  0.222222  0.166667     48.000000
  0.388889  0.222222  0.166667     48.000000
  0.444444  0.222222  0.166667     48.000000
  0.500000  0.222222  0.166667     24.000000
  0.277778  0.277778  0.166667     24.000000
  0.333333  0.277778  0.166667     48.000000
  0.388889  0.277778  0.166667     48.000000
  0.444444  0.277778  0.166667     48.000000
  0.500000  0.277778  0.166667     24.000000
  0.333333  0.333333  0.166667     24.000000
  0.388889  0.333333  0.166667     48.000000
  0.444444  0.333333  0.166667     48.000000
  0.500000  0.333333  0.166667     24.000000
  0.388889  0.388889  0.166667     24.000000
  0.444444  0.388889  0.166667     48.000000
  0.500000  0.388889  0.166667     24.000000
  0.444444  0.444444  0.166667     24.000000
  0.500000  0.444444  0.166667     24.000000
  0.500000  0.500000  0.166667      6.000000
  0.222222  0.222222  0.222222      8.000000
  0.277778  0.222222  0.222222     24.000000
  0.333333  0.222222  0.222222     24.000000
  0.388889  0.222222  0.222222     24.000000
  0.444444  0.222222  0.222222     24.000000
  0.500000  0.222222  0.222222     12.000000
  0.277778  0.277778  0.222222     24.000000
  0.333333  0.277778  0.222222     48.000000
  0.388889  0.277778  0.222222     48.000000
  0.444444  0.277778  0.222222     48.000000
  0.500000  0.277778  0.222222     24.000000
  0.333333  0.333333  0.222222     24.000000
  0.388889  0.333333  0.222222     48.000000
  0.444444  0.333333  0.222222     48.000000
  0.500000  0.333333  0.222222     24.000000
  0.388889  0.388889  0.222222     24.000000
  0.444444  0.388889  0.222222     48.000000
  0.500000  0.388889  0.222222     24.000000
  0.444444  0.444444  0.222222     24.000000
  0.500000  0.444444  0.222222     24.000000
  0.500000  0.500000  0.222222      6.000000
  0.277778  0.277778  0.277778      8.000000
  0.333333  0.277778  0.277778     24.000000
  0.388889  0.277778  0.277778     24.000000
  0.444444  0.277778  0.277778     24.000000
  0.500000  0.277778  0.277778     12.000000
  0.333333  0.333333  0.277778     24.000000
  0.388889  0.333333  0.277778     48.000000
  0.444444  0.333333  0.277778     48.000000
  0.500000  0.333333  0.277778     24.000000
  0.388889  0.388889  0.277778     24.000000
  0.444444  0.388889  0.277778     48.000000
  0.500000  0.388889  0.277778     24.000000
  0.444444  0.444444  0.277778     24.000000
  0.500000  0.444444  0.277778     24.000000
  0.500000  0.500000  0.277778      6.000000
  0.333333  0.333333  0.333333      8.000000
  0.388889  0.333333  0.333333     24.000000
  0.444444  0.333333  0.333333     24.000000
  0.500000  0.333333  0.333333     12.000000
  0.388889  0.388889  0.333333     24.000000
  0.444444  0.388889  0.333333     48.000000
  0.500000  0.388889  0.333333     24.000000
  0.444444  0.444444  0.333333     24.000000
  0.500000  0.444444  0.333333     24.000000
  0.500000  0.500000  0.333333      6.000000
  0.388889  0.388889  0.388889      8.000000
  0.444444  0.388889  0.388889     24.000000
  0.500000  0.388889  0.388889     12.000000
  0.444444  0.444444  0.388889     24.000000
  0.500000  0.444444  0.388889     24.000000
  0.500000  0.500000  0.388889      6.000000
  0.444444  0.444444  0.444444      8.000000
  0.500000  0.444444  0.444444     12.000000
  0.500000  0.500000  0.444444      6.000000
  0.500000  0.500000  0.500000      1.000000
 


--------------------------------------------------------------------------------------------------------




 Dimension of arrays:
   k-points           NKPTS =    220   k-points in BZ     NKDIM =    220   number of bands    NBANDS=     24
   number of dos      NEDOS =   2000   number of ions     NIONS =      4
   non local maximal  LDIM  =      6   non local SUM 2l+1 LMDIM =     18
   total plane-waves  NPLWV =  27000
   max r-space proj   IRMAX =      1   max aug-charges    IRDMAX= 173059
   dimension x,y,z NGX =    30 NGY =   30 NGZ =   30
   dimension x,y,z NGXF=    60 NGYF=   60 NGZF=   60
   support grid    NGXF=   120 NGYF=  120 NGZF=  120
   ions per type =               1   3
   NGX,Y,Z   is equivalent  to a cutoff of  13.66, 13.66, 13.66 a.u.
   NGXF,Y,Z  is equivalent  to a cutoff of  27.33, 27.33, 27.33 a.u.

 SYSTEM =  Ni3Al EOS                               
 POSCAR =  Al1 Ni3                                 

 Startparameter for this run:
   NWRITE =      2    write-flag & timer
   PREC   = accura    normal or accurate (medium, high low for compatibility)
   ISTART =      0    job   : 0-new  1-cont  2-samecut
   ICHARG =      2    charge: 1-file 2-atom 10-const
   ISPIN  =      2    spin polarized calculation?
   LNONCOLLINEAR =      F non collinear calculations
   LSORBIT =      F    spin-orbit coupling
   INIWAV =      1    electr: 0-lowe 1-rand  2-diag
   LASPH  =      T    aspherical Exc in radial PAW
 Electronic Relaxation 1
   ENCUT  =  600.0 eV  44.10 Ry    6.64 a.u.   7.29  7.29  7.29*2*pi/ulx,y,z
   ENINI  =  600.0     initial cutoff
   ENAUG  =  544.6 eV  augmentation charge cutoff
   NELM   =     60;   NELMIN=  2; NELMDL= -5     # of ELM steps 
   EDIFF  = 0.1E-05   stopping-criterion for ELM
   LREAL  =      F    real-space projection
   NLSPLINE    = F    spline interpolate recip. space projectors
   LCOMPAT=      F    compatible to vasp.4.4
   GGA_COMPAT  = T    GGA compatible to vasp.4.4-vasp.4.6
   LMAXPAW     = -100 max onsite density
   LMAXMIX     =    2 max onsite mixed and CHGCAR
   VOSKOWN=      0    Vosko Wilk Nusair interpolation
   ROPT   =    0.00000   0.00000
 Ionic relaxation
   EDIFFG = -.1E-01   stopping-criterion for IOM
   NSW    =    100    number of steps for IOM
   NBLOCK =      1;   KBLOCK =    100    inner block; outer block 
   IBRION =      2    ionic relax: 0-MD 1-quasi-New 2-CG
   NFREE  =      1    steps in history (QN), initial steepest desc. (CG)
   ISIF   =      2    stress and relaxation
   IWAVPR =     11    prediction:  0-non 1-charg 2-wave 3-comb
   ISYM   =      2    0-nonsym 1-usesym 2-fastsym
   LCORR  =      T    Harris-Foulkes like correction to forces

   POTIM  = 0.5000    time-step for ionic-motion
   TEIN   =    0.0    initial temperature
   TEBEG  =    0.0;   TEEND  =   0.0 temperature during run
   SMASS  =  -3.00    Nose mass-parameter (am)
   estimated Nose-frequenzy (Omega)   =  0.10E-29 period in steps = 0.13E+47 mass=  -0.304E-27a.u.
   SCALEE = 1.0000    scale energy and forces
   NPACO  =    256;   APACO  = 10.0  distance and # of slots for P.C.
   PSTRESS=    0.0 pullay stress

  Mass of Ions in am
   POMASS =  26.98 58.69
  Ionic Valenz
   ZVAL   =   3.00 10.00
  Atomic Wigner-Seitz radii
   RWIGS  =  -1.00 -1.00
  virtual crystal weights 
   VCA    =   1.00  1.00
   NELECT =      33.0000    total number of electrons
   NUPDOWN=      -1.0000    fix difference up-down

 DOS related values:
   EMIN   =  10.00;   EMAX   =-10.00  energy-range for DOS
   EFERMI =   0.00
   ISMEAR =     1;   SIGMA  =   0.20  broadening in eV -4-tet -1-fermi 0-gaus

 Electronic relaxation 2 (details)
   IALGO  =     38    algorithm
   LDIAG  =      T    sub-space diagonalisation (order eigenvalues)
   LSUBROT=      F    optimize rotation matrix (better conditioning)
   TURBO    =      0    0=normal 1=particle mesh
   IRESTART =      0    0=no restart 2=restart with 2 vectors
   NREBOOT  =      0    no. of reboots
   NMIN     =      0    reboot dimension
   EREF     =   0.00    reference energy to select bands
   IMIX   =      4    mixing-type and parameters
     AMIX     =   0.40;   BMIX     =  1.00
     AMIX_MAG =   1.60;   BMIX_MAG =  1.00
     AMIN     =   0.10
     WC   =   100.;   INIMIX=   1;  MIXPRE=   1;  MAXMIX= -45

 Intra band minimization:
   WEIMIN = 0.0010     energy-eigenvalue tresh-hold
   EBREAK =  0.10E-07  absolut break condition
   DEPER  =   0.30     relativ break condition  

   TIME   =   0.40     timestep for ELM

  volume/ion in A,a.u.               =      12.16        82.04
  Fermi-wavevector in a.u.,A,eV,Ry     =   1.438644  2.718643 28.159924  2.069696
  Thomas-Fermi vector in A             =   2.557588
 
 Write flags
   LWAVE        =      F    write WAVECAR
   LDOWNSAMPLE  =      F    k-point downsampling of WAVECAR
   LCHARG       =      T    write CHGCAR
   LVTOT        =      F    write LOCPOT, total local potential
   LVHAR        =      F    write LOCPOT, Hartree potential only
   LELF         =      F    write electronic localiz. function (ELF)
   LORBIT       =      0    0 simple, 1 ext, 2 COOP (PROOUT), +10 PAW based schemes


 Dipole corrections
   LMONO  =      F    monopole corrections only (constant potential shift)
   LDIPOL =      F    correct potential (dipole corrections)
   IDIPOL =      0    1-x, 2-y, 3-z, 4-all directions 
   EPSILON=  1.0000000 bulk dielectric constant

 Exchange correlation treatment:
   GGA     =    --    GGA type
   LEXCH   =     8    internal setting for exchange type
   LIBXC   =     F    Libxc                    
   VOSKOWN =     0    Vosko Wilk Nusair interpolation
   LHFCALC =     F    Hartree Fock is set to
   LHFONE  =     F    Hartree Fock one center treatment
   AEXX    =    0.0000 exact exchange contribution

 Linear response parameters
   LEPSILON=     F    determine dielectric tensor
   LRPA    =     F    only Hartree local field effects (RPA)
   LNABLA  =     F    use nabla operator in PAW spheres
   LVEL    =     F    velocity operator in full k-point grid
   CSHIFT  =0.1000    complex shift for real part using Kramers Kronig
   OMEGAMAX=  -1.0    maximum frequency
   DEG_THRESHOLD= 0.2000000E-02 threshold for treating states as degnerate
   RTIME   =   -0.100 relaxation time in fs
  (WPLASMAI=    0.000 imaginary part of plasma frequency in eV, 0.658/RTIME)
   DFIELD  = 0.0000000 0.0000000 0.0000000 field for delta impulse in time
 
  Optional k-point grid parameters
   LKPOINTS_OPT  =     F    use optional k-point grid
   KPOINTS_OPT_MODE=     1    mode for optional k-point grid
 
 Orbital magnetization related:
   ORBITALMAG=     F  switch on orbital magnetization
   LCHIMAG   =     F  perturbation theory with respect to B field
   DQ        =  0.001000  dq finite difference perturbation B field
   LLRAUG    =     F  two centre corrections for induced B field



--------------------------------------------------------------------------------------------------------


 conjugate gradient relaxation of ions
 charge density and potential will be updated during run
 spin polarized calculation
 Variant of blocked Davidson
 Davidson routine will perform the subspace rotation
 perform sub-space diagonalisation
    after iterative eigenvector-optimisation
 modified Broyden-mixing scheme, WC =      100.0
 initial mixing is a Kerker type mixing with AMIX =  0.4000 and BMIX =      1.0000
 Hartree-type preconditioning will be used
 using additional bands            7
 reciprocal scheme for non local part
 use partial core corrections
 calculate Harris-corrections to forces 
   (improved forces if not selfconsistent)
 use gradient corrections 
 use of overlap-Matrix (Vanderbilt PP)
 Methfessel and Paxton  Order N= 1 SIGMA  =   0.20


--------------------------------------------------------------------------------------------------------


  energy-cutoff  :      600.00
  volume of cell :       48.63
      direct lattice vectors                 reciprocal lattice vectors
     3.650000000  0.000000000  0.000000000     0.273972603  0.000000000  0.000000000
     0.000000000  3.650000000  0.000000000     0.000000000  0.273972603  0.000000000
     0.000000000  0.000000000  3.650000000     0.000000000  0.000000000  0.273972603

  length of vectors
     3.650000000  3.650000000  3.650000000     0.273972603  0.273972603  0.273972603


 
 k-points in units of 2pi/SCALE and weight: Automatic mesh                          
   0.00000000  0.00000000  0.00000000       0.000
   0.05555556  0.00000000  0.00000000       0.001
   0.11111111  0.00000000  0.00000000       0.001
   0.16666667  0.00000000  0.00000000       0.001
   0.22222222  0.00000000  0.00000000       0.001
   0.27777778  0.00000000  0.00000000       0.001
   0.33333333  0.00000000  0.00000000       0.001
   0.38888889  0.00000000  0.00000000       0.001
   0.44444444  0.00000000  0.00000000       0.001
   0.50000000  0.00000000  0.00000000       0.001
   0.05555556  0.05555556  0.00000000       0.002
   0.11111111  0.05555556  0.00000000       0.004
   0.16666667  0.05555556  0.00000000       0.004
   0.22222222  0.05555556  0.00000000       0.004
   0.27777778  0.05555556  0.00000000       0.004
   0.33333333  0.05555556  0.00000000       0.004
   0.38888889  0.05555556  0.00000000       0.004
   0.44444444  0.05555556  0.00000000       0.004
   0.50000000  0.05555556  0.00000000       0.002
   0.11111111  0.11111111  0.00000000       0.002
   0.16666667  0.11111111  0.00000000       0.004
   0.22222222  0.11111111  0.00000000       0.004
   0.27777778  0.11111111  0.00000000       0.004
   0.33333333  0.11111111  0.00000000       0.004
   0.38888889  0.11111111  0.00000000       0.004
   0.44444444  0.11111111  0.00000000       0.004
   0.50000000  0.11111111  0.00000000       0.002
   0.16666667  0.16666667  0.00000000       0.002
   0.22222222  0.16666667  0.00000000       0.004
   0.27777778  0.16666667  0.00000000       0.004
   0.33333333  0.16666667  0.00000000       0.004
   0.38888889  0.16666667  0.00000000       0.004
   0.44444444  0.16666667  0.00000000       0.004
   0.50000000  0.16666667  0.00000000       0.002
   0.22222222  0.22222222  0.00000000       0.002
   0.27777778  0.22222222  0.00000000       0.004
   0.33333333  0.22222222  0.00000000       0.004
   0.38888889  0.22222222  0.00000000       0.004
   0.44444444  0.22222222  0.00000000       0.004
   0.50000000  0.22222222  0.00000000       0.002
   0.27777778  0.27777778  0.00000000       0.002
   0.33333333  0.27777778  0.00000000       0.004
   0.38888889  0.27777778  0.00000000       0.004
   0.44444444  0.27777778  0.00000000       0.004
   0.50000000  0.27777778  0.00000000       0.002
   0.33333333  0.33333333  0.00000000       0.002
   0.38888889  0.33333333  0.00000000       0.004
   0.44444444  0.33333333  0.00000000       0.004
   0.50000000  0.33333333  0.00000000       0.002
   0.38888889  0.38888889  0.00000000       0.002
   0.44444444  0.38888889  0.00000000       0.004
   0.50000000  0.38888889  0.00000000       0.002
   0.44444444  0.44444444  0.00000000       0.002
   0.50000000  0.44444444  0.00000000       0.002
   0.50000000  0.50000000  0.00000000       0.001
   0.05555556  0.05555556  0.05555556       0.001
   0.11111111  0.05555556  0.05555556       0.004
   0.16666667  0.05555556  0.05555556       0.004
   0.22222222  0.05555556  0.05555556       0.004
   0.27777778  0.05555556  0.05555556       0.004
   0.33333333  0.05555556  0.05555556       0.004
   0.38888889  0.05555556  0.05555556       0.004
   0.44444444  0.05555556  0.05555556       0.004
   0.50000000  0.05555556  0.05555556       0.002
   0.11111111  0.11111111  0.05555556       0.004
   0.16666667  0.11111111  0.05555556       0.008
   0.22222222  0.11111111  0.05555556       0.008
   0.27777778  0.11111111  0.05555556       0.008
   0.33333333  0.11111111  0.05555556       0.008
   0.38888889  0.11111111  0.05555556       0.008
   0.44444444  0.11111111  0.05555556       0.008
   0.50000000  0.11111111  0.05555556       0.004
   0.16666667  0.16666667  0.05555556       0.004
   0.22222222  0.16666667  0.05555556       0.008
   0.27777778  0.16666667  0.05555556       0.008
   0.33333333  0.16666667  0.05555556       0.008
   0.38888889  0.16666667  0.05555556       0.008
   0.44444444  0.16666667  0.05555556       0.008
   0.50000000  0.16666667  0.05555556       0.004
   0.22222222  0.22222222  0.05555556       0.004
   0.27777778  0.22222222  0.05555556       0.008
   0.33333333  0.22222222  0.05555556       0.008
   0.38888889  0.22222222  0.05555556       0.008
   0.44444444  0.22222222  0.05555556       0.008
   0.50000000  0.22222222  0.05555556       0.004
   0.27777778  0.27777778  0.05555556       0.004
   0.33333333  0.27777778  0.05555556       0.008
   0.38888889  0.27777778  0.05555556       0.008
   0.44444444  0.27777778  0.05555556       0.008
   0.50000000  0.27777778  0.05555556       0.004
   0.33333333  0.33333333  0.05555556       0.004
   0.38888889  0.33333333  0.05555556       0.008
   0.44444444  0.33333333  0.05555556       0.008
   0.50000000  0.33333333  0.05555556       0.004
   0.38888889  0.38888889  0.05555556       0.004
   0.44444444  0.38888889  0.05555556       0.008
   0.50000000  0.38888889  0.05555556       0.004
   0.44444444  0.44444444  0.05555556       0.004
   0.50000000  0.44444444  0.05555556       0.004
   0.50000000  0.50000000  0.05555556       0.001
   0.11111111  0.11111111  0.11111111       0.001
   0.16666667  0.11111111  0.11111111       0.004
   0.22222222  0.11111111  0.11111111       0.004
   0.27777778  0.11111111  0.11111111       0.004
   0.33333333  0.11111111  0.11111111       0.004
   0.38888889  0.11111111  0.11111111       0.004
   0.44444444  0.11111111  0.11111111       0.004
   0.50000000  0.11111111  0.11111111       0.002
   0.16666667  0.16666667  0.11111111       0.004
   0.22222222  0.16666667  0.11111111       0.008
   0.27777778  0.16666667  0.11111111       0.008
   0.33333333  0.16666667  0.11111111       0.008
   0.38888889  0.16666667  0.11111111       0.008
   0.44444444  0.16666667  0.11111111       0.008
   0.50000000  0.16666667  0.11111111       0.004
   0.22222222  0.22222222  0.11111111       0.004
   0.27777778  0.22222222  0.11111111       0.008
   0.33333333  0.22222222  0.11111111       0.008
   0.38888889  0.22222222  0.11111111       0.008
   0.44444444  0.22222222  0.11111111       0.008
   0.50000000  0.22222222  0.11111111       0.004
   0.27777778  0.27777778  0.11111111       0.004
   0.33333333  0.27777778  0.11111111       0.008
   0.38888889  0.27777778  0.11111111       0.008
   0.44444444  0.27777778  0.11111111       0.008
   0.50000000  0.27777778  0.11111111       0.004
   0.33333333  0.33333333  0.11111111       0.004
   0.38888889  0.33333333  0.11111111       0.008
   0.44444444  0.33333333  0.11111111       0.008
   0.50000000  0.33333333  0.11111111       0.004
   0.38888889  0.38888889  0.11111111       0.004
   0.44444444  0.38888889  0.11111111       0.008
   0.50000000  0.38888889  0.11111111       0.004
   0.44444444  0.44444444  0.11111111       0.004
   0.50000000  0.44444444  0.11111111       0.004
   0.50000000  0.50000000  0.11111111       0.001
   0.16666667  0.16666667  0.16666667       0.001
   0.22222222  0.16666667  0.16666667       0.004
   0.27777778  0.16666667  0.16666667       0.004
   0.33333333  0.16666667  0.16666667       0.004
   0.38888889  0.16666667  0.16666667       0.004
   0.44444444  0.16666667  0.16666667       0.004
   0.50000000  0.16666667  0.16666667       0.002
   0.22222222  0.22222222  0.16666667       0.004
   0.27777778  0.22222222  0.16666667       0.008
   0.33333333  0.22222222  0.16666667       0.008
   0.38888889  0.22222222  0.16666667       0.008
   0.44444444  0.22222222  0.16666667       0.008
   0.50000000  0.22222222  0.16666667       0.004
   0.27777778  0.27777778  0.16666667       0.004
   0.33333333  0.27777778  0.16666667       0.008
   0.38888889  0.27777778  0.16666667       0.008
   0.44444444  0.27777778  0.16666667       0.008
   0.50000000  0.27777778  0.16666667       0.004
   0.33333333  0.33333333  0.16666667       0.004
   0.38888889  0.33333333  0.16666667       0.008
   0.44444444  0.33333333  0.16666667       0.008
   0.50000000  0.33333333  0.16666667       0.004
   0.38888889  0.38888889  0.16666667       0.004
   0.44444444  0.38888889  0.16666667       0.008
   0.50000000  0.38888889  0.16666667       0.004
   0.44444444  0.44444444  0.16666667       0.004
   0.50000000  0.44444444  0.16666667       0.004
   0.50000000  0.50000000  0.16666667       0.001
   0.22222222  0.22222222  0.22222222       0.001
   0.27777778  0.22222222  0.22222222       0.004
   0.33333333  0.22222222  0.22222222       0.004
   0.38888889  0.22222222  0.22222222       0.004
   0.44444444  0.22222222  0.22222222       0.004
   0.50000000  0.22222222  0.22222222       0.002
   0.27777778  0.27777778  0.22222222       0.004
   0.33333333  0.27777778  0.22222222       0.008
   0.38888889  0.27777778  0.22222222       0.008
   0.44444444  0.27777778  0.22222222       0.008
   0.50000000  0.27777778  0.22222222       0.004
   0.33333333  0.33333333  0.22222222       0.004
   0.38888889  0.33333333  0.22222222       0.008
   0.44444444  0.33333333  0.22222222       0.008
   0.50000000  0.33333333  0.22222222       0.004
   0.38888889  0.38888889  0.22222222       0.004
   0.44444444  0.38888889  0.22222222       0.008
   0.50000000  0.38888889  0.22222222       0.004
   0.44444444  0.44444444  0.22222222       0.004
   0.50000000  0.44444444  0.22222222       0.004
   0.50000000  0.50000000  0.22222222       0.001
   0.27777778  0.27777778  0.27777778       0.001
   0.33333333  0.27777778  0.27777778       0.004
   0.38888889  0.27777778  0.27777778       0.004
   0.44444444  0.27777778  0.27777778       0.004
   0.50000000  0.27777778  0.27777778       0.002
   0.33333333  0.33333333  0.27777778       0.004
   0.38888889  0.33333333  0.27777778       0.008
   0.44444444  0.33333333  0.27777778       0.008
   0.50000000  0.33333333  0.27777778       0.004
   0.38888889  0.38888889  0.27777778       0.004
   0.44444444  0.38888889  0.27777778       0.008
   0.50000000  0.38888889  0.27777778       0.004
   0.44444444  0.44444444  0.27777778       0.004
   0.50000000  0.44444444  0.27777778       0.004
   0.50000000  0.50000000  0.27777778       0.001
   0.33333333  0.33333333  0.33333333       0.001
   0.38888889  0.33333333  0.33333333       0.004
   0.44444444  0.33333333  0.33333333       0.004
   0.50000000  0.33333333  0.33333333       0.002
   0.38888889  0.38888889  0.33333333       0.004
   0.44444444  0.38888889  0.33333333       0.008
   0.50000000  0.38888889  0.33333333       0.004
   0.44444444  0.44444444  0.33333333       0.004
   0.50000000  0.44444444  0.33333333       0.004
   0.50000000  0.50000000  0.33333333       0.001
   0.38888889  0.38888889  0.38888889       0.001
   0.44444444  0.38888889  0.38888889       0.004
   0.50000000  0.38888889  0.38888889       0.002
   0.44444444  0.44444444  0.38888889       0.004
   0.50000000  0.44444444  0.38888889       0.004
   0.50000000  0.50000000  0.38888889       0.001
   0.44444444  0.44444444  0.44444444       0.001
   0.50000000  0.44444444  0.44444444       0.002
   0.50000000  0.50000000  0.44444444       0.001
   0.50000000  0.50000000  0.50000000       0.000
 
 k-points in reciprocal lattice and weights: Automatic mesh                          
   0.00000000  0.00000000  0.00000000       0.000
   0.05555556  0.00000000  0.00000000       0.001
   0.11111111  0.00000000  0.00000000       0.001
   0.16666667  0.00000000  0.00000000       0.001
   0.22222222  0.00000000  0.00000000       0.001
   0.27777778  0.00000000  0.00000000       0.001
   0.33333333  0.00000000  0.00000000       0.001
   0.38888889  0.00000000  0.00000000       0.001
   0.44444444  0.00000000  0.00000000       0.001
   0.50000000  0.00000000  0.00000000       0.001
   0.05555556  0.05555556  0.00000000       0.002
   0.11111111  0.05555556  0.00000000       0.004
   0.16666667  0.05555556  0.00000000       0.004
   0.22222222  0.05555556  0.00000000       0.004
   0.27777778  0.05555556  0.00000000       0.004
   0.33333333  0.05555556  0.00000000       0.004
   0.38888889  0.05555556  0.00000000       0.004
   0.44444444  0.05555556  0.00000000       0.004
   0.50000000  0.05555556  0.00000000       0.002
   0.11111111  0.11111111  0.00000000       0.002
   0.16666667  0.11111111  0.00000000       0.004
   0.22222222  0.11111111  0.00000000       0.004
   0.27777778  0.11111111  0.00000000       0.004
   0.33333333  0.11111111  0.00000000       0.004
   0.38888889  0.11111111  0.00000000       0.004
   0.44444444  0.11111111  0.00000000       0.004
   0.50000000  0.11111111  0.00000000       0.002
   0.16666667  0.16666667  0.00000000       0.002
   0.22222222  0.16666667  0.00000000       0.004
   0.27777778  0.16666667  0.00000000       0.004
   0.33333333  0.16666667  0.00000000       0.004
   0.38888889  0.16666667  0.00000000       0.004
   0.44444444  0.16666667  0.00000000       0.004
   0.50000000  0.16666667  0.00000000       0.002
   0.22222222  0.22222222  0.00000000       0.002
   0.27777778  0.22222222  0.00000000       0.004
   0.33333333  0.22222222  0.00000000       0.004
   0.38888889  0.22222222  0.00000000       0.004
   0.44444444  0.22222222  0.00000000       0.004
   0.50000000  0.22222222  0.00000000       0.002
   0.27777778  0.27777778  0.00000000       0.002
   0.33333333  0.27777778  0.00000000       0.004
   0.38888889  0.27777778  0.00000000       0.004
   0.44444444  0.27777778  0.00000000       0.004
   0.50000000  0.27777778  0.00000000       0.002
   0.33333333  0.33333333  0.00000000       0.002
   0.38888889  0.33333333  0.00000000       0.004
   0.44444444  0.33333333  0.00000000       0.004
   0.50000000  0.33333333  0.00000000       0.002
   0.38888889  0.38888889  0.00000000       0.002
   0.44444444  0.38888889  0.00000000       0.004
   0.50000000  0.38888889  0.00000000       0.002
   0.44444444  0.44444444  0.00000000       0.002
   0.50000000  0.44444444  0.00000000       0.002
   0.50000000  0.50000000  0.00000000       0.001
   0.05555556  0.05555556  0.05555556       0.001
   0.11111111  0.05555556  0.05555556       0.004
   0.16666667  0.05555556  0.05555556       0.004
   0.22222222  0.05555556  0.05555556       0.004
   0.27777778  0.05555556  0.05555556       0.004
   0.33333333  0.05555556  0.05555556       0.004
   0.38888889  0.05555556  0.05555556       0.004
   0.44444444  0.05555556  0.05555556       0.004
   0.50000000  0.05555556  0.05555556       0.002
   0.11111111  0.11111111  0.05555556       0.004
   0.16666667  0.11111111  0.05555556       0.008
   0.22222222  0.11111111  0.05555556       0.008
   0.27777778  0.11111111  0.05555556       0.008
   0.33333333  0.11111111  0.05555556       0.008
   0.38888889  0.11111111  0.05555556       0.008
   0.44444444  0.11111111  0.05555556       0.008
   0.50000000  0.11111111  0.05555556       0.004
   0.16666667  0.16666667  0.05555556       0.004
   0.22222222  0.16666667  0.05555556       0.008
   0.27777778  0.16666667  0.05555556       0.008
   0.33333333  0.16666667  0.05555556       0.008
   0.38888889  0.16666667  0.05555556       0.008
   0.44444444  0.16666667  0.05555556       0.008
   0.50000000  0.16666667  0.05555556       0.004
   0.22222222  0.22222222  0.05555556       0.004
   0.27777778  0.22222222  0.05555556       0.008
   0.33333333  0.22222222  0.05555556       0.008
   0.38888889  0.22222222  0.05555556       0.008
   0.44444444  0.22222222  0.05555556       0.008
   0.50000000  0.22222222  0.05555556       0.004
   0.27777778  0.27777778  0.05555556       0.004
   0.33333333  0.27777778  0.05555556       0.008
   0.38888889  0.27777778  0.05555556       0.008
   0.44444444  0.27777778  0.05555556       0.008
   0.50000000  0.27777778  0.05555556       0.004
   0.33333333  0.33333333  0.05555556       0.004
   0.38888889  0.33333333  0.05555556       0.008
   0.44444444  0.33333333  0.05555556       0.008
   0.50000000  0.33333333  0.05555556       0.004
   0.38888889  0.38888889  0.05555556       0.004
   0.44444444  0.38888889  0.05555556       0.008
   0.50000000  0.38888889  0.05555556       0.004
   0.44444444  0.44444444  0.05555556       0.004
   0.50000000  0.44444444  0.05555556       0.004
   0.50000000  0.50000000  0.05555556       0.001
   0.11111111  0.11111111  0.11111111       0.001
   0.16666667  0.11111111  0.11111111       0.004
   0.22222222  0.11111111  0.11111111       0.004
   0.27777778  0.11111111  0.11111111       0.004
   0.33333333  0.11111111  0.11111111       0.004
   0.38888889  0.11111111  0.11111111       0.004
   0.44444444  0.11111111  0.11111111       0.004
   0.50000000  0.11111111  0.11111111       0.002
   0.16666667  0.16666667  0.11111111       0.004
   0.22222222  0.16666667  0.11111111       0.008
   0.27777778  0.16666667  0.11111111       0.008
   0.33333333  0.16666667  0.11111111       0.008
   0.38888889  0.16666667  0.11111111       0.008
   0.44444444  0.16666667  0.11111111       0.008
   0.50000000  0.16666667  0.11111111       0.004
   0.22222222  0.22222222  0.11111111       0.004
   0.27777778  0.22222222  0.11111111       0.008
   0.33333333  0.22222222  0.11111111       0.008
   0.38888889  0.22222222  0.11111111       0.008
   0.44444444  0.22222222  0.11111111       0.008
   0.50000000  0.22222222  0.11111111       0.004
   0.27777778  0.27777778  0.11111111       0.004
   0.33333333  0.27777778  0.11111111       0.008
   0.38888889  0.27777778  0.11111111       0.008
   0.44444444  0.27777778  0.11111111       0.008
   0.50000000  0.27777778  0.11111111       0.004
   0.33333333  0.33333333  0.11111111       0.004
   0.38888889  0.33333333  0.11111111       0.008
   0.44444444  0.33333333  0.11111111       0.008
   0.50000000  0.33333333  0.11111111       0.004
   0.38888889  0.38888889  0.11111111       0.004
   0.44444444  0.38888889  0.11111111       0.008
   0.50000000  0.38888889  0.11111111       0.004
   0.44444444  0.44444444  0.11111111       0.004
   0.50000000  0.44444444  0.11111111       0.004
   0.50000000  0.50000000  0.11111111       0.001
   0.16666667  0.16666667  0.16666667       0.001
   0.22222222  0.16666667  0.16666667       0.004
   0.27777778  0.16666667  0.16666667       0.004
   0.33333333  0.16666667  0.16666667       0.004
   0.38888889  0.16666667  0.16666667       0.004
   0.44444444  0.16666667  0.16666667       0.004
   0.50000000  0.16666667  0.16666667       0.002
   0.22222222  0.22222222  0.16666667       0.004
   0.27777778  0.22222222  0.16666667       0.008
   0.33333333  0.22222222  0.16666667       0.008
   0.38888889  0.22222222  0.16666667       0.008
   0.44444444  0.22222222  0.16666667       0.008
   0.50000000  0.22222222  0.16666667       0.004
   0.27777778  0.27777778  0.16666667       0.004
   0.33333333  0.27777778  0.16666667       0.008
   0.38888889  0.27777778  0.16666667       0.008
   0.44444444  0.27777778  0.16666667       0.008
   0.50000000  0.27777778  0.16666667       0.004
   0.33333333  0.33333333  0.16666667       0.004
   0.38888889  0.33333333  0.16666667       0.008
   0.44444444  0.33333333  0.16666667       0.008
   0.50000000  0.33333333  0.16666667       0.004
   0.38888889  0.38888889  0.16666667       0.004
   0.44444444  0.38888889  0.16666667       0.008
   0.50000000  0.38888889  0.16666667       0.004
   0.44444444  0.44444444  0.16666667       0.004
   0.50000000  0.44444444  0.16666667       0.004
   0.50000000  0.50000000  0.16666667       0.001
   0.22222222  0.22222222  0.22222222       0.001
   0.27777778  0.22222222  0.22222222       0.004
   0.33333333  0.22222222  0.22222222       0.004
   0.38888889  0.22222222  0.22222222       0.004
   0.44444444  0.22222222  0.22222222       0.004
   0.50000000  0.22222222  0.22222222       0.002
   0.27777778  0.27777778  0.22222222       0.004
   0.33333333  0.27777778  0.22222222       0.008
   0.38888889  0.27777778  0.22222222       0.008
   0.44444444  0.27777778  0.22222222       0.008
   0.50000000  0.27777778  0.22222222       0.004
   0.33333333  0.33333333  0.22222222       0.004
   0.38888889  0.33333333  0.22222222       0.008
   0.44444444  0.33333333  0.22222222       0.008
   0.50000000  0.33333333  0.22222222       0.004
   0.38888889  0.38888889  0.22222222       0.004
   0.44444444  0.38888889  0.22222222       0.008
   0.50000000  0.38888889  0.22222222       0.004
   0.44444444  0.44444444  0.22222222       0.004
   0.50000000  0.44444444  0.22222222       0.004
   0.50000000  0.50000000  0.22222222       0.001
   0.27777778  0.27777778  0.27777778       0.001
   0.33333333  0.27777778  0.27777778       0.004
   0.38888889  0.27777778  0.27777778       0.004
   0.44444444  0.27777778  0.27777778       0.004
   0.50000000  0.27777778  0.27777778       0.002
   0.33333333  0.33333333  0.27777778       0.004
   0.38888889  0.33333333  0.27777778       0.008
   0.44444444  0.33333333  0.27777778       0.008
   0.50000000  0.33333333  0.27777778       0.004
   0.38888889  0.38888889  0.27777778       0.004
   0.44444444  0.38888889  0.27777778       0.008
   0.50000000  0.38888889  0.27777778       0.004
   0.44444444  0.44444444  0.27777778       0.004
   0.50000000  0.44444444  0.27777778       0.004
   0.50000000  0.50000000  0.27777778       0.001
   0.33333333  0.33333333  0.33333333       0.001
   0.38888889  0.33333333  0.33333333       0.004
   0.44444444  0.33333333  0.33333333       0.004
   0.50000000  0.33333333  0.33333333       0.002
   0.38888889  0.38888889  0.33333333       0.004
   0.44444444  0.38888889  0.33333333       0.008
   0.50000000  0.38888889  0.33333333       0.004
   0.44444444  0.44444444  0.33333333       0.004
   0.50000000  0.44444444  0.33333333       0.004
   0.50000000  0.50000000  0.33333333       0.001
   0.38888889  0.38888889  0.38888889       0.001
   0.44444444  0.38888889  0.38888889       0.004
   0.50000000  0.38888889  0.38888889       0.002
   0.44444444  0.44444444  0.38888889       0.004
   0.50000000  0.44444444  0.38888889       0.004
   0.50000000  0.50000000  0.38888889       0.001
   0.44444444  0.44444444  0.44444444       0.001
   0.50000000  0.44444444  0.44444444       0.002
   0.50000000  0.50000000  0.44444444       0.001
   0.50000000  0.50000000  0.50000000       0.000
 
 position of ions in fractional coordinates (direct lattice) 
   0.00000000  0.00000000  0.00000000
   0.50000000  0.00000000  0.50000000
   0.50000000  0.50000000  0.00000000
   0.00000000  0.50000000  0.50000000
 
 position of ions in cartesian coordinates  (Angst):
   0.00000000  0.00000000  0.00000000
   1.82500000  0.00000000  1.82500000
   1.82500000  1.82500000  0.00000000
   0.00000000  1.82500000  1.82500000
 


--------------------------------------------------------------------------------------------------------


 k-point   1 :   0.0000 0.0000 0.0000  plane waves:    1647
 k-point   2 :   0.0556 0.0000 0.0000  plane waves:    1623
 k-point   3 :   0.1111 0.0000 0.0000  plane waves:    1631
 k-point   4 :   0.1667 0.0000 0.0000  plane waves:    1631
 k-point   5 :   0.2222 0.0000 0.0000  plane waves:    1619
 k-point   6 :   0.2778 0.0000 0.0000  plane waves:    1639
 k-point   7 :   0.3333 0.0000 0.0000  plane waves:    1630
 k-point   8 :   0.3889 0.0000 0.0000  plane waves:    1618
 k-point   9 :   0.4444 0.0000 0.0000  plane waves:    1630
 k-point  10 :   0.5000 0.0000 0.0000  plane waves:    1622
 k-point  11 :   0.0556 0.0556 0.0000  plane waves:    1625
 k-point  12 :   0.1111 0.0556 0.0000  plane waves:    1635
 k-point  13 :   0.1667 0.0556 0.0000  plane waves:    1631
 k-point  14 :   0.2222 0.0556 0.0000  plane waves:    1628
 k-point  15 :   0.2778 0.0556 0.0000  plane waves:    1628
 k-point  16 :   0.3333 0.0556 0.0000  plane waves:    1628
 k-point  17 :   0.3889 0.0556 0.0000  plane waves:    1622
 k-point  18 :   0.4444 0.0556 0.0000  plane waves:    1628
 k-point  19 :   0.5000 0.0556 0.0000  plane waves:    1638
 k-point  20 :   0.1111 0.1111 0.0000  plane waves:    1631
 k-point  21 :   0.1667 0.1111 0.0000  plane waves:    1628
 k-point  22 :   0.2222 0.1111 0.0000  plane waves:    1628
 k-point  23 :   0.2778 0.1111 0.0000  plane waves:    1625
 k-point  24 :   0.3333 0.1111 0.0000  plane waves:    1622
 k-point  25 :   0.3889 0.1111 0.0000  plane waves:    1617
 k-point  26 :   0.4444 0.1111 0.0000  plane waves:    1622
 k-point  27 :   0.5000 0.1111 0.0000  plane waves:    1618
 k-point  28 :   0.1667 0.1667 0.0000  plane waves:    1638
 k-point  29 :   0.2222 0.1667 0.0000  plane waves:    1620
 k-point  30 :   0.2778 0.1667 0.0000  plane waves:    1619
 k-point  31 :   0.3333 0.1667 0.0000  plane waves:    1627
 k-point  32 :   0.3889 0.1667 0.0000  plane waves:    1623
 k-point  33 :   0.4444 0.1667 0.0000  plane waves:    1626
 k-point  34 :   0.5000 0.1667 0.0000  plane waves:    1622
 k-point  35 :   0.2222 0.2222 0.0000  plane waves:    1624
 k-point  36 :   0.2778 0.2222 0.0000  plane waves:    1619
 k-point  37 :   0.3333 0.2222 0.0000  plane waves:    1615
 k-point  38 :   0.3889 0.2222 0.0000  plane waves:    1627
 k-point  39 :   0.4444 0.2222 0.0000  plane waves:    1623
 k-point  40 :   0.5000 0.2222 0.0000  plane waves:    1620
 k-point  41 :   0.2778 0.2778 0.0000  plane waves:    1616
 k-point  42 :   0.3333 0.2778 0.0000  plane waves:    1618
 k-point  43 :   0.3889 0.2778 0.0000  plane waves:    1624
 k-point  44 :   0.4444 0.2778 0.0000  plane waves:    1621
 k-point  45 :   0.5000 0.2778 0.0000  plane waves:    1628
 k-point  46 :   0.3333 0.3333 0.0000  plane waves:    1614
 k-point  47 :   0.3889 0.3333 0.0000  plane waves:    1618
 k-point  48 :   0.4444 0.3333 0.0000  plane waves:    1621
 k-point  49 :   0.5000 0.3333 0.0000  plane waves:    1622
 k-point  50 :   0.3889 0.3889 0.0000  plane waves:    1620
 k-point  51 :   0.4444 0.3889 0.0000  plane waves:    1630
 k-point  52 :   0.5000 0.3889 0.0000  plane waves:    1626
 k-point  53 :   0.4444 0.4444 0.0000  plane waves:    1628
 k-point  54 :   0.5000 0.4444 0.0000  plane waves:    1628
 k-point  55 :   0.5000 0.5000 0.0000  plane waves:    1628
 k-point  56 :   0.0556 0.0556 0.0556  plane waves:    1638
 k-point  57 :   0.1111 0.0556 0.0556  plane waves:    1637
 k-point  58 :   0.1667 0.0556 0.0556  plane waves:    1624
 k-point  59 :   0.2222 0.0556 0.0556  plane waves:    1628
 k-point  60 :   0.2778 0.0556 0.0556  plane waves:    1625
 k-point  61 :   0.3333 0.0556 0.0556  plane waves:    1628
 k-point  62 :   0.3889 0.0556 0.0556  plane waves:    1620
 k-point  63 :   0.4444 0.0556 0.0556  plane waves:    1627
 k-point  64 :   0.5000 0.0556 0.0556  plane waves:    1618
 k-point  65 :   0.1111 0.1111 0.0556  plane waves:    1641
 k-point  66 :   0.1667 0.1111 0.0556  plane waves:    1633
 k-point  67 :   0.2222 0.1111 0.0556  plane waves:    1624
 k-point  68 :   0.2778 0.1111 0.0556  plane waves:    1622
 k-point  69 :   0.3333 0.1111 0.0556  plane waves:    1622
 k-point  70 :   0.3889 0.1111 0.0556  plane waves:    1619
 k-point  71 :   0.4444 0.1111 0.0556  plane waves:    1622
 k-point  72 :   0.5000 0.1111 0.0556  plane waves:    1624
 k-point  73 :   0.1667 0.1667 0.0556  plane waves:    1630
 k-point  74 :   0.2222 0.1667 0.0556  plane waves:    1627
 k-point  75 :   0.2778 0.1667 0.0556  plane waves:    1624
 k-point  76 :   0.3333 0.1667 0.0556  plane waves:    1622
 k-point  77 :   0.3889 0.1667 0.0556  plane waves:    1625
 k-point  78 :   0.4444 0.1667 0.0556  plane waves:    1619
 k-point  79 :   0.5000 0.1667 0.0556  plane waves:    1618
 k-point  80 :   0.2222 0.2222 0.0556  plane waves:    1621
 k-point  81 :   0.2778 0.2222 0.0556  plane waves:    1619
 k-point  82 :   0.3333 0.2222 0.0556  plane waves:    1615
 k-point  83 :   0.3889 0.2222 0.0556  plane waves:    1623
 k-point  84 :   0.4444 0.2222 0.0556  plane waves:    1622
 k-point  85 :   0.5000 0.2222 0.0556  plane waves:    1614
 k-point  86 :   0.2778 0.2778 0.0556  plane waves:    1613
 k-point  87 :   0.3333 0.2778 0.0556  plane waves:    1615
 k-point  88 :   0.3889 0.2778 0.0556  plane waves:    1627
 k-point  89 :   0.4444 0.2778 0.0556  plane waves:    1618
 k-point  90 :   0.5000 0.2778 0.0556  plane waves:    1620
 k-point  91 :   0.3333 0.3333 0.0556  plane waves:    1618
 k-point  92 :   0.3889 0.3333 0.0556  plane waves:    1620
 k-point  93 :   0.4444 0.3333 0.0556  plane waves:    1624
 k-point  94 :   0.5000 0.3333 0.0556  plane waves:    1626
 k-point  95 :   0.3889 0.3889 0.0556  plane waves:    1619
 k-point  96 :   0.4444 0.3889 0.0556  plane waves:    1628
 k-point  97 :   0.5000 0.3889 0.0556  plane waves:    1630
 k-point  98 :   0.4444 0.4444 0.0556  plane waves:    1628
 k-point  99 :   0.5000 0.4444 0.0556  plane waves:    1632
 k-point 100 :   0.5000 0.5000 0.0556  plane waves:    1632
 k-point 101 :   0.1111 0.1111 0.1111  plane waves:    1635
 k-point 102 :   0.1667 0.1111 0.1111  plane waves:    1630
 k-point 103 :   0.2222 0.1111 0.1111  plane waves:    1628
 k-point 104 :   0.2778 0.1111 0.1111  plane waves:    1632
 k-point 105 :   0.3333 0.1111 0.1111  plane waves:    1624
 k-point 106 :   0.3889 0.1111 0.1111  plane waves:    1619
 k-point 107 :   0.4444 0.1111 0.1111  plane waves:    1622
 k-point 108 :   0.5000 0.1111 0.1111  plane waves:    1614
 k-point 109 :   0.1667 0.1667 0.1111  plane waves:    1628
 k-point 110 :   0.2222 0.1667 0.1111  plane waves:    1632
 k-point 111 :   0.2778 0.1667 0.1111  plane waves:    1629
 k-point 112 :   0.3333 0.1667 0.1111  plane waves:    1622
 k-point 113 :   0.3889 0.1667 0.1111  plane waves:    1616
 k-point 114 :   0.4444 0.1667 0.1111  plane waves:    1620
 k-point 115 :   0.5000 0.1667 0.1111  plane waves:    1618
 k-point 116 :   0.2222 0.2222 0.1111  plane waves:    1624
 k-point 117 :   0.2778 0.2222 0.1111  plane waves:    1621
 k-point 118 :   0.3333 0.2222 0.1111  plane waves:    1621
 k-point 119 :   0.3889 0.2222 0.1111  plane waves:    1622
 k-point 120 :   0.4444 0.2222 0.1111  plane waves:    1616
 k-point 121 :   0.5000 0.2222 0.1111  plane waves:    1620
 k-point 122 :   0.2778 0.2778 0.1111  plane waves:    1616
 k-point 123 :   0.3333 0.2778 0.1111  plane waves:    1617
 k-point 124 :   0.3889 0.2778 0.1111  plane waves:    1619
 k-point 125 :   0.4444 0.2778 0.1111  plane waves:    1619
 k-point 126 :   0.5000 0.2778 0.1111  plane waves:    1620
 k-point 127 :   0.3333 0.3333 0.1111  plane waves:    1620
 k-point 128 :   0.3889 0.3333 0.1111  plane waves:    1617
 k-point 129 :   0.4444 0.3333 0.1111  plane waves:    1627
 k-point 130 :   0.5000 0.3333 0.1111  plane waves:    1618
 k-point 131 :   0.3889 0.3889 0.1111  plane waves:    1626
 k-point 132 :   0.4444 0.3889 0.1111  plane waves:    1625
 k-point 133 :   0.5000 0.3889 0.1111  plane waves:    1626
 k-point 134 :   0.4444 0.4444 0.1111  plane waves:    1626
 k-point 135 :   0.5000 0.4444 0.1111  plane waves:    1632
 k-point 136 :   0.5000 0.5000 0.1111  plane waves:    1632
 k-point 137 :   0.1667 0.1667 0.1667  plane waves:    1629
 k-point 138 :   0.2222 0.1667 0.1667  plane waves:    1629
 k-point 139 :   0.2778 0.1667 0.1667  plane waves:    1624
 k-point 140 :   0.3333 0.1667 0.1667  plane waves:    1612
 k-point 141 :   0.3889 0.1667 0.1667  plane waves:    1623
 k-point 142 :   0.4444 0.1667 0.1667  plane waves:    1621
 k-point 143 :   0.5000 0.1667 0.1667  plane waves:    1622
 k-point 144 :   0.2222 0.2222 0.1667  plane waves:    1624
 k-point 145 :   0.2778 0.2222 0.1667  plane waves:    1618
 k-point 146 :   0.3333 0.2222 0.1667  plane waves:    1620
 k-point 147 :   0.3889 0.2222 0.1667  plane waves:    1618
 k-point 148 :   0.4444 0.2222 0.1667  plane waves:    1617
 k-point 149 :   0.5000 0.2222 0.1667  plane waves:    1624
 k-point 150 :   0.2778 0.2778 0.1667  plane waves:    1621
 k-point 151 :   0.3333 0.2778 0.1667  plane waves:    1625
 k-point 152 :   0.3889 0.2778 0.1667  plane waves:    1615
 k-point 153 :   0.4444 0.2778 0.1667  plane waves:    1616
 k-point 154 :   0.5000 0.2778 0.1667  plane waves:    1620
 k-point 155 :   0.3333 0.3333 0.1667  plane waves:    1619
 k-point 156 :   0.3889 0.3333 0.1667  plane waves:    1620
 k-point 157 :   0.4444 0.3333 0.1667  plane waves:    1624
 k-point 158 :   0.5000 0.3333 0.1667  plane waves:    1626
 k-point 159 :   0.3889 0.3889 0.1667  plane waves:    1624
 k-point 160 :   0.4444 0.3889 0.1667  plane waves:    1618
 k-point 161 :   0.5000 0.3889 0.1667  plane waves:    1626
 k-point 162 :   0.4444 0.4444 0.1667  plane waves:    1622
 k-point 163 :   0.5000 0.4444 0.1667  plane waves:    1624
 k-point 164 :   0.5000 0.5000 0.1667  plane waves:    1616
 k-point 165 :   0.2222 0.2222 0.2222  plane waves:    1622
 k-point 166 :   0.2778 0.2222 0.2222  plane waves:    1621
 k-point 167 :   0.3333 0.2222 0.2222  plane waves:    1629
 k-point 168 :   0.3889 0.2222 0.2222  plane waves:    1621
 k-point 169 :   0.4444 0.2222 0.2222  plane waves:    1622
 k-point 170 :   0.5000 0.2222 0.2222  plane waves:    1626
 k-point 171 :   0.2778 0.2778 0.2222  plane waves:    1621
 k-point 172 :   0.3333 0.2778 0.2222  plane waves:    1624
 k-point 173 :   0.3889 0.2778 0.2222  plane waves:    1623
 k-point 174 :   0.4444 0.2778 0.2222  plane waves:    1624
 k-point 175 :   0.5000 0.2778 0.2222  plane waves:    1622
 k-point 176 :   0.3333 0.3333 0.2222  plane waves:    1621
 k-point 177 :   0.3889 0.3333 0.2222  plane waves:    1625
 k-point 178 :   0.4444 0.3333 0.2222  plane waves:    1624
 k-point 179 :   0.5000 0.3333 0.2222  plane waves:    1628
 k-point 180 :   0.3889 0.3889 0.2222  plane waves:    1624
 k-point 181 :   0.4444 0.3889 0.2222  plane waves:    1624
 k-point 182 :   0.5000 0.3889 0.2222  plane waves:    1628
 k-point 183 :   0.4444 0.4444 0.2222  plane waves:    1626
 k-point 184 :   0.5000 0.4444 0.2222  plane waves:    1620
 k-point 185 :   0.5000 0.5000 0.2222  plane waves:    1616
 k-point 186 :   0.2778 0.2778 0.2778  plane waves:    1625
 k-point 187 :   0.3333 0.2778 0.2778  plane waves:    1618
 k-point 188 :   0.3889 0.2778 0.2778  plane waves:    1623
 k-point 189 :   0.4444 0.2778 0.2778  plane waves:    1627
 k-point 190 :   0.5000 0.2778 0.2778  plane waves:    1630
 k-point 191 :   0.3333 0.3333 0.2778  plane waves:    1618
 k-point 192 :   0.3889 0.3333 0.2778  plane waves:    1624
 k-point 193 :   0.4444 0.3333 0.2778  plane waves:    1622
 k-point 194 :   0.5000 0.3333 0.2778  plane waves:    1630
 k-point 195 :   0.3889 0.3889 0.2778  plane waves:    1623
 k-point 196 :   0.4444 0.3889 0.2778  plane waves:    1620
 k-point 197 :   0.5000 0.3889 0.2778  plane waves:    1608
 k-point 198 :   0.4444 0.4444 0.2778  plane waves:    1614
 k-point 199 :   0.5000 0.4444 0.2778  plane waves:    1616
 k-point 200 :   0.5000 0.5000 0.2778  plane waves:    1604
 k-point 201 :   0.3333 0.3333 0.3333  plane waves:    1628
 k-point 202 :   0.3889 0.3333 0.3333  plane waves:    1614
 k-point 203 :   0.4444 0.3333 0.3333  plane waves:    1619
 k-point 204 :   0.5000 0.3333 0.3333  plane waves:    1626
 k-point 205 :   0.3889 0.3889 0.3333  plane waves:    1616
 k-point 206 :   0.4444 0.3889 0.3333  plane waves:    1625
 k-point 207 :   0.5000 0.3889 0.3333  plane waves:    1618
 k-point 208 :   0.4444 0.4444 0.3333  plane waves:    1623
 k-point 209 :   0.5000 0.4444 0.3333  plane waves:    1624
 k-point 210 :   0.5000 0.5000 0.3333  plane waves:    1620
 k-point 211 :   0.3889 0.3889 0.3889  plane waves:    1628
 k-point 212 :   0.4444 0.3889 0.3889  plane waves:    1626
 k-point 213 :   0.5000 0.3889 0.3889  plane waves:    1626
 k-point 214 :   0.4444 0.4444 0.3889  plane waves:    1619
 k-point 215 :   0.5000 0.4444 0.3889  plane waves:    1614
 k-point 216 :   0.5000 0.5000 0.3889  plane waves:    1612
 k-point 217 :   0.4444 0.4444 0.4444  plane waves:    1616
 k-point 218 :   0.5000 0.4444 0.4444  plane waves:    1618
 k-point 219 :   0.5000 0.5000 0.4444  plane waves:    1616
 k-point 220 :   0.5000 0.5000 0.5000  plane waves:    1640

 maximum and minimum number of plane-waves per node :       426      380

 maximum number of plane-waves:      1647
 maximum index in each direction: 
   IXMAX=    7   IYMAX=    7   IZMAX=    7
   IXMIN=   -7   IYMIN=   -7   IZMIN=   -7


 parallel 3D FFT for wavefunctions:
    minimum data exchange during FFTs selected (reduces bandwidth)
 parallel 3D FFT for charge:
    minimum data exchange during FFTs selected (reduces bandwidth)


 total amount of memory used by VASP MPI-rank0    71507. kBytes
=======================================================================

   base      :      30000. kBytes
   nonl-proj :      26257. kBytes
   fftplans  :       1584. kBytes
   grid      :       1470. kBytes
   one-center:         31. kBytes
   wavefun   :      12165. kBytes
 
     INWAV:  cpu time      0.0000: real time      0.0001
 Broyden mixing: mesh for mixing (old mesh)
   NGX = 15   NGY = 15   NGZ = 15
  (NGX  = 60   NGY  = 60   NGZ  = 60)
  gives a total of   3375 points

 initial charge density was supplied:
 charge density of overlapping atoms calculated
 number of electron      33.0000000 magnetization       1.8000000
 keeping initial charge density in first step


--------------------------------------------------------------------------------------------------------


 Maximum index for augmentation-charges         7451 (set IRDMAX)


--------------------------------------------------------------------------------------------------------


 First call to EWALD:  gamma=   0.486
 Maximum number of real-space cells 3x 3x 3
 Maximum number of reciprocal cells 3x 3x 3

    FEWALD:  cpu time      0.0020: real time      0.0022


--------------------------------------- Iteration      1(   1)  ---------------------------------------


    POTLOK:  cpu time      0.0200: real time      0.0208
    SETDIJ:  cpu time      0.5569: real time      0.5567
     EDDAV:  cpu time      3.7214: real time      3.7966
       DOS:  cpu time      0.0280: real time      0.0277
    --------------------------------------------
      LOOP:  cpu time      4.3263: real time      4.4018

 eigenvalue-minimisations  : 21180
 total energy-change (2. order) : 0.1570720E+03  (-0.1651980E+04)
 number of electron      33.0000000 magnetization       1.8000000
 augmentation part       33.0000000 magnetization       1.8000000

 Free energy of the ion-electron system (eV)
  ---------------------------------------------------
  alpha Z        PSCENC =       204.49329912
  Ewald energy   TEWEN  =     -2625.67638320
  -Hartree energ DENC   =      -950.90066688
  -exchange      EXHF   =         0.00000000
  -V(xc)+E(xc)   XCENC  =        68.53498055
  PAW double counting   =      2647.30747865    -2815.80221064
  entropy T*S    EENTRO =        -0.00017104
  eigenvalues    EBANDS =       341.87530591
  atomic energy  EATOM  =      3287.24036057
  Solvation  Ediel_sol  =         0.00000000
  ---------------------------------------------------
  free energy    TOTEN  =       157.07199304 eV

  energy without entropy =      157.07216408  energy(sigma->0) =      157.07205005


--------------------------------------------------------------------------------------------------------




--------------------------------------- Iteration      1(   2)  ---------------------------------------


     EDDAV:  cpu time      3.6654: real time      3.7432
       DOS:  cpu time      0.0320: real time      0.0317
    --------------------------------------------
      LOOP:  cpu time      3.6974: real time      3.7750

 eigenvalue-minimisations  : 21156
 total energy-change (2. order) :-0.1786870E+03  (-0.1724635E+03)
 number of electron      33.0000000 magnetization       1.8000000
 augmentation part       33.0000000 magnetization       1.8000000

 Free energy of the ion-electron system (eV)
  ---------------------------------------------------
  alpha Z        PSCENC =       204.49329912
  Ewald energy   TEWEN  =     -2625.67638320
  -Hartree energ DENC   =      -950.90066688
  -exchange      EXHF   =         0.00000000
  -V(xc)+E(xc)   XCENC  =        68.53498055
  PAW double counting   =      2647.30747865    -2815.80221064
  entropy T*S    EENTRO =         0.00522534
  eigenvalues    EBANDS =       163.18292287
  atomic energy  EATOM  =      3287.24036057
  Solvation  Ediel_sol  =         0.00000000
  ---------------------------------------------------
  free energy    TOTEN  =       -21.61499362 eV

  energy without entropy =      -21.62021896  energy(sigma->0) =      -21.61673540


--------------------------------------------------------------------------------------------------------




--------------------------------------- Iteration      1(   3)  ---------------------------------------


     EDDAV:  cpu time      4.6553: real time      4.7324
       DOS:  cpu time      0.0350: real time      0.0347
    --------------------------------------------
      LOOP:  cpu time      4.6903: real time      4.7672

 eigenvalue-minimisations  : 28392
 total energy-change (2. order) :-0.4345078E+01  (-0.4290595E+01)
 number of electron      33.0000000 magnetization       1.8000000
 augmentation part       33.0000000 magnetization       1.8000000

 Free energy of the ion-electron system (eV)
  ---------------------------------------------------
  alpha Z        PSCENC =       204.49329912
  Ewald energy   TEWEN  =     -2625.67638320
  -Hartree energ DENC   =      -950.90066688
  -exchange      EXHF   =         0.00000000
  -V(xc)+E(xc)   XCENC  =        68.53498055
  PAW double counting   =      2647.30747865    -2815.80221064
  entropy T*S    EENTRO =         0.00818970
  eigenvalues    EBANDS =       158.83488015
  atomic energy  EATOM  =      3287.24036057
  Solvation  Ediel_sol  =         0.00000000
  ---------------------------------------------------
  free energy    TOTEN  =       -25.96007198 eV

  energy without entropy =      -25.96826168  energy(sigma->0) =      -25.96280188


--------------------------------------------------------------------------------------------------------




--------------------------------------- Iteration      1(   4)  ---------------------------------------


     EDDAV:  cpu time      4.0964: real time      4.1919
       DOS:  cpu time      0.0360: real time      0.0357
    --------------------------------------------
      LOOP:  cpu time      4.1324: real time      4.2277

 eigenvalue-minimisations  : 24576
 total energy-change (2. order) :-0.3894657E-01  (-0.3893992E-01)
 number of electron      33.0000000 magnetization       1.8000000
 augmentation part       33.0000000 magnetization       1.8000000

 Free energy of the ion-electron system (eV)
  ---------------------------------------------------
  alpha Z        PSCENC =       204.49329912
  Ewald energy   TEWEN  =     -2625.67638320
  -Hartree energ DENC   =      -950.90066688
  -exchange      EXHF   =         0.00000000
  -V(xc)+E(xc)   XCENC  =        68.53498055
  PAW double counting   =      2647.30747865    -2815.80221064
  entropy T*S    EENTRO =         0.00819691
  eigenvalues    EBANDS =       158.79592637
  atomic energy  EATOM  =      3287.24036057
  Solvation  Ediel_sol  =         0.00000000
  ---------------------------------------------------
  free energy    TOTEN  =       -25.99901855 eV

  energy without entropy =      -26.00721546  energy(sigma->0) =      -26.00175085


--------------------------------------------------------------------------------------------------------




--------------------------------------- Iteration      1(   5)  ---------------------------------------


     EDDAV:  cpu time      4.8333: real time      4.9088
       DOS:  cpu time      0.0360: real time      0.0353
    CHARGE:  cpu time      0.2510: real time      0.2515
    MIXING:  cpu time      0.0030: real time      0.0027
    --------------------------------------------
      LOOP:  cpu time      5.1232: real time      5.1982

 eigenvalue-minimisations  : 29448
 total energy-change (2. order) :-0.9463375E-03  (-0.9463277E-03)
 number of electron      33.0000002 magnetization       0.7265936
 augmentation part       16.3037280 magnetization       0.6779486

 Broyden mixing:
  rms(total) = 0.17226E+01    rms(broyden)= 0.17225E+01
  rms(prec ) = 0.41938E+01
  weight for this iteration     100.00

 Free energy of the ion-electron system (eV)
  ---------------------------------------------------
  alpha Z        PSCENC =       204.49329912
  Ewald energy   TEWEN  =     -2625.67638320
  -Hartree energ DENC   =      -950.90066688
  -exchange      EXHF   =         0.00000000
  -V(xc)+E(xc)   XCENC  =        68.53498055
  PAW double counting   =      2647.30747865    -2815.80221064
  entropy T*S    EENTRO =         0.00819696
  eigenvalues    EBANDS =       158.79497998
  atomic energy  EATOM  =      3287.24036057
  Solvation  Ediel_sol  =         0.00000000
  ---------------------------------------------------
  free energy    TOTEN  =       -25.99996488 eV

  energy without entropy =      -26.00816185  energy(sigma->0) =      -26.00269721


--------------------------------------------------------------------------------------------------------




--------------------------------------- Iteration      1(   6)  ---------------------------------------


    POTLOK:  cpu time      0.0140: real time      0.0159
    SETDIJ:  cpu time      0.5559: real time      0.5551
     EDDAV:  cpu time      3.9674: real time      4.0422
       DOS:  cpu time      0.0350: real time      0.0343
    CHARGE:  cpu time      0.2170: real time      0.2179
    MIXING:  cpu time      0.0020: real time      0.0015
    --------------------------------------------
      LOOP:  cpu time      4.7913: real time      4.8668

 eigenvalue-minimisations  : 23568
 total energy-change (2. order) :-0.1926540E+01  (-0.5422734E+01)
 number of electron      33.0000002 magnetization       0.3482214
 augmentation part       21.2879614 magnetization       0.4392012

 Broyden mixing:
  rms(total) = 0.18761E+01    rms(broyden)= 0.18761E+01
  rms(prec ) = 0.45879E+01
  weight for this iteration     100.00

 eigenvalues of (default mixing * dielectric matrix)
  average eigenvalue GAMMA=   0.4697
  0.4697

 Free energy of the ion-electron system (eV)
  ---------------------------------------------------
  alpha Z        PSCENC =       204.49329912
  Ewald energy   TEWEN  =     -2625.67638320
  -Hartree energ DENC   =      -848.88541581
  -exchange      EXHF   =         0.00000000
  -V(xc)+E(xc)   XCENC  =        63.80756849
  PAW double counting   =      2553.33244769    -2702.20695552
  entropy T*S    EENTRO =        -0.00036010
  eigenvalues    EBANDS =        39.96893387
  atomic energy  EATOM  =      3287.24036057
  Solvation  Ediel_sol  =         0.00000000
  ---------------------------------------------------
  free energy    TOTEN  =       -27.92650488 eV

  energy without entropy =      -27.92614478  energy(sigma->0) =      -27.92638485


--------------------------------------------------------------------------------------------------------




--------------------------------------- Iteration      1(   7)  ---------------------------------------


    POTLOK:  cpu time      0.0180: real time      0.0199
    SETDIJ:  cpu time      0.5549: real time      0.5549
     EDDAV:  cpu time      4.0364: real time      4.1101
       DOS:  cpu time      0.0350: real time      0.0354
    CHARGE:  cpu time      0.2030: real time      0.2031
    MIXING:  cpu time      0.0010: real time      0.0010
    --------------------------------------------
      LOOP:  cpu time      4.8483: real time      4.9244

 eigenvalue-minimisations  : 24132
 total energy-change (2. order) : 0.5767495E+01  (-0.2466645E+01)
 number of electron      33.0000002 magnetization       0.4632064
 augmentation part       18.4329220 magnetization       0.4433901

 Broyden mixing:
  rms(total) = 0.18713E+00    rms(broyden)= 0.18710E+00
  rms(prec ) = 0.42365E+00
  weight for this iteration     100.00

 eigenvalues of (default mixing * dielectric matrix)
  average eigenvalue GAMMA=   0.6691
  0.9009  0.4373

 Free energy of the ion-electron system (eV)
  ---------------------------------------------------
  alpha Z        PSCENC =       204.49329912
  Ewald energy   TEWEN  =     -2625.67638320
  -Hartree energ DENC   =      -901.41017040
  -exchange      EXHF   =         0.00000000
  -V(xc)+E(xc)   XCENC  =        66.17353383
  PAW double counting   =      2674.63220881    -2840.35347257
  entropy T*S    EENTRO =        -0.00657540
  eigenvalues    EBANDS =       112.74818926
  atomic energy  EATOM  =      3287.24036057
  Solvation  Ediel_sol  =         0.00000000
  ---------------------------------------------------
  free energy    TOTEN  =       -22.15900997 eV

  energy without entropy =      -22.15243457  energy(sigma->0) =      -22.15681817


--------------------------------------------------------------------------------------------------------




--------------------------------------- Iteration      1(   8)  ---------------------------------------


    POTLOK:  cpu time      0.0140: real time      0.0158
    SETDIJ:  cpu time      0.5559: real time      0.5554
     EDDAV:  cpu time      3.8814: real time      3.9550
       DOS:  cpu time      0.0350: real time      0.0355
    CHARGE:  cpu time      0.2050: real time      0.2042
    MIXING:  cpu time      0.0010: real time      0.0010
    --------------------------------------------
      LOOP:  cpu time      4.6923: real time      4.7669

 eigenvalue-minimisations  : 22740
 total energy-change (2. order) : 0.3279276E-01  (-0.2568461E-01)
 number of electron      33.0000002 magnetization       0.6551569
 augmentation part       18.4613758 magnetization       0.6321651

 Broyden mixing:
  rms(total) = 0.11706E+00    rms(broyden)= 0.11705E+00
  rms(prec ) = 0.26324E+00
  weight for this iteration     100.00

 eigenvalues of (default mixing * dielectric matrix)
  average eigenvalue GAMMA=   0.9039
  0.4635  1.1241  1.1241

 Free energy of the ion-electron system (eV)
  ---------------------------------------------------
  alpha Z        PSCENC =       204.49329912
  Ewald energy   TEWEN  =     -2625.67638320
  -Hartree energ DENC   =      -897.62626745
  -exchange      EXHF   =         0.00000000
  -V(xc)+E(xc)   XCENC  =        65.99145227
  PAW double counting   =      2718.84921437    -2887.19399371
  entropy T*S    EENTRO =        -0.00132180
  eigenvalues    EBANDS =       111.79742261
  atomic energy  EATOM  =      3287.24036057
  Solvation  Ediel_sol  =         0.00000000
  ---------------------------------------------------
  free energy    TOTEN  =       -22.12621721 eV

  energy without entropy =      -22.12489541  energy(sigma->0) =      -22.12577661


--------------------------------------------------------------------------------------------------------




--------------------------------------- Iteration      1(   9)  ---------------------------------------


    POTLOK:  cpu time      0.0140: real time      0.0162
    SETDIJ:  cpu time      0.5559: real time      0.5559
     EDDAV:  cpu time      4.5923: real time      4.6660
       DOS:  cpu time      0.0350: real time      0.0355
    CHARGE:  cpu time      0.2010: real time      0.2013
    MIXING:  cpu time      0.0020: real time      0.0012
    --------------------------------------------
      LOOP:  cpu time      5.4002: real time      5.4760

 eigenvalue-minimisations  : 28116
 total energy-change (2. order) : 0.1481295E-01  (-0.3558979E-02)
 number of electron      33.0000002 magnetization       0.7362029
 augmentation part       18.5448969 magnetization       0.7235016

 Broyden mixing:
  rms(total) = 0.64181E-01    rms(broyden)= 0.64178E-01
  rms(prec ) = 0.78189E-01
  weight for this iteration     100.00

 eigenvalues of (default mixing * dielectric matrix)
  average eigenvalue GAMMA=   1.0873
  1.8643  1.4167  0.4596  0.6087

 Free energy of the ion-electron system (eV)
  ---------------------------------------------------
  alpha Z        PSCENC =       204.49329912
  Ewald energy   TEWEN  =     -2625.67638320
  -Hartree energ DENC   =      -892.96910632
  -exchange      EXHF   =         0.00000000
  -V(xc)+E(xc)   XCENC  =        65.80010274
  PAW double counting   =      2758.50224002    -2929.11114933
  entropy T*S    EENTRO =         0.00474038
  eigenvalues    EBANDS =       109.60449175
  atomic energy  EATOM  =      3287.24036057
  Solvation  Ediel_sol  =         0.00000000
  ---------------------------------------------------
  free energy    TOTEN  =       -22.11140426 eV

  energy without entropy =      -22.11614465  energy(sigma->0) =      -22.11298439


--------------------------------------------------------------------------------------------------------




--------------------------------------- Iteration      1(  10)  ---------------------------------------


    POTLOK:  cpu time      0.0140: real time      0.0160
    SETDIJ:  cpu time      0.5549: real time      0.5551
     EDDAV:  cpu time      4.6253: real time      4.6993
       DOS:  cpu time      0.0350: real time      0.0352
    CHARGE:  cpu time      0.2020: real time      0.2030
    MIXING:  cpu time      0.0020: real time      0.0007
    --------------------------------------------
      LOOP:  cpu time      5.4332: real time      5.5093

 eigenvalue-minimisations  : 28668
 total energy-change (2. order) :-0.6762238E-03  (-0.2368100E-03)
 number of electron      33.0000002 magnetization       0.8040633
 augmentation part       18.5505045 magnetization       0.8030211

 Broyden mixing:
  rms(total) = 0.19658E-01    rms(broyden)= 0.19656E-01
  rms(prec ) = 0.35733E-01
  weight for this iteration     100.00

 eigenvalues of (default mixing * dielectric matrix)
  average eigenvalue GAMMA=   1.2052
  2.6361  1.3330  0.9699  0.4594  0.6277

 Free energy of the ion-electron system (eV)
  ---------------------------------------------------
  alpha Z        PSCENC =       204.49329912
  Ewald energy   TEWEN  =     -2625.67638320
  -Hartree energ DENC   =      -892.49970464
  -exchange      EXHF   =         0.00000000
  -V(xc)+E(xc)   XCENC  =        65.79748965
  PAW double counting   =      2762.37492986    -2933.21806054
  entropy T*S    EENTRO =         0.00514026
  eigenvalues    EBANDS =       109.37084843
  atomic energy  EATOM  =      3287.24036057
  Solvation  Ediel_sol  =         0.00000000
  ---------------------------------------------------
  free energy    TOTEN  =       -22.11208048 eV

  energy without entropy =      -22.11722075  energy(sigma->0) =      -22.11379391


--------------------------------------------------------------------------------------------------------




--------------------------------------- Iteration      1(  11)  ---------------------------------------


    POTLOK:  cpu time      0.0140: real time      0.0161
    SETDIJ:  cpu time      0.5549: real time      0.5548
     EDDAV:  cpu time      4.5103: real time      4.5855
       DOS:  cpu time      0.0360: real time      0.0351
    CHARGE:  cpu time      0.2020: real time      0.2029
    MIXING:  cpu time      0.0010: real time      0.0008
    --------------------------------------------
      LOOP:  cpu time      5.3182: real time      5.3951

 eigenvalue-minimisations  : 27576
 total energy-change (2. order) : 0.3156557E-03  (-0.1510579E-03)
 number of electron      33.0000002 magnetization       0.7705814
 augmentation part       18.5575485 magnetization       0.7821347

 Broyden mixing:
  rms(total) = 0.99170E-02    rms(broyden)= 0.99157E-02
  rms(prec ) = 0.11599E-01
  weight for this iteration     100.00

 eigenvalues of (default mixing * dielectric matrix)
  average eigenvalue GAMMA=   1.0888
  2.5893  1.1383  1.1383  0.4596  0.6035  0.6035

 Free energy of the ion-electron system (eV)
  ---------------------------------------------------
  alpha Z        PSCENC =       204.49329912
  Ewald energy   TEWEN  =     -2625.67638320
  -Hartree energ DENC   =      -891.62884583
  -exchange      EXHF   =         0.00000000
  -V(xc)+E(xc)   XCENC  =        65.77571460
  PAW double counting   =      2771.34909193    -2942.72938515
  entropy T*S    EENTRO =         0.00476425
  eigenvalues    EBANDS =       109.05961888
  atomic energy  EATOM  =      3287.24036057
  Solvation  Ediel_sol  =         0.00000000
  ---------------------------------------------------
  free energy    TOTEN  =       -22.11176483 eV

  energy without entropy =      -22.11652907  energy(sigma->0) =      -22.11335291


--------------------------------------------------------------------------------------------------------




--------------------------------------- Iteration      1(  12)  ---------------------------------------


    POTLOK:  cpu time      0.0140: real time      0.0159
    SETDIJ:  cpu time      0.5559: real time      0.5549
     EDDAV:  cpu time      4.3813: real time      4.4684
       DOS:  cpu time      0.0350: real time      0.0354
    CHARGE:  cpu time      0.2010: real time      0.2008
    MIXING:  cpu time      0.0010: real time      0.0010
    --------------------------------------------
      LOOP:  cpu time      5.1882: real time      5.2764

 eigenvalue-minimisations  : 26832
 total energy-change (2. order) :-0.1133247E-03  (-0.2469427E-04)
 number of electron      33.0000002 magnetization       0.7636684
 augmentation part       18.5614291 magnetization       0.7711058

 Broyden mixing:
  rms(total) = 0.22390E-02    rms(broyden)= 0.22389E-02
  rms(prec ) = 0.38313E-02
  weight for this iteration     100.00

 eigenvalues of (default mixing * dielectric matrix)
  average eigenvalue GAMMA=   1.1343
  2.5650  1.3760  1.3760  0.4594  0.8571  0.7042  0.6022

 Free energy of the ion-electron system (eV)
  ---------------------------------------------------
  alpha Z        PSCENC =       204.49329912
  Ewald energy   TEWEN  =     -2625.67638320
  -Hartree energ DENC   =      -891.62355003
  -exchange      EXHF   =         0.00000000
  -V(xc)+E(xc)   XCENC  =        65.77153871
  PAW double counting   =      2771.02917482    -2942.38159659
  entropy T*S    EENTRO =         0.00484533
  eigenvalues    EBANDS =       109.03043311
  atomic energy  EATOM  =      3287.24036057
  Solvation  Ediel_sol  =         0.00000000
  ---------------------------------------------------
  free energy    TOTEN  =       -22.11187815 eV

  energy without entropy =      -22.11672349  energy(sigma->0) =      -22.11349326


--------------------------------------------------------------------------------------------------------




--------------------------------------- Iteration      1(  13)  ---------------------------------------


    POTLOK:  cpu time      0.0140: real time      0.0161
    SETDIJ:  cpu time      0.5559: real time      0.5552
     EDDAV:  cpu time      4.3063: real time      4.3902
       DOS:  cpu time      0.0360: real time      0.0352
    CHARGE:  cpu time      0.2010: real time      0.2020
    MIXING:  cpu time      0.0020: real time      0.0012
    --------------------------------------------
      LOOP:  cpu time      5.1152: real time      5.1998

 eigenvalue-minimisations  : 26064
 total energy-change (2. order) : 0.4784163E-05  (-0.2089737E-05)
 number of electron      33.0000002 magnetization       0.7709929
 augmentation part       18.5613176 magnetization       0.7777736

 Broyden mixing:
  rms(total) = 0.29427E-02    rms(broyden)= 0.29427E-02
  rms(prec ) = 0.34298E-02
  weight for this iteration     100.00

 eigenvalues of (default mixing * dielectric matrix)
  average eigenvalue GAMMA=   1.1554
  2.5835  1.7296  1.2985  1.1413  0.4595  0.6116  0.7096  0.7096

 Free energy of the ion-electron system (eV)
  ---------------------------------------------------
  alpha Z        PSCENC =       204.49329912
  Ewald energy   TEWEN  =     -2625.67638320
  -Hartree energ DENC   =      -891.63173773
  -exchange      EXHF   =         0.00000000
  -V(xc)+E(xc)   XCENC  =        65.77299619
  PAW double counting   =      2771.16945888    -2942.52092730
  entropy T*S    EENTRO =         0.00485720
  eigenvalues    EBANDS =       109.03620289
  atomic energy  EATOM  =      3287.24036057
  Solvation  Ediel_sol  =         0.00000000
  ---------------------------------------------------
  free energy    TOTEN  =       -22.11187337 eV

  energy without entropy =      -22.11673057  energy(sigma->0) =      -22.11349244


--------------------------------------------------------------------------------------------------------




--------------------------------------- Iteration      1(  14)  ---------------------------------------


    POTLOK:  cpu time      0.0140: real time      0.0163
    SETDIJ:  cpu time      0.5559: real time      0.5554
     EDDAV:  cpu time      4.1494: real time      4.2495
       DOS:  cpu time      0.0360: real time      0.0353
    CHARGE:  cpu time      0.2010: real time      0.2017
    MIXING:  cpu time      0.0020: real time      0.0012
    --------------------------------------------
      LOOP:  cpu time      4.9582: real time      5.0592

 eigenvalue-minimisations  : 24552
 total energy-change (2. order) :-0.7052297E-05  (-0.8429668E-06)
 number of electron      33.0000002 magnetization       0.7749742
 augmentation part       18.5606688 magnetization       0.7825654

 Broyden mixing:
  rms(total) = 0.80002E-03    rms(broyden)= 0.80000E-03
  rms(prec ) = 0.11507E-02
  weight for this iteration     100.00

 eigenvalues of (default mixing * dielectric matrix)
  average eigenvalue GAMMA=   1.1764
  2.5900  2.0845  1.2436  1.2436  0.4594  0.8419  0.8419  0.6195  0.6632

 Free energy of the ion-electron system (eV)
  ---------------------------------------------------
  alpha Z        PSCENC =       204.49329912
  Ewald energy   TEWEN  =     -2625.67638320
  -Hartree energ DENC   =      -891.63644803
  -exchange      EXHF   =         0.00000000
  -V(xc)+E(xc)   XCENC  =        65.77461629
  PAW double counting   =      2771.23847027    -2942.58888943
  entropy T*S    EENTRO =         0.00484636
  eigenvalues    EBANDS =       109.03824763
  atomic energy  EATOM  =      3287.24036057
  Solvation  Ediel_sol  =         0.00000000
  ---------------------------------------------------
  free energy    TOTEN  =       -22.11188042 eV

  energy without entropy =      -22.11672678  energy(sigma->0) =      -22.11349587


--------------------------------------------------------------------------------------------------------




--------------------------------------- Iteration      1(  15)  ---------------------------------------


    POTLOK:  cpu time      0.0140: real time      0.0164
    SETDIJ:  cpu time      0.5549: real time      0.5550
     EDDAV:  cpu time      2.8666: real time      2.9495
       DOS:  cpu time      0.0350: real time      0.0354
    --------------------------------------------
      LOOP:  cpu time      3.4705: real time      3.5563

 eigenvalue-minimisations  : 12804
 total energy-change (2. order) : 0.7155190E-06  (-0.1982104E-06)
 number of electron      33.0000002 magnetization       0.7749742
 augmentation part       18.5606688 magnetization       0.7825654

 Free energy of the ion-electron system (eV)
  ---------------------------------------------------
  alpha Z        PSCENC =       204.49329912
  Ewald energy   TEWEN  =     -2625.67638320
  -Hartree energ DENC   =      -891.64787270
  -exchange      EXHF   =         0.00000000
  -V(xc)+E(xc)   XCENC  =        65.77569463
  PAW double counting   =      2771.20307859    -2942.54368640
  entropy T*S    EENTRO =         0.00483543
  eigenvalues    EBANDS =       109.03879427
  atomic energy  EATOM  =      3287.24036057
  Solvation  Ediel_sol  =         0.00000000
  ---------------------------------------------------
  free energy    TOTEN  =       -22.11187971 eV

  energy without entropy =      -22.11671513  energy(sigma->0) =      -22.11349151


--------------------------------------------------------------------------------------------------------




 average (electrostatic) potential at core
  the test charge radii are     1.0406  0.9791
  (the norm of the test charge is              1.0000)
       1 -74.3422       2 -41.4236       3 -41.4236       4 -41.4236
 
 
 
 E-fermi :   5.4616     XC(G=0): -12.2878     alpha+bet :-13.0324

 Fermi energy:         5.4615546048

 spin component 1

 k-point     1 :       0.0000    0.0000    0.0000
  band No.  band energies     occupation 
      1      -3.9815      1.00000
      2       1.5644      1.00000
      3       2.1745      1.00000
      4       2.1745      1.00000
      5       2.4725      1.00000
      6       2.4725      1.00000
      7       2.4725      1.00000
      8       4.1882      1.00000
      9       4.1882      1.00000
     10       4.1882      1.00000
     11       4.9207      1.00044
     12       4.9207      1.00044
     13       5.1751      1.03053
     14       5.3134      0.97331
     15       5.3134      0.97331
     16       5.3134      0.97331
     17       6.3390     -0.00000
     18       6.3390     -0.00000
     19       6.3390     -0.00000
     20      11.6134      0.00000
     21      11.6134      0.00000
     22      12.0265      0.00000
     23      17.1018      0.00000
     24      17.1018      0.00000

 k-point     2 :       0.0556    0.0000    0.0000
  band No.  band energies     occupation 
      1      -3.9459      1.00000
      2       1.5752      1.00000
      3       2.1525      1.00000
      4       2.1963      1.00000
      5       2.4780      1.00000
      6       2.4780      1.00000
      7       2.4803      1.00000
      8       4.1688      1.00000
      9       4.1688      1.00000
     10       4.1799      1.00000
     11       4.9019      1.00028
     12       4.9211      1.00045
     13       5.1631      1.02799
     14       5.2295      1.03475
     15       5.2295      1.03475
     16       5.3134      0.97325
     17       6.1685     -0.00000
     18       6.4693     -0.00000
     19       6.4693     -0.00000
     20      11.6143      0.00000
     21      11.7442      0.00000
     22      12.1626      0.00000
     23      16.9429      0.00000
     24      16.9555      0.00000

 k-point     3 :       0.1111    0.0000    0.0000
  band No.  band energies     occupation 
      1      -3.8392      1.00000
      2       1.5992      1.00000
      3       2.0861      1.00000
      4       2.2603      1.00000
      5       2.4939      1.00000
      6       2.4939      1.00000
      7       2.5033      1.00000
      8       4.1128      1.00000
      9       4.1128      1.00000
     10       4.1555      1.00000
     11       4.8422      1.00005
     12       4.9221      1.00046
     13       5.0549      1.00717
     14       5.0549      1.00717
     15       5.1275      1.01985
     16       5.3135      0.97312
     17       5.7563     -0.02881
     18       6.7825     -0.00000
     19       6.7825     -0.00000
     20      11.6172      0.00000
     21      11.8688      0.00000
     22      12.7470      0.00000
     23      16.3819      0.00000
     24      16.3819      0.00000

 k-point     4 :       0.1667    0.0000    0.0000
  band No.  band energies     occupation 
      1      -3.6626      1.00000
      2       1.5915      1.00000
      3       1.9954      1.00000
      4       2.3634      1.00000
      5       2.5196      1.00000
      6       2.5196      1.00000
      7       2.5398      1.00000
      8       4.0268      1.00000
      9       4.0268      1.00000
     10       4.1168      1.00000
     11       4.7245      1.00000
     12       4.8729      1.00013
     13       4.8729      1.00013
     14       4.9210      1.00045
     15       5.0708      1.00926
     16       5.2954      0.99747
     17       5.3136      0.97294
     18       7.1922     -0.00000
     19       7.1922     -0.00000
     20      11.6219      0.00000
     21      11.9433      0.00000
     22      13.6526      0.00000
     23      15.5702      0.00000
     24      15.5702      0.00000

 k-point     5 :       0.2222    0.0000    0.0000
  band No.  band energies     occupation 
      1      -3.4179      1.00000
      2       1.4263      1.00000
      3       1.9739      1.00000
      4       2.4996      1.00000
      5       2.5532      1.00000
      6       2.5532      1.00000
      7       2.5872      1.00000
      8       3.9219      1.00000
      9       3.9219      1.00000
     10       4.0667      1.00000
     11       4.5128      1.00000
     12       4.7113      1.00000
     13       4.7114      1.00000
     14       4.9063      1.00031
     15       4.9575      1.00106
     16       5.0056      1.00292
     17       5.3138      0.97271
     18       7.6646     -0.00000
     19       7.6646     -0.00000
     20      11.6285      0.00000
     21      12.0250      0.00000
     22      14.5972      0.00000
     23      14.7014      0.00000
     24      14.7014      0.00000

 k-point     6 :       0.2778    0.0000    0.0000
  band No.  band energies     occupation 
      1      -3.1081      1.00000
      2       1.0626      1.00000
      3       2.0439      1.00000
      4       2.5922      1.00000
      5       2.5922      1.00000
      6       2.6416      1.00000
      7       2.6598      1.00000
      8       3.8123      1.00000
      9       3.8123      1.00000
     10       4.0094      1.00000
     11       4.2612      1.00000
     12       4.5761      1.00000
     13       4.5761      1.00000
     14       4.7620      1.00000
     15       4.8409      1.00005
     16       4.9713      1.00144
     17       5.3140      0.97244
     18       8.1869     -0.00000
     19       8.1869     -0.00000
     20      11.6367      0.00000
     21      12.1267      0.00000
     22      13.8397      0.00000
     23      13.8397      0.00000
     24      14.8192      0.00000

 k-point     7 :       0.3333    0.0000    0.0000
  band No.  band energies     occupation 
      1      -2.7387      1.00000
      2       0.5738      1.00000
      3       2.1446      1.00000
      4       2.6326      1.00000
      5       2.6326      1.00000
      6       2.6972      1.00000
      7       2.8306      1.00000
      8       3.7113      1.00000
      9       3.7113      1.00000
     10       3.9511      1.00000
     11       4.0746      1.00000
     12       4.4677      1.00000
     13       4.4677      1.00000
     14       4.6207      1.00000
     15       4.7329      1.00000
     16       4.9661      1.00128
     17       5.3141      0.97218
     18       8.7535     -0.00000
     19       8.7535     -0.00000
     20      11.6459      0.00000
     21      12.2505      0.00000
     22      13.0047      0.00000
     23      13.0047      0.00000
     24      14.4630      0.00000

 k-point     8 :       0.3889    0.0000    0.0000
  band No.  band energies     occupation 
      1      -2.3203      1.00000
      2       0.0297      1.00000
      3       2.2415      1.00000
      4       2.6690      1.00000
      5       2.6690      1.00000
      6       2.7468      1.00000
      7       2.9916      1.00000
      8       3.6298      1.00000
      9       3.6298      1.00000
     10       3.8993      1.00000
     11       3.9667      1.00000
     12       4.3873      1.00000
     13       4.3873      1.00000
     14       4.5062      1.00000
     15       4.6183      1.00000
     16       4.9671      1.00131
     17       5.3143      0.97198
     18       9.3611     -0.00000
     19       9.3611     -0.00000
     20      11.6545      0.00000
     21      12.2043      0.00000
     22      12.2043      0.00000
     23      12.3907      0.00000
     24      14.0861      0.00000

 k-point     9 :       0.4444    0.0000    0.0000
  band No.  band energies     occupation 
      1      -1.8861      1.00000
      2      -0.4954      1.00000
      3       2.3113      1.00000
      4       2.6950      1.00000
      5       2.6950      1.00000
      6       2.7817      1.00000
      7       3.1131      1.00000
      8       3.5767      1.00000
      9       3.5767      1.00000
     10       3.8629      1.00000
     11       3.9160      1.00000
     12       4.3374      1.00000
     13       4.3374      1.00000
     14       4.4262      1.00000
     15       4.5263      1.00000
     16       4.9687      1.00136
     17       5.3143      0.97184
     18      10.0055     -0.00000
     19      10.0055     -0.00000
     20      11.4439      0.00000
     21      11.4439      0.00000
     22      11.6609      0.00000
     23      12.5221      0.00000
     24      13.7990      0.00000

 k-point    10 :       0.5000    0.0000    0.0000
  band No.  band energies     occupation 
      1      -1.6219      1.00000
      2      -0.7924      1.00000
      3       2.3368      1.00000
      4       2.7046      1.00000
      5       2.7046      1.00000
      6       2.7944      1.00000
      7       3.1597      1.00000
      8       3.5582      1.00000
      9       3.5582      1.00000
     10       3.8497      1.00000
     11       3.9019      1.00000
     12       4.3204      1.00000
     13       4.3204      1.00000
     14       4.3968      1.00000
     15       4.4899      1.00000
     16       4.9694      1.00138
     17       5.3144      0.97177
     18      10.5818     -0.00000
     19      10.5818     -0.00000
     20      10.8290     -0.00000
     21      10.8290     -0.00000
     22      11.6633      0.00000
     23      12.5827      0.00000
     24      13.6849      0.00000

 k-point    11 :       0.0556    0.0556    0.0000
  band No.  band energies     occupation 
      1      -3.9103      1.00000
      2       1.5863      1.00000
      3       2.1525      1.00000
      4       2.1960      1.00000
      5       2.4744      1.00000
      6       2.4831      1.00000
      7       2.4973      1.00000
      8       4.1239      1.00000
      9       4.1500      1.00000
     10       4.1981      1.00000
     11       4.8919      1.00021
     12       4.9122      1.00036
     13       5.1296      1.02034
     14       5.1619      1.02774
     15       5.1739      1.03030
     16       5.2989      0.99331
     17       6.2377     -0.00000
     18       6.3608     -0.00000
     19       6.5848     -0.00000
     20      11.6735      0.00000
     21      11.8686      0.00000
     22      12.2516      0.00000
     23      16.5001      0.00000
     24      16.8566      0.00000

 k-point    12 :       0.1111    0.0556    0.0000
  band No.  band energies     occupation 
      1      -3.8038      1.00000
      2       1.6116      1.00000
      3       2.0943      1.00000
      4       2.2510      1.00000
      5       2.4825      1.00000
      6       2.4983      1.00000
      7       2.5284      1.00000
      8       4.0488      1.00000
      9       4.0960      1.00000
     10       4.1958      1.00000
     11       4.8270      1.00003
     12       4.9081      1.00032
     13       4.9591      1.00110
     14       5.0258      1.00431
     15       5.1203      1.01828
     16       5.2912      1.00215
     17       5.8763     -0.00625
     18       6.6226     -0.00000
     19       6.8756     -0.00000
     20      11.6954      0.00000
     21      12.0479      0.00000
     22      12.7739      0.00000
     23      15.7927      0.00000
     24      16.4000      0.00000

 k-point    13 :       0.1667    0.0556    0.0000
  band No.  band energies     occupation 
      1      -3.6275      1.00000
      2       1.6075      1.00000
      3       2.0030      1.00000
      4       2.3516      1.00000
      5       2.5026      1.00000
      6       2.5231      1.00000
      7       2.5710      1.00000
      8       3.9540      1.00000
      9       4.0138      1.00000
     10       4.1708      1.00000
     11       4.6614      1.00000
     12       4.8077      1.00002
     13       4.8559      1.00008
     14       4.9111      1.00035
     15       5.0631      1.00820
     16       5.2894      1.00405
     17       5.4283      0.63853
     18       7.0145     -0.00000
     19       7.2692     -0.00000
     20      11.7096      0.00000
     21      12.1339      0.00000
     22      13.6742      0.00000
     23      14.9847      0.00000
     24      15.6074      0.00000

 k-point    14 :       0.2222    0.0556    0.0000
  band No.  band energies     occupation 
      1      -3.3832      1.00000
      2       1.4467      1.00000
      3       1.9798      1.00000
      4       2.4813      1.00000
      5       2.5328      1.00000
      6       2.5601      1.00000
      7       2.6223      1.00000
      8       3.8495      1.00000
      9       3.9141      1.00000
     10       4.1258      1.00000
     11       4.4255      1.00000
     12       4.6822      1.00000
     13       4.6991      1.00000
     14       4.8976      1.00025
     15       4.9932      1.00228
     16       5.0814      1.01086
     17       5.2890      1.00443
     18       7.4635     -0.00000
     19       7.7307     -0.00000
     20      11.7235      0.00000
     21      12.2226      0.00000
     22      14.1330      0.00000
     23      14.6896      0.00000
     24      14.7398      0.00000

 k-point    15 :       0.2778    0.0556    0.0000
  band No.  band energies     occupation 
      1      -3.0740      1.00000
      2       1.0855      1.00000
      3       2.0504      1.00000
      4       2.5709      1.00000
      5       2.5748      1.00000
      6       2.6623      1.00000
      7       2.6777      1.00000
      8       3.7476      1.00000
      9       3.8074      1.00000
     10       4.0643      1.00000
     11       4.2011      1.00000
     12       4.5519      1.00000
     13       4.5672      1.00000
     14       4.8179      1.00003
     15       4.8675      1.00011
     16       4.9621      1.00117
     17       5.2891      1.00435
     18       7.9558     -0.00000
     19       8.2453     -0.00000
     20      11.7309      0.00000
     21      12.3296      0.00000
     22      13.3568      0.00000
     23      13.8781      0.00000
     24      15.0622      0.00000

 k-point    16 :       0.3333    0.0556    0.0000
  band No.  band energies     occupation 
      1      -2.7054      1.00000
      2       0.5992      1.00000
      3       2.1525      1.00000
      4       2.6136      1.00000
      5       2.6157      1.00000
      6       2.7300      1.00000
      7       2.8284      1.00000
      8       3.6610      1.00000
      9       3.7023      1.00000
     10       3.9918      1.00000
     11       4.0473      1.00000
     12       4.4327      1.00000
     13       4.4640      1.00000
     14       4.6793      1.00000
     15       4.7455      1.00000
     16       4.9557      1.00101
     17       5.2893      1.00414
     18       8.4847     -0.00000
     19       8.8062     -0.00000
     20      11.7025      0.00000
     21      12.4187      0.00000
     22      12.6840      0.00000
     23      13.0438      0.00000
     24      14.7245      0.00000

 k-point    17 :       0.3889    0.0556    0.0000
  band No.  band energies     occupation 
      1      -2.2881      1.00000
      2       0.0575      1.00000
      3       2.2516      1.00000
      4       2.6467      1.00000
      5       2.6557      1.00000
      6       2.7707      1.00000
      7       2.9909      1.00000
      8       3.5999      1.00000
      9       3.6115      1.00000
     10       3.9184      1.00000
     11       3.9674      1.00000
     12       4.3366      1.00000
     13       4.3909      1.00000
     14       4.5669      1.00000
     15       4.6296      1.00000
     16       4.9569      1.00104
     17       5.2895      1.00392
     18       9.0451     -0.00000
     19       9.4092     -0.00000
     20      11.4838      0.00000
     21      12.1085      0.00000
     22      12.2447      0.00000
     23      12.6599      0.00000
     24      14.3340      0.00000

 k-point    18 :       0.4444    0.0556    0.0000
  band No.  band energies     occupation 
      1      -1.8554      1.00000
      2      -0.4652      1.00000
      3       2.3241      1.00000
      4       2.6663      1.00000
      5       2.6893      1.00000
      6       2.7935      1.00000
      7       3.1174      1.00000
      8       3.5479      1.00000
      9       3.5681      1.00000
     10       3.8603      1.00000
     11       3.9356      1.00000
     12       4.2721      1.00000
     13       4.3473      1.00000
     14       4.4962      1.00000
     15       4.5345      1.00000
     16       4.9587      1.00109
     17       5.2896      1.00377
     18       9.6263     -0.00000
     19      10.0494     -0.00000
     20      10.9461      0.00000
     21      11.4868      0.00000
     22      11.9882      0.00000
     23      12.8029      0.00000
     24      14.0285      0.00000

 k-point    19 :       0.5000    0.0556    0.0000
  band No.  band energies     occupation 
      1      -1.5929      1.00000
      2      -0.7602      1.00000
      3       2.3511      1.00000
      4       2.6728      1.00000
      5       2.7028      1.00000
      6       2.7998      1.00000
      7       3.1679      1.00000
      8       3.5236      1.00000
      9       3.5595      1.00000
     10       3.8374      1.00000
     11       3.9282      1.00000
     12       4.2490      1.00000
     13       4.3329      1.00000
     14       4.4766      1.00000
     15       4.4918      1.00000
     16       4.9594      1.00110
     17       5.2897      1.00372
     18      10.0777     -0.00000
     19      10.4844     -0.00000
     20      10.6145     -0.00000
     21      10.8824     -0.00000
     22      11.9723      0.00000
     23      12.8737      0.00000
     24      13.9034      0.00000

 k-point    20 :       0.1111    0.1111    0.0000
  band No.  band energies     occupation 
      1      -3.6979      1.00000
      2       1.6421      1.00000
      3       2.0833      1.00000
      4       2.2553      1.00000
      5       2.4809      1.00000
      6       2.5113      1.00000
      7       2.5703      1.00000
      8       3.9493      1.00000
      9       4.0487      1.00000
     10       4.2271      1.00000
     11       4.6906      1.00000
     12       4.8557      1.00008
     13       4.8874      1.00019
     14       4.9350      1.00063
     15       5.0880      1.01197
     16       5.2559      1.02783
     17       6.0045     -0.00042
     18       6.3756     -0.00000
     19       7.1259     -0.00000
     20      11.7422      0.00000
     21      12.5698      0.00000
     22      12.9553      0.00000
     23      14.9582      0.00000
     24      16.3415      0.00000

 k-point    21 :       0.1667    0.1111    0.0000
  band No.  band energies     occupation 
      1      -3.5225      1.00000
      2       1.6517      1.00000
      3       2.0082      1.00000
      4       2.3270      1.00000
      5       2.4921      1.00000
      6       2.5344      1.00000
      7       2.6234      1.00000
      8       3.8380      1.00000
      9       3.9791      1.00000
     10       4.2329      1.00000
     11       4.4628      1.00000
     12       4.7768      1.00001
     13       4.8011      1.00002
     14       4.8800      1.00015
     15       5.0325      1.00486
     16       5.2355      1.03389
     17       5.6610     -0.02486
     18       6.6187     -0.00000
     19       7.4846     -0.00000
     20      11.7663      0.00000
     21      12.7855      0.00000
     22      13.7456      0.00000
     23      14.1076      0.00000
     24      15.7141      0.00000

 k-point    22 :       0.2222    0.1111    0.0000
  band No.  band energies     occupation 
      1      -3.2795      1.00000
      2       1.5063      1.00000
      3       1.9845      1.00000
      4       2.4375      1.00000
      5       2.5152      1.00000
      6       2.5750      1.00000
      7       2.6837      1.00000
      8       3.7265      1.00000
      9       3.8953      1.00000
     10       4.2103      1.00000
     11       4.2375      1.00000
     12       4.6599      1.00000
     13       4.6684      1.00000
     14       4.8697      1.00012
     15       4.9623      1.00118
     16       5.2264      1.03507
     17       5.2939      0.99916
     18       7.0066     -0.00000
     19       7.9197     -0.00000
     20      11.7756      0.00000
     21      12.8692      0.00000
     22      13.3303      0.00000
     23      14.7503      0.00000
     24      14.8534      0.00000

 k-point    23 :       0.2778    0.1111    0.0000
  band No.  band energies     occupation 
      1      -2.9722      1.00000
      2       1.1528      1.00000
      3       2.0596      1.00000
      4       2.5263      1.00000
      5       2.5486      1.00000
      6       2.6693      1.00000
      7       2.7443      1.00000
      8       3.6284      1.00000
      9       3.7929      1.00000
     10       4.0666      1.00000
     11       4.1546      1.00000
     12       4.5381      1.00000
     13       4.5388      1.00000
     14       4.8060      1.00002
     15       4.9210      1.00045
     16       5.0357      1.00515
     17       5.2223      1.03533
     18       7.4381     -0.00000
     19       8.4145     -0.00000
     20      11.7102      0.00000
     21      12.5371      0.00000
     22      13.1136      0.00000
     23      13.9918      0.00000
     24      15.2953      0.00000

 k-point    24 :       0.3333    0.1111    0.0000
  band No.  band energies     occupation 
      1      -2.6059      1.00000
      2       0.6741      1.00000
      3       2.1671      1.00000
      4       2.5669      1.00000
      5       2.5900      1.00000
      6       2.7945      1.00000
      7       2.8234      1.00000
      8       3.5587      1.00000
      9       3.6713      1.00000
     10       3.9852      1.00000
     11       4.0647      1.00000
     12       4.4041      1.00000
     13       4.4532      1.00000
     14       4.6949      1.00000
     15       4.8495      1.00007
     16       4.9270      1.00052
     17       5.2205      1.03540
     18       7.9015     -0.00000
     19       8.9598     -0.00000
     20      11.3542      0.00000
     21      12.2187      0.00000
     22      13.1594      0.00000
     23      13.2571      0.00000
     24      15.0233      0.00000

 k-point    25 :       0.3889    0.1111    0.0000
  band No.  band energies     occupation 
      1      -2.1919      1.00000
      2       0.1400      1.00000
      3       2.2739      1.00000
      4       2.5845      1.00000
      5       2.6357      1.00000
      6       2.8215      1.00000
      7       2.9873      1.00000
      8       3.5313      1.00000
      9       3.5614      1.00000
     10       3.9551      1.00000
     11       3.9667      1.00000
     12       4.2854      1.00000
     13       4.4013      1.00000
     14       4.5903      1.00000
     15       4.7195      1.00000
     16       4.9266      1.00051
     17       5.2198      1.03542
     18       8.3927     -0.00000
     19       9.5501     -0.00000
     20      10.7591     -0.00000
     21      12.1768      0.00000
     22      12.3644      0.00000
     23      13.4390      0.00000
     24      14.6576      0.00000

 k-point    26 :       0.4444    0.1111    0.0000
  band No.  band energies     occupation 
      1      -1.7639      1.00000
      2      -0.3752      1.00000
      3       2.3581      1.00000
      4       2.5851      1.00000
      5       2.6778      1.00000
      6       2.8224      1.00000
      7       3.1255      1.00000
      8       3.4800      1.00000
      9       3.5450      1.00000
     10       3.8537      1.00000
     11       3.9758      1.00000
     12       4.1988      1.00000
     13       4.3739      1.00000
     14       4.5196      1.00000
     15       4.6238      1.00000
     16       4.9289      1.00054
     17       5.2195      1.03543
     18       8.9023     -0.00000
     19      10.1536     -0.00000
     20      10.1778     -0.00000
     21      11.6141      0.00000
     22      12.1941      0.00000
     23      13.6232      0.00000
     24      14.3608      0.00000

 k-point    27 :       0.5000    0.1111    0.0000
  band No.  band energies     occupation 
      1      -1.5063      1.00000
      2      -0.6644      1.00000
      3       2.3926      1.00000
      4       2.5806      1.00000
      5       2.6978      1.00000
      6       2.8158      1.00000
      7       3.1876      1.00000
      8       3.4430      1.00000
      9       3.5633      1.00000
     10       3.8061      1.00000
     11       3.9842      1.00000
     12       4.1652      1.00000
     13       4.3653      1.00000
     14       4.4957      1.00000
     15       4.5861      1.00000
     16       4.9299      1.00055
     17       5.2194      1.03543
     18       9.2816     -0.00000
     19       9.7395     -0.00000
     20      10.7126     -0.00000
     21      11.0386      0.00000
     22      12.2049      0.00000
     23      13.7246      0.00000
     24      14.2236      0.00000

 k-point    28 :       0.1667    0.1667    0.0000
  band No.  band energies     occupation 
      1      -3.3486      1.00000
      2       1.6989      1.00000
      3       1.9595      1.00000
      4       2.3351      1.00000
      5       2.4949      1.00000
      6       2.5563      1.00000
      7       2.6876      1.00000
      8       3.7145      1.00000
      9       3.9330      1.00000
     10       4.2352      1.00000
     11       4.2726      1.00000
     12       4.7062      1.00000
     13       4.7394      1.00000
     14       4.8476      1.00006
     15       4.9792      1.00170
     16       5.1852      1.03241
     17       5.7522     -0.02967
     18       6.3534     -0.00000
     19       7.8072     -0.00000
     20      11.7763      0.00000
     21      13.2422      0.00000
     22      13.5894      0.00000
     23      13.9876      0.00000
     24      15.7918      0.00000

 k-point    29 :       0.2222    0.1667    0.0000
  band No.  band energies     occupation 
      1      -3.1080      1.00000
      2       1.5994      1.00000
      3       1.9349      1.00000
      4       2.3998      1.00000
      5       2.5108      1.00000
      6       2.5983      1.00000
      7       2.7586      1.00000
      8       3.5965      1.00000
      9       3.8771      1.00000
     10       4.0303      1.00000
     11       4.2814      1.00000
     12       4.5880      1.00000
     13       4.6560      1.00000
     14       4.8297      1.00004
     15       4.9093      1.00033
     16       5.1521      1.02551
     17       5.4903      0.37966
     18       6.5376     -0.00000
     19       8.2112     -0.00000
     20      11.6807      0.00000
     21      12.5339      0.00000
     22      13.8770      0.00000
     23      14.8559      0.00000
     24      15.0376      0.00000

 k-point    30 :       0.2778    0.1667    0.0000
  band No.  band energies     occupation 
      1      -2.8037      1.00000
      2       1.2599      1.00000
      3       2.0259      1.00000
      4       2.4711      1.00000
      5       2.5385      1.00000
      6       2.6834      1.00000
      7       2.8271      1.00000
      8       3.4991      1.00000
      9       3.7560      1.00000
     10       3.9372      1.00000
     11       4.2383      1.00000
     12       4.4871      1.00000
     13       4.5367      1.00000
     14       4.7739      1.00001
     15       4.8679      1.00011
     16       5.1333      1.02116
     17       5.2074      1.03515
     18       6.8799     -0.00000
     19       8.6802     -0.00000
     20      11.2332      0.00000
     21      12.2412      0.00000
     22      14.0518      0.00000
     23      14.1757      0.00000
     24      15.4762      0.00000

 k-point    31 :       0.3333    0.1667    0.0000
  band No.  band energies     occupation 
      1      -2.4416      1.00000
      2       0.7945      1.00000
      3       2.1445      1.00000
      4       2.5105      1.00000
      5       2.5765      1.00000
      6       2.8200      1.00000
      7       2.8754      1.00000
      8       3.4439      1.00000
      9       3.6085      1.00000
     10       3.9365      1.00000
     11       4.1275      1.00000
     12       4.4008      1.00000
     13       4.4372      1.00000
     14       4.6721      1.00000
     15       4.8656      1.00010
     16       4.9987      1.00255
     17       5.1228      1.01882
     18       7.2720     -0.00000
     19       9.2040     -0.00000
     20      10.5706     -0.00000
     21      12.2345      0.00000
     22      13.3466      0.00000
     23      14.2315      0.00000
     24      15.2733      0.00000

 k-point    32 :       0.3889    0.1667    0.0000
  band No.  band energies     occupation 
      1      -2.0332      1.00000
      2       0.2738      1.00000
      3       2.2615      1.00000
      4       2.5188      1.00000
      5       2.6216      1.00000
      6       2.8843      1.00000
      7       2.9787      1.00000
      8       3.4516      1.00000
      9       3.4917      1.00000
     10       3.9667      1.00000
     11       3.9839      1.00000
     12       4.2692      1.00000
     13       4.4180      1.00000
     14       4.5772      1.00000
     15       4.8326      1.00004
     16       4.8828      1.00017
     17       5.1172      1.01761
     18       7.6995     -0.00000
     19       9.7754     -0.00000
     20       9.9118     -0.00000
     21      12.2905      0.00000
     22      12.5587      0.00000
     23      14.3936      0.00000
     24      14.9705      0.00000

 k-point    33 :       0.4444    0.1667    0.0000
  band No.  band energies     occupation 
      1      -1.6132      1.00000
      2      -0.2285      1.00000
      3       2.3636      1.00000
      4       2.4978      1.00000
      5       2.6667      1.00000
      6       2.8600      1.00000
      7       3.1267      1.00000
      8       3.4012      1.00000
      9       3.5152      1.00000
     10       3.8441      1.00000
     11       4.0091      1.00000
     12       4.1610      1.00000
     13       4.4097      1.00000
     14       4.5160      1.00000
     15       4.7328      1.00000
     16       4.8806      1.00016
     17       5.1145      1.01703
     18       8.1557     -0.00000
     19       9.3091     -0.00000
     20      10.3836     -0.00000
     21      11.8213      0.00000
     22      12.3465      0.00000
     23      14.4644      0.00000
     24      14.8170      0.00000

 k-point    34 :       0.5000    0.1667    0.0000
  band No.  band energies     occupation 
      1      -1.3638      1.00000
      2      -0.5077      1.00000
      3       2.4325      1.00000
      4       2.4569      1.00000
      5       2.6896      1.00000
      6       2.8412      1.00000
      7       3.2090      1.00000
      8       3.3457      1.00000
      9       3.5697      1.00000
     10       3.7661      1.00000
     11       4.0424      1.00000
     12       4.1040      1.00000
     13       4.4072      1.00000
     14       4.4969      1.00000
     15       4.6922      1.00000
     16       4.8816      1.00016
     17       5.1136      1.01685
     18       8.5119     -0.00000
     19       8.9032     -0.00000
     20      10.8754     -0.00000
     21      11.2867      0.00000
     22      12.3697      0.00000
     23      14.4526      0.00000
     24      14.8055      0.00000

 k-point    35 :       0.2222    0.2222    0.0000
  band No.  band energies     occupation 
      1      -2.8706      1.00000
      2       1.6924      1.00000
      3       1.7743      1.00000
      4       2.4147      1.00000
      5       2.5198      1.00000
      6       2.6386      1.00000
      7       2.8423      1.00000
      8       3.4728      1.00000
      9       3.8272      1.00000
     10       3.8770      1.00000
     11       4.3302      1.00000
     12       4.4850      1.00000
     13       4.6151      1.00000
     14       4.7946      1.00001
     15       4.8363      1.00005
     16       5.0887      1.01208
     17       5.5290      0.23188
     18       6.3089     -0.00000
     19       8.5852     -0.00000
     20      11.1867      0.00000
     21      12.2466      0.00000
     22      14.8182      0.00000
     23      15.0673      0.00000
     24      15.2769      0.00000

 k-point    36 :       0.2778    0.2222    0.0000
  band No.  band energies     occupation 
      1      -2.5709      1.00000
      2       1.3983      1.00000
      3       1.8650      1.00000
      4       2.4652      1.00000
      5       2.5414      1.00000
      6       2.7109      1.00000
      7       2.9232      1.00000
      8       3.3723      1.00000
      9       3.6556      1.00000
     10       3.8929      1.00000
     11       4.3011      1.00000
     12       4.4135      1.00000
     13       4.5276      1.00000
     14       4.7324      1.00000
     15       4.7941      1.00001
     16       5.0439      1.00595
     17       5.3371      0.92978
     18       6.4406     -0.00000
     19       9.0270     -0.00000
     20      10.4641     -0.00000
     21      12.2564      0.00000
     22      14.4184      0.00000
     23      15.0798      0.00000
     24      15.5848      0.00000

 k-point    37 :       0.3333    0.2222    0.0000
  band No.  band energies     occupation 
      1      -2.2149      1.00000
      2       0.9527      1.00000
      3       1.9986      1.00000
      4       2.5085      1.00000
      5       2.5742      1.00000
      6       2.8249      1.00000
      7       2.9698      1.00000
      8       3.3296      1.00000
      9       3.5184      1.00000
     10       3.9310      1.00000
     11       4.1567      1.00000
     12       4.4065      1.00000
     13       4.4250      1.00000
     14       4.6335      1.00000
     15       4.7961      1.00001
     16       5.0152      1.00353
     17       5.1206      1.01835
     18       6.7281     -0.00000
     19       9.5263     -0.00000
     20       9.7494     -0.00000
     21      12.3379      0.00000
     22      13.5958      0.00000
     23      15.1207      0.00000
     24      15.7119      0.00000

 k-point    38 :       0.3889    0.2222    0.0000
  band No.  band energies     occupation 
      1      -1.8147      1.00000
      2       0.4524      1.00000
      3       2.1164      1.00000
      4       2.5308      1.00000
      5       2.6154      1.00000
      6       2.9509      1.00000
      7       2.9668      1.00000
      8       3.3790      1.00000
      9       3.4161      1.00000
     10       3.9800      1.00000
     11       3.9922      1.00000
     12       4.2766      1.00000
     13       4.4392      1.00000
     14       4.5485      1.00000
     15       4.8028      1.00002
     16       4.9515      1.00092
     17       4.9980      1.00251
     18       7.0799     -0.00000
     19       9.0920     -0.00000
     20      10.0749     -0.00000
     21      12.4364      0.00000
     22      12.8192      0.00000
     23      14.9419      0.00000
     24      15.7742      0.00000

 k-point    39 :       0.4444    0.2222    0.0000
  band No.  band energies     occupation 
      1      -1.4063      1.00000
      2      -0.0302      1.00000
      3       2.1999      1.00000
      4       2.5358      1.00000
      5       2.6575      1.00000
      6       2.9011      1.00000
      7       3.1110      1.00000
      8       3.3317      1.00000
      9       3.4885      1.00000
     10       3.8312      1.00000
     11       4.0290      1.00000
     12       4.1638      1.00000
     13       4.4475      1.00000
     14       4.4998      1.00000
     15       4.8061      1.00002
     16       4.8381      1.00005
     17       4.9888      1.00208
     18       7.4784     -0.00000
     19       8.5076     -0.00000
     20      10.6579     -0.00000
     21      12.1004      0.00000
     22      12.5192      0.00000
     23      14.7379      0.00000
     24      15.9029      0.00000

 k-point    40 :       0.5000    0.2222    0.0000
  band No.  band energies     occupation 
      1      -1.1683      1.00000
      2      -0.2954      1.00000
      3       2.2311      1.00000
      4       2.5346      1.00000
      5       2.6789      1.00000
      6       2.8744      1.00000
      7       3.2236      1.00000
      8       3.2476      1.00000
      9       3.5786      1.00000
     10       3.7261      1.00000
     11       4.0750      1.00000
     12       4.0918      1.00000
     13       4.4501      1.00000
     14       4.4874      1.00000
     15       4.7867      1.00001
     16       4.8153      1.00002
     17       4.9859      1.00196
     18       7.8227     -0.00000
     19       8.1007     -0.00000
     20      11.1021      0.00000
     21      11.6112      0.00000
     22      12.5525      0.00000
     23      14.6569      0.00000
     24      15.9624      0.00000

 k-point    41 :       0.2778    0.2778    0.0000
  band No.  band energies     occupation 
      1      -2.2776      1.00000
      2       1.5378      1.00000
      3       1.5721      1.00000
      4       2.5083      1.00000
      5       2.5566      1.00000
      6       2.7626      1.00000
      7       3.0250      1.00000
      8       3.2602      1.00000
      9       3.5305      1.00000
     10       3.9150      1.00000
     11       4.2636      1.00000
     12       4.3941      1.00000
     13       4.4873      1.00000
     14       4.6735      1.00000
     15       4.7297      1.00000
     16       4.9696      1.00138
     17       5.3319      0.94053
     18       6.2601     -0.00000
     19       9.4422     -0.00000
     20       9.6926     -0.00000
     21      12.3526      0.00000
     22      14.5886      0.00000
     23      14.8615      0.00000
     24      15.6170      0.00000

 k-point    42 :       0.3333    0.2778    0.0000
  band No.  band energies     occupation 
      1      -1.9299      1.00000
      2       1.1360      1.00000
      3       1.7149      1.00000
      4       2.5562      1.00000
      5       2.5825      1.00000
      6       2.8480      1.00000
      7       3.0724      1.00000
      8       3.2267      1.00000
      9       3.4250      1.00000
     10       3.9629      1.00000
     11       4.1297      1.00000
     12       4.4027      1.00000
     13       4.4316      1.00000
     14       4.5809      1.00000
     15       4.7151      1.00000
     16       4.9152      1.00039
     17       5.1875      1.03280
     18       6.3551     -0.00000
     19       8.9802     -0.00000
     20       9.9160     -0.00000
     21      12.4790      0.00000
     22      13.8852      0.00000
     23      15.0946      0.00000
     24      15.5054      0.00000

 k-point    43 :       0.3889    0.2778    0.0000
  band No.  band energies     occupation 
      1      -1.5410      1.00000
      2       0.6653      1.00000
      3       1.8517      1.00000
      4       2.5878      1.00000
      5       2.6163      1.00000
      6       2.9617      1.00000
      7       3.0069      1.00000
      8       3.3339      1.00000
      9       3.3460      1.00000
     10       3.9737      1.00000
     11       4.0157      1.00000
     12       4.2899      1.00000
     13       4.4628      1.00000
     14       4.5032      1.00000
     15       4.7189      1.00000
     16       4.8788      1.00015
     17       5.0268      1.00438
     18       6.5945     -0.00000
     19       8.3450     -0.00000
     20      10.4392     -0.00000
     21      12.6122      0.00000
     22      13.1315      0.00000
     23      15.2169      0.00000
     24      15.4342      0.00000

 k-point    44 :       0.4444    0.2778    0.0000
  band No.  band energies     occupation 
      1      -1.1483      1.00000
      2       0.2101      1.00000
      3       1.9454      1.00000
      4       2.6028      1.00000
      5       2.6503      1.00000
      6       2.9403      1.00000
      7       3.0819      1.00000
      8       3.2810      1.00000
      9       3.4751      1.00000
     10       3.8126      1.00000
     11       4.0574      1.00000
     12       4.1847      1.00000
     13       4.4653      1.00000
     14       4.4821      1.00000
     15       4.7259      1.00000
     16       4.8578      1.00008
     17       4.9084      1.00033
     18       6.9134     -0.00000
     19       7.7947     -0.00000
     20      10.9931      0.00000
     21      12.4383      0.00000
     22      12.7209      0.00000
     23      14.9741      0.00000
     24      15.7230      0.00000

 k-point    45 :       0.5000    0.2778    0.0000
  band No.  band energies     occupation 
      1      -0.9245      1.00000
      2      -0.0367      1.00000
      3       1.9787      1.00000
      4       2.6066      1.00000
      5       2.6666      1.00000
      6       2.9123      1.00000
      7       3.1632      1.00000
      8       3.2266      1.00000
      9       3.5898      1.00000
     10       3.6914      1.00000
     11       4.0828      1.00000
     12       4.1299      1.00000
     13       4.4586      1.00000
     14       4.4887      1.00000
     15       4.7296      1.00000
     16       4.8509      1.00007
     17       4.8621      1.00009
     18       7.2364     -0.00000
     19       7.3948     -0.00000
     20      11.3917      0.00000
     21      11.9933      0.00000
     22      12.7645      0.00000
     23      14.8814      0.00000
     24      15.8453      0.00000

 k-point    46 :       0.3333    0.3333    0.0000
  band No.  band energies     occupation 
      1      -1.5936      1.00000
      2       1.2866      1.00000
      3       1.3759      1.00000
      4       2.5998      1.00000
      5       2.6040      1.00000
      6       2.9010      1.00000
      7       3.1003      1.00000
      8       3.2220      1.00000
      9       3.3467      1.00000
     10       4.0161      1.00000
     11       4.0459      1.00000
     12       4.3681      1.00000
     13       4.4568      1.00000
     14       4.5123      1.00000
     15       4.6509      1.00000
     16       4.8338      1.00004
     17       5.1543      1.02601
     18       6.2175     -0.00000
     19       8.2908     -0.00000
     20      10.3637     -0.00000
     21      12.6423      0.00000
     22      14.0348      0.00000
     23      14.4993      0.00000
     24      15.6304      0.00000

 k-point    47 :       0.3889    0.3333    0.0000
  band No.  band energies     occupation 
      1      -1.2197      1.00000
      2       0.8943      1.00000
      3       1.5113      1.00000
      4       2.6228      1.00000
      5       2.6290      1.00000
      6       2.9824      1.00000
      7       3.0283      1.00000
      8       3.2891      1.00000
      9       3.3444      1.00000
     10       3.9248      1.00000
     11       4.0708      1.00000
     12       4.2926      1.00000
     13       4.4426      1.00000
     14       4.4866      1.00000
     15       4.6258      1.00000
     16       4.7742      1.00001
     17       5.0495      1.00655
     18       6.2903     -0.00000
     19       7.6948     -0.00000
     20      10.8601     -0.00000
     21      12.8086      0.00000
     22      13.4634      0.00000
     23      14.6865      0.00000
     24      15.4671      0.00000

 k-point    48 :       0.4444    0.3333    0.0000
  band No.  band energies     occupation 
      1      -0.8469      1.00000
      2       0.4765      1.00000
      3       1.6359      1.00000
      4       2.6358      1.00000
      5       2.6446      1.00000
      6       2.9722      1.00000
      7       3.0693      1.00000
      8       3.2457      1.00000
      9       3.4831      1.00000
     10       3.7851      1.00000
     11       4.1069      1.00000
     12       4.2040      1.00000
     13       4.4104      1.00000
     14       4.5106      1.00000
     15       4.6219      1.00000
     16       4.7364      1.00000
     17       4.9515      1.00092
     18       6.4955     -0.00000
     19       7.1991     -0.00000
     20      11.3829      0.00000
     21      12.8134      0.00000
     22      12.9433      0.00000
     23      14.9694      0.00000
     24      15.2392      0.00000

 k-point    49 :       0.5000    0.3333    0.0000
  band No.  band energies     occupation 
      1      -0.6400      1.00000
      2       0.2522      1.00000
      3       1.6821      1.00000
      4       2.6362      1.00000
      5       2.6543      1.00000
      6       2.9509      1.00000
      7       3.1175      1.00000
      8       3.2191      1.00000
      9       3.6028      1.00000
     10       3.6643      1.00000
     11       4.1240      1.00000
     12       4.1572      1.00000
     13       4.4071      1.00000
     14       4.5201      1.00000
     15       4.6223      1.00000
     16       4.7230      1.00000
     17       4.9118      1.00035
     18       6.7682     -0.00000
     19       6.8321     -0.00000
     20      11.7425      0.00000
     21      12.4090      0.00000
     22      12.9974      0.00000
     23      15.0939      0.00000
     24      15.1445      0.00000

 k-point    50 :       0.3889    0.3889    0.0000
  band No.  band energies     occupation 
      1      -0.8653      1.00000
      2       1.0692      1.00000
      3       1.1707      1.00000
      4       2.6288      1.00000
      5       2.6320      1.00000
      6       3.0145      1.00000
      7       3.0366      1.00000
      8       3.2483      1.00000
      9       3.4138      1.00000
     10       3.8465      1.00000
     11       4.1307      1.00000
     12       4.2667      1.00000
     13       4.3786      1.00000
     14       4.5098      1.00000
     15       4.5492      1.00000
     16       4.6932      1.00000
     17       5.0141      1.00345
     18       6.1859     -0.00000
     19       7.1570     -0.00000
     20      11.3282      0.00000
     21      13.0055      0.00000
     22      13.6273      0.00000
     23      14.1719      0.00000
     24      15.6144      0.00000

 k-point    51 :       0.4444    0.3889    0.0000
  band No.  band energies     occupation 
      1      -0.5171      1.00000
      2       0.7398      1.00000
      3       1.2931      1.00000
      4       2.6041      1.00000
      5       2.6404      1.00000
      6       2.9937      1.00000
      7       3.0992      1.00000
      8       3.2208      1.00000
      9       3.5154      1.00000
     10       3.7455      1.00000
     11       4.1692      1.00000
     12       4.2116      1.00000
     13       4.3437      1.00000
     14       4.5118      1.00000
     15       4.5312      1.00000
     16       4.6386      1.00000
     17       4.9579      1.00107
     18       6.2480     -0.00000
     19       6.7382     -0.00000
     20      11.8206      0.00000
     21      13.1639      0.00000
     22      13.1821      0.00000
     23      14.2861      0.00000
     24      15.5304      0.00000

 k-point    52 :       0.5000    0.3889    0.0000
  band No.  band energies     occupation 
      1      -0.3285      1.00000
      2       0.5419      1.00000
      3       1.3568      1.00000
      4       2.5896      1.00000
      5       2.6438      1.00000
      6       2.9848      1.00000
      7       3.1308      1.00000
      8       3.2069      1.00000
      9       3.6161      1.00000
     10       3.6455      1.00000
     11       4.1737      1.00000
     12       4.1850      1.00000
     13       4.3402      1.00000
     14       4.5028      1.00000
     15       4.5429      1.00000
     16       4.6163      1.00000
     17       4.9315      1.00058
     18       6.4294     -0.00000
     19       6.4433     -0.00000
     20      12.1524      0.00000
     21      12.8202      0.00000
     22      13.2274      0.00000
     23      14.3984      0.00000
     24      15.4557      0.00000

 k-point    53 :       0.4444    0.4444    0.0000
  band No.  band energies     occupation 
      1      -0.1962      1.00000
      2       0.9241      1.00000
      3       0.9867      1.00000
      4       2.5361      1.00000
      5       2.6376      1.00000
      6       3.0049      1.00000
      7       3.1475      1.00000
      8       3.2044      1.00000
      9       3.5678      1.00000
     10       3.6928      1.00000
     11       4.1928      1.00000
     12       4.2238      1.00000
     13       4.2948      1.00000
     14       4.4322      1.00000
     15       4.5431      1.00000
     16       4.5758      1.00000
     17       4.9397      1.00070
     18       6.1667     -0.00000
     19       6.4164     -0.00000
     20      12.2879      0.00000
     21      13.3397      0.00000
     22      13.3773      0.00000
     23      13.7873      0.00000
     24      15.7738      0.00000

 k-point    54 :       0.5000    0.4444    0.0000
  band No.  band energies     occupation 
      1      -0.0246      1.00000
      2       0.7773      1.00000
      3       1.0417      1.00000
      4       2.4999      1.00000
      5       2.6367      1.00000
      6       3.0083      1.00000
      7       3.1720      1.00000
      8       3.1966      1.00000
      9       3.6267      1.00000
     10       3.6345      1.00000
     11       4.1739      1.00000
     12       4.2427      1.00000
     13       4.2834      1.00000
     14       4.4067      1.00000
     15       4.5445      1.00000
     16       4.5566      1.00000
     17       4.9275      1.00052
     18       6.2270     -0.00000
     19       6.2275     -0.00000
     20      12.6165      0.00000
     21      13.1550      0.00000
     22      13.4097      0.00000
     23      13.7632      0.00000
     24      15.8204      0.00000

 k-point    55 :       0.5000    0.5000    0.0000
  band No.  band energies     occupation 
      1       0.1394      1.00000
      2       0.8733      1.00000
      3       0.8733      1.00000
      4       2.4524      1.00000
      5       2.6342      1.00000
      6       3.0167      1.00000
      7       3.1926      1.00000
      8       3.1926      1.00000
      9       3.6309      1.00000
     10       3.6309      1.00000
     11       4.1646      1.00000
     12       4.2673      1.00000
     13       4.2673      1.00000
     14       4.3698      1.00000
     15       4.5191      1.00000
     16       4.5612      1.00000
     17       4.9211      1.00045
     18       6.1603     -0.00000
     19       6.1603     -0.00000
     20      13.0298      0.00000
     21      13.2930      0.00000
     22      13.2930      0.00000
     23      13.4819      0.00000
     24      16.1111      0.00000

 k-point    56 :       0.0556    0.0556    0.0556
  band No.  band energies     occupation 
      1      -3.8747      1.00000
      2       1.5976      1.00000
      3       2.1741      1.00000
      4       2.1741      1.00000
      5       2.4676      1.00000
      6       2.5027      1.00000
      7       2.5027      1.00000
      8       4.0709      1.00000
      9       4.1782      1.00000
     10       4.1782      1.00000
     11       4.8921      1.00021
     12       4.8921      1.00021
     13       5.0908      1.01245
     14       5.0908      1.01245
     15       5.1339      1.02131
     16       5.2905      1.00282
     17       6.3045     -0.00000
     18       6.4687     -0.00000
     19       6.4687     -0.00000
     20      11.8722      0.00000
     21      11.8722      0.00000
     22      12.3267      0.00000
     23      16.3170      0.00000
     24      16.7835      0.00000

 k-point    57 :       0.1111    0.0556    0.0556
  band No.  band energies     occupation 
      1      -3.7685      1.00000
      2       1.6239      1.00000
      3       2.1072      1.00000
      4       2.2377      1.00000
      5       2.4699      1.00000
      6       2.5186      1.00000
      7       2.5381      1.00000
      8       3.9862      1.00000
      9       4.1207      1.00000
     10       4.1921      1.00000
     11       4.8127      1.00002
     12       4.8885      1.00019
     13       4.9237      1.00048
     14       4.9626      1.00119
     15       5.1006      1.01424
     16       5.2807      1.01215
     17       5.9789     -0.00078
     18       6.6828     -0.00000
     19       6.7414     -0.00000
     20      11.8824      0.00000
     21      12.1215      0.00000
     22      12.8025      0.00000
     23      15.7015      0.00000
     24      16.0130      0.00000

 k-point    58 :       0.1667    0.0556    0.0556
  band No.  band energies     occupation 
      1      -3.5924      1.00000
      2       1.6231      1.00000
      3       2.0128      1.00000
      4       2.3394      1.00000
      5       2.4839      1.00000
      6       2.5450      1.00000
      7       2.5844      1.00000
      8       3.8880      1.00000
      9       4.0325      1.00000
     10       4.1833      1.00000
     11       4.6140      1.00000
     12       4.7933      1.00001
     13       4.8007      1.00002
     14       4.9044      1.00029
     15       5.0499      1.00659
     16       5.2745      1.01702
     17       5.5314      0.22340
     18       7.0654     -0.00000
     19       7.1099     -0.00000
     20      11.8974      0.00000
     21      12.2291      0.00000
     22      13.6957      0.00000
     23      14.9254      0.00000
     24      15.1508      0.00000

 k-point    59 :       0.2222    0.0556    0.0556
  band No.  band energies     occupation 
      1      -3.3486      1.00000
      2       1.4667      1.00000
      3       1.9868      1.00000
      4       2.4694      1.00000
      5       2.5080      1.00000
      6       2.5839      1.00000
      7       2.6381      1.00000
      8       3.7873      1.00000
      9       3.9248      1.00000
     10       4.1535      1.00000
     11       4.3671      1.00000
     12       4.6541      1.00000
     13       4.6838      1.00000
     14       4.8935      1.00022
     15       4.9866      1.00199
     16       5.1659      1.02860
     17       5.2709      1.01955
     18       7.5117     -0.00000
     19       7.5394     -0.00000
     20      11.9119      0.00000
     21      12.3318      0.00000
     22      14.0715      0.00000
     23      14.3051      0.00000
     24      14.7528      0.00000

 k-point    60 :       0.2778    0.0556    0.0556
  band No.  band energies     occupation 
      1      -3.0400      1.00000
      2       1.1081      1.00000
      3       2.0573      1.00000
      4       2.5398      1.00000
      5       2.5836      1.00000
      6       2.6682      1.00000
      7       2.6940      1.00000
      8       3.6946      1.00000
      9       3.8111      1.00000
     10       4.0954      1.00000
     11       4.1561      1.00000
     12       4.5346      1.00000
     13       4.5541      1.00000
     14       4.8389      1.00005
     15       4.9153      1.00039
     16       4.9489      1.00087
     17       5.2690      1.02082
     18       8.0057     -0.00000
     19       8.0138     -0.00000
     20      11.9091      0.00000
     21      12.4557      0.00000
     22      13.2851      0.00000
     23      13.5215      0.00000
     24      15.3211      0.00000

 k-point    61 :       0.3333    0.0556    0.0556
  band No.  band energies     occupation 
      1      -2.6722      1.00000
      2       0.6243      1.00000
      3       2.1601      1.00000
      4       2.5749      1.00000
      5       2.6371      1.00000
      6       2.7442      1.00000
      7       2.8264      1.00000
      8       3.6182      1.00000
      9       3.7033      1.00000
     10       3.9712      1.00000
     11       4.0675      1.00000
     12       4.4289      1.00000
     13       4.4400      1.00000
     14       4.7370      1.00000
     15       4.7439      1.00000
     16       4.9440      1.00077
     17       5.2680      1.02144
     18       8.5236     -0.00000
     19       8.5407     -0.00000
     20      11.8289      0.00000
     21      12.4856      0.00000
     22      12.6311      0.00000
     23      12.8682      0.00000
     24      15.0392      0.00000

 k-point    62 :       0.3889    0.0556    0.0556
  band No.  band energies     occupation 
      1      -2.2560      1.00000
      2       0.0852      1.00000
      3       2.2611      1.00000
      4       2.6069      1.00000
      5       2.6747      1.00000
      6       2.7808      1.00000
      7       2.9899      1.00000
      8       3.5671      1.00000
      9       3.6099      1.00000
     10       3.8829      1.00000
     11       4.0098      1.00000
     12       4.3255      1.00000
     13       4.3742      1.00000
     14       4.6228      1.00000
     15       4.6250      1.00000
     16       4.9459      1.00081
     17       5.2676      1.02172
     18       9.0595     -0.00000
     19       9.1132     -0.00000
     20      11.5188      0.00000
     21      11.7572      0.00000
     22      12.4990      0.00000
     23      12.7876      0.00000
     24      14.6290      0.00000

 k-point    63 :       0.4444    0.0556    0.0556
  band No.  band energies     occupation 
      1      -1.8249      1.00000
      2      -0.4351      1.00000
      3       2.3367      1.00000
      4       2.6278      1.00000
      5       2.7003      1.00000
      6       2.8001      1.00000
      7       3.1216      1.00000
      8       3.5384      1.00000
      9       3.5449      1.00000
     10       3.8362      1.00000
     11       3.9698      1.00000
     12       4.2552      1.00000
     13       4.3402      1.00000
     14       4.5312      1.00000
     15       4.5472      1.00000
     16       4.9480      1.00085
     17       5.2674      1.02183
     18       9.5968     -0.00000
     19       9.7207     -0.00000
     20      11.0066      0.00000
     21      11.0470      0.00000
     22      12.3970      0.00000
     23      12.9534      0.00000
     24      14.2991      0.00000

 k-point    64 :       0.5000    0.0556    0.0556
  band No.  band energies     occupation 
      1      -1.5640      1.00000
      2      -0.7281      1.00000
      3       2.3655      1.00000
      4       2.6345      1.00000
      5       2.7095      1.00000
      6       2.8056      1.00000
      7       3.1767      1.00000
      8       3.5075      1.00000
      9       3.5408      1.00000
     10       3.8201      1.00000
     11       3.9565      1.00000
     12       4.2295      1.00000
     13       4.3323      1.00000
     14       4.4917      1.00000
     15       4.5213      1.00000
     16       4.9489      1.00087
     17       5.2673      1.02186
     18       9.9433     -0.00000
     19      10.3092     -0.00000
     20      10.4242     -0.00000
     21      10.6525     -0.00000
     22      12.3810      0.00000
     23      13.0326      0.00000
     24      14.1629      0.00000

 k-point    65 :       0.1111    0.1111    0.0556
  band No.  band energies     occupation 
      1      -3.6627      1.00000
      2       1.6545      1.00000
      3       2.1050      1.00000
      4       2.2347      1.00000
      5       2.4635      1.00000
      6       2.5400      1.00000
      7       2.5752      1.00000
      8       3.8871      1.00000
      9       4.0902      1.00000
     10       4.2032      1.00000
     11       4.6832      1.00000
     12       4.8327      1.00004
     13       4.8529      1.00007
     14       4.8966      1.00024
     15       5.0527      1.00691
     16       5.2612      1.02532
     17       6.0929     -0.00004
     18       6.4477     -0.00000
     19       6.9549     -0.00000
     20      12.0021      0.00000
     21      12.5782      0.00000
     22      12.9875      0.00000
     23      14.9841      0.00000
     24      15.8911      0.00000

 k-point    66 :       0.1667    0.1111    0.0556
  band No.  band energies     occupation 
      1      -3.4876      1.00000
      2       1.6657      1.00000
      3       2.0250      1.00000
      4       2.3122      1.00000
      5       2.4696      1.00000
      6       2.5658      1.00000
      7       2.6286      1.00000
      8       3.7801      1.00000
      9       4.0124      1.00000
     10       4.2085      1.00000
     11       4.4619      1.00000
     12       4.7258      1.00000
     13       4.7797      1.00001
     14       4.8742      1.00013
     15       4.9997      1.00260
     16       5.2423      1.03245
     17       5.7399     -0.03207
     18       6.6791     -0.00000
     19       7.2941     -0.00000
     20      12.0383      0.00000
     21      12.8062      0.00000
     22      13.7670      0.00000
     23      14.1425      0.00000
     24      15.1756      0.00000

 k-point    67 :       0.2222    0.1111    0.0556
  band No.  band energies     occupation 
      1      -3.2451      1.00000
      2       1.5246      1.00000
      3       1.9951      1.00000
      4       2.4297      1.00000
      5       2.4896      1.00000
      6       2.6045      1.00000
      7       2.6889      1.00000
      8       3.6780      1.00000
      9       3.9127      1.00000
     10       4.1765      1.00000
     11       4.2515      1.00000
     12       4.6038      1.00000
     13       4.6751      1.00000
     14       4.8659      1.00011
     15       4.9407      1.00072
     16       5.2267      1.03504
     17       5.3560      0.88509
     18       7.0585     -0.00000
     19       7.7034     -0.00000
     20      12.0506      0.00000
     21      12.9068      0.00000
     22      13.3556      0.00000
     23      14.3246      0.00000
     24      14.8197      0.00000

 k-point    68 :       0.2778    0.1111    0.0556
  band No.  band energies     occupation 
      1      -2.9384      1.00000
      2       1.1743      1.00000
      3       2.0672      1.00000
      4       2.5027      1.00000
      5       2.5587      1.00000
      6       2.6792      1.00000
      7       2.7484      1.00000
      8       3.5920      1.00000
      9       3.7985      1.00000
     10       4.0321      1.00000
     11       4.1738      1.00000
     12       4.4981      1.00000
     13       4.5493      1.00000
     14       4.8139      1.00002
     15       4.9080      1.00032
     16       5.0694      1.00906
     17       5.2176      1.03545
     18       7.4833     -0.00000
     19       8.1653     -0.00000
     20      11.9408      0.00000
     21      12.6418      0.00000
     22      13.0865      0.00000
     23      13.5821      0.00000
     24      15.5645      0.00000

 k-point    69 :       0.3333    0.1111    0.0556
  band No.  band energies     occupation 
      1      -2.5730      1.00000
      2       0.6983      1.00000
      3       2.1730      1.00000
      4       2.5322      1.00000
      5       2.6230      1.00000
      6       2.7935      1.00000
      7       2.8233      1.00000
      8       3.5329      1.00000
      9       3.6768      1.00000
     10       3.9195      1.00000
     11       4.1171      1.00000
     12       4.4055      1.00000
     13       4.4324      1.00000
     14       4.7141      1.00000
     15       4.8680      1.00011
     16       4.9114      1.00035
     17       5.2108      1.03533
     18       7.9402     -0.00000
     19       8.6689     -0.00000
     20      11.4779      0.00000
     21      12.3105      0.00000
     22      12.8590      0.00000
     23      13.3362      0.00000
     24      15.4166      0.00000

 k-point    70 :       0.3889    0.1111    0.0556
  band No.  band energies     occupation 
      1      -2.1601      1.00000
      2       0.1669      1.00000
      3       2.2798      1.00000
      4       2.5507      1.00000
      5       2.6651      1.00000
      6       2.8203      1.00000
      7       2.9855      1.00000
      8       3.5110      1.00000
      9       3.5671      1.00000
     10       3.8518      1.00000
     11       4.0618      1.00000
     12       4.2931      1.00000
     13       4.3804      1.00000
     14       4.6093      1.00000
     15       4.7314      1.00000
     16       4.9130      1.00037
     17       5.2070      1.03513
     18       8.4232     -0.00000
     19       9.2029     -0.00000
     20      10.8578     -0.00000
     21      11.8031      0.00000
     22      12.6874      0.00000
     23      13.4983      0.00000
     24      15.0297      0.00000

 k-point    71 :       0.4444    0.1111    0.0556
  band No.  band energies     occupation 
      1      -1.7338      1.00000
      2      -0.3456      1.00000
      3       2.3678      1.00000
      4       2.5499      1.00000
      5       2.6970      1.00000
      6       2.8247      1.00000
      7       3.1289      1.00000
      8       3.4744      1.00000
      9       3.5264      1.00000
     10       3.8016      1.00000
     11       4.0273      1.00000
     12       4.2103      1.00000
     13       4.3613      1.00000
     14       4.5259      1.00000
     15       4.6409      1.00000
     16       4.9160      1.00039
     17       5.2052      1.03499
     18       8.9171     -0.00000
     19       9.7164     -0.00000
     20      10.3042     -0.00000
     21      11.1750      0.00000
     22      12.7004      0.00000
     23      13.6780      0.00000
     24      14.7033      0.00000

 k-point    72 :       0.5000    0.1111    0.0556
  band No.  band energies     occupation 
      1      -1.4780      1.00000
      2      -0.6327      1.00000
      3       2.4073      1.00000
      4       2.5411      1.00000
      5       2.7107      1.00000
      6       2.8224      1.00000
      7       3.1981      1.00000
      8       3.4287      1.00000
      9       3.5395      1.00000
     10       3.7776      1.00000
     11       4.0173      1.00000
     12       4.1797      1.00000
     13       4.3600      1.00000
     14       4.4904      1.00000
     15       4.6087      1.00000
     16       4.9172      1.00041
     17       5.2046      1.03495
     18       9.2588     -0.00000
     19       9.7524     -0.00000
     20      10.3037     -0.00000
     21      10.7321     -0.00000
     22      12.7165      0.00000
     23      13.7701      0.00000
     24      14.5612      0.00000

 k-point    73 :       0.1667    0.1667    0.0556
  band No.  band energies     occupation 
      1      -3.3141      1.00000
      2       1.7104      1.00000
      3       1.9818      1.00000
      4       2.3207      1.00000
      5       2.4699      1.00000
      6       2.5889      1.00000
      7       2.6912      1.00000
      8       3.6662      1.00000
      9       3.9604      1.00000
     10       4.1696      1.00000
     11       4.3204      1.00000
     12       4.6444      1.00000
     13       4.7409      1.00000
     14       4.8408      1.00005
     15       4.9331      1.00060
     16       5.2072      1.03514
     17       5.8243     -0.01391
     18       6.3974     -0.00000
     19       7.5971     -0.00000
     20      12.0609      0.00000
     21      13.2926      0.00000
     22      13.5997      0.00000
     23      14.0032      0.00000
     24      15.2959      0.00000

 k-point    74 :       0.2222    0.1667    0.0556
  band No.  band energies     occupation 
      1      -3.0740      1.00000
      2       1.6144      1.00000
      3       1.9507      1.00000
      4       2.3928      1.00000
      5       2.4884      1.00000
      6       2.6249      1.00000
      7       2.7613      1.00000
      8       3.5606      1.00000
      9       3.8877      1.00000
     10       4.0104      1.00000
     11       4.2890      1.00000
     12       4.5427      1.00000
     13       4.6597      1.00000
     14       4.8235      1.00003
     15       4.8678      1.00011
     16       5.1745      1.03042
     17       5.5454      0.17747
     18       6.5763     -0.00000
     19       7.9739     -0.00000
     20      11.9176      0.00000
     21      12.6502      0.00000
     22      13.8679      0.00000
     23      14.5063      0.00000
     24      14.9255      0.00000

 k-point    75 :       0.2778    0.1667    0.0556
  band No.  band energies     occupation 
      1      -2.7704      1.00000
      2       1.2792      1.00000
      3       2.0339      1.00000
      4       2.4635      1.00000
      5       2.5384      1.00000
      6       2.6925      1.00000
      7       2.8280      1.00000
      8       3.4764      1.00000
      9       3.7561      1.00000
     10       3.9147      1.00000
     11       4.2462      1.00000
     12       4.4574      1.00000
     13       4.5450      1.00000
     14       4.7657      1.00000
     15       4.8453      1.00006
     16       5.1444      1.02372
     17       5.2452      1.03167
     18       6.9145     -0.00000
     19       8.4060     -0.00000
     20      11.3594      0.00000
     21      12.4802      0.00000
     22      13.6351      0.00000
     23      14.1574      0.00000
     24      15.6289      0.00000

 k-point    76 :       0.3333    0.1667    0.0556
  band No.  band energies     occupation 
      1      -2.4092      1.00000
      2       0.8171      1.00000
      3       2.1454      1.00000
      4       2.4975      1.00000
      5       2.5986      1.00000
      6       2.8137      1.00000
      7       2.8758      1.00000
      8       3.4324      1.00000
      9       3.6109      1.00000
     10       3.8791      1.00000
     11       4.1667      1.00000
     12       4.3994      1.00000
     13       4.4285      1.00000
     14       4.6727      1.00000
     15       4.8496      1.00007
     16       5.0086      1.00310
     17       5.1354      1.02164
     18       7.3019     -0.00000
     19       8.8764     -0.00000
     20      10.6783     -0.00000
     21      12.4317      0.00000
     22      13.0095      0.00000
     23      14.3125      0.00000
     24      15.6530      0.00000

 k-point    77 :       0.3889    0.1667    0.0556
  band No.  band energies     occupation 
      1      -2.0021      1.00000
      2       0.2995      1.00000
      3       2.2547      1.00000
      4       2.5095      1.00000
      5       2.6461      1.00000
      6       2.8788      1.00000
      7       2.9763      1.00000
      8       3.4454      1.00000
      9       3.4937      1.00000
     10       3.8412      1.00000
     11       4.0970      1.00000
     12       4.2807      1.00000
     13       4.4024      1.00000
     14       4.5808      1.00000
     15       4.8398      1.00005
     16       4.8654      1.00010
     17       5.1215      1.01854
     18       7.7235     -0.00000
     19       9.3293     -0.00000
     20      10.0841     -0.00000
     21      12.0056      0.00000
     22      12.8178      0.00000
     23      14.5045      0.00000
     24      15.3167      0.00000

 k-point    78 :       0.4444    0.1667    0.0556
  band No.  band energies     occupation 
      1      -1.5839      1.00000
      2      -0.1998      1.00000
      3       2.3476      1.00000
      4       2.4952      1.00000
      5       2.6865      1.00000
      6       2.8628      1.00000
      7       3.1268      1.00000
      8       3.3960      1.00000
      9       3.5034      1.00000
     10       3.7749      1.00000
     11       4.0748      1.00000
     12       4.1797      1.00000
     13       4.3994      1.00000
     14       4.5120      1.00000
     15       4.7414      1.00000
     16       4.8629      1.00010
     17       5.1149      1.01712
     18       8.1695     -0.00000
     19       9.2635     -0.00000
     20      10.0966     -0.00000
     21      11.3877      0.00000
     22      12.8653      0.00000
     23      14.6821      0.00000
     24      15.0246      0.00000

 k-point    79 :       0.5000    0.1667    0.0556
  band No.  band energies     occupation 
      1      -1.3364      1.00000
      2      -0.4767      1.00000
      3       2.3976      1.00000
      4       2.4718      1.00000
      5       2.7058      1.00000
      6       2.8496      1.00000
      7       3.2209      1.00000
      8       3.3266      1.00000
      9       3.5469      1.00000
     10       3.7282      1.00000
     11       4.0803      1.00000
     12       4.1337      1.00000
     13       4.4035      1.00000
     14       4.4841      1.00000
     15       4.7027      1.00000
     16       4.8643      1.00010
     17       5.1129      1.01670
     18       8.5039     -0.00000
     19       8.9217     -0.00000
     20      10.4450     -0.00000
     21      10.9641      0.00000
     22      12.8957      0.00000
     23      14.8289      0.00000
     24      14.8391      0.00000

 k-point    80 :       0.2222    0.2222    0.0556
  band No.  band energies     occupation 
      1      -2.8372      1.00000
      2       1.6978      1.00000
      3       1.7978      1.00000
      4       2.4127      1.00000
      5       2.5040      1.00000
      6       2.6569      1.00000
      7       2.8437      1.00000
      8       3.4496      1.00000
      9       3.8170      1.00000
     10       3.8751      1.00000
     11       4.3315      1.00000
     12       4.4557      1.00000
     13       4.6181      1.00000
     14       4.7849      1.00001
     15       4.7883      1.00001
     16       5.1234      1.01896
     17       5.5813      0.08060
     18       6.3323     -0.00000
     19       8.3164     -0.00000
     20      11.3127      0.00000
     21      12.4994      0.00000
     22      14.6071      0.00000
     23      14.6808      0.00000
     24      14.9131      0.00000

 k-point    81 :       0.2778    0.2222    0.0556
  band No.  band energies     occupation 
      1      -2.5383      1.00000
      2       1.4144      1.00000
      3       1.8735      1.00000
      4       2.4673      1.00000
      5       2.5403      1.00000
      6       2.7150      1.00000
      7       2.9225      1.00000
      8       3.3612      1.00000
      9       3.6522      1.00000
     10       3.8697      1.00000
     11       4.3030      1.00000
     12       4.4019      1.00000
     13       4.5328      1.00000
     14       4.7002      1.00000
     15       4.7760      1.00001
     16       5.0769      1.01016
     17       5.3738      0.83475
     18       6.4611     -0.00000
     19       8.7089     -0.00000
     20      10.5757     -0.00000
     21      12.5554      0.00000
     22      13.9069      0.00000
     23      14.9736      0.00000
     24      15.2205      0.00000

 k-point    82 :       0.3333    0.2222    0.0556
  band No.  band energies     occupation 
      1      -2.1833      1.00000
      2       0.9728      1.00000
      3       1.9972      1.00000
      4       2.5118      1.00000
      5       2.5891      1.00000
      6       2.8156      1.00000
      7       2.9686      1.00000
      8       3.3281      1.00000
      9       3.5193      1.00000
     10       3.8718      1.00000
     11       4.1939      1.00000
     12       4.4097      1.00000
     13       4.4219      1.00000
     14       4.6136      1.00000
     15       4.7779      1.00001
     16       5.0347      1.00506
     17       5.1466      1.02423
     18       6.7471     -0.00000
     19       9.0911     -0.00000
     20       9.9320     -0.00000
     21      12.6036      0.00000
     22      13.2190      0.00000
     23      15.2265      0.00000
     24      15.4849      0.00000

 k-point    83 :       0.3889    0.2222    0.0556
  band No.  band energies     occupation 
      1      -1.7846      1.00000
      2       0.4763      1.00000
      3       2.1039      1.00000
      4       2.5390      1.00000
      5       2.6350      1.00000
      6       2.9268      1.00000
      7       2.9802      1.00000
      8       3.3726      1.00000
      9       3.4235      1.00000
     10       3.8433      1.00000
     11       4.1143      1.00000
     12       4.2916      1.00000
     13       4.4286      1.00000
     14       4.5367      1.00000
     15       4.7833      1.00001
     16       4.9451      1.00080
     17       5.0329      1.00490
     18       7.0959     -0.00000
     19       9.0065     -0.00000
     20       9.8600     -0.00000
     21      12.2655      0.00000
     22      12.9782      0.00000
     23      15.2822      0.00000
     24      15.7939      0.00000

 k-point    84 :       0.4444    0.2222    0.0556
  band No.  band energies     occupation 
      1      -1.3783      1.00000
      2      -0.0029      1.00000
      3       2.1775      1.00000
      4       2.5484      1.00000
      5       2.6766      1.00000
      6       2.9057      1.00000
      7       3.1046      1.00000
      8       3.3270      1.00000
      9       3.4826      1.00000
     10       3.7592      1.00000
     11       4.0958      1.00000
     12       4.1866      1.00000
     13       4.4383      1.00000
     14       4.4872      1.00000
     15       4.7877      1.00001
     16       4.8341      1.00004
     17       5.0119      1.00331
     18       7.4884     -0.00000
     19       8.4985     -0.00000
     20      10.3086     -0.00000
     21      11.6664      0.00000
     22      13.0457      0.00000
     23      15.1291      0.00000
     24      15.9422      0.00000

 k-point    85 :       0.5000    0.2222    0.0556
  band No.  band energies     occupation 
      1      -1.1423      1.00000
      2      -0.2655      1.00000
      3       2.2042      1.00000
      4       2.5489      1.00000
      5       2.6968      1.00000
      6       2.8854      1.00000
      7       3.2237      1.00000
      8       3.2349      1.00000
      9       3.5583      1.00000
     10       3.6863      1.00000
     11       4.1090      1.00000
     12       4.1315      1.00000
     13       4.4480      1.00000
     14       4.4670      1.00000
     15       4.7899      1.00001
     16       4.7905      1.00001
     17       5.0066      1.00298
     18       7.8174     -0.00000
     19       8.1175     -0.00000
     20      10.6552     -0.00000
     21      11.2740      0.00000
     22      13.0861      0.00000
     23      15.0457      0.00000
     24      15.9938      0.00000

 k-point    86 :       0.2778    0.2778    0.0556
  band No.  band energies     occupation 
      1      -2.2458      1.00000
      2       1.5623      1.00000
      3       1.5700      1.00000
      4       2.5147      1.00000
      5       2.5624      1.00000
      6       2.7574      1.00000
      7       3.0219      1.00000
      8       3.2598      1.00000
      9       3.5301      1.00000
     10       3.8752      1.00000
     11       4.2771      1.00000
     12       4.3912      1.00000
     13       4.4922      1.00000
     14       4.6225      1.00000
     15       4.7262      1.00000
     16       5.0118      1.00330
     17       5.3661      0.85734
     18       6.2683     -0.00000
     19       9.0103     -0.00000
     20       9.8788     -0.00000
     21      12.6817      0.00000
     22      14.1329      0.00000
     23      14.2795      0.00000
     24      16.0946      0.00000

 k-point    87 :       0.3333    0.2778    0.0556
  band No.  band energies     occupation 
      1      -1.8994      1.00000
      2       1.1531      1.00000
      3       1.7173      1.00000
      4       2.5623      1.00000
      5       2.5989      1.00000
      6       2.8324      1.00000
      7       3.0721      1.00000
      8       3.2298      1.00000
      9       3.4299      1.00000
     10       3.8842      1.00000
     11       4.1869      1.00000
     12       4.4058      1.00000
     13       4.4312      1.00000
     14       4.5420      1.00000
     15       4.7062      1.00000
     16       4.9551      1.00100
     17       5.2101      1.03530
     18       6.3613     -0.00000
     19       8.8742     -0.00000
     20       9.7364     -0.00000
     21      12.7981      0.00000
     22      13.4798      0.00000
     23      14.5579      0.00000
     24      16.0220      0.00000

 k-point    88 :       0.3889    0.2778    0.0556
  band No.  band energies     occupation 
      1      -1.5122      1.00000
      2       0.6867      1.00000
      3       1.8456      1.00000
      4       2.5971      1.00000
      5       2.6348      1.00000
      6       2.9299      1.00000
      7       3.0302      1.00000
      8       3.3050      1.00000
      9       3.3771      1.00000
     10       3.8474      1.00000
     11       4.1277      1.00000
     12       4.3032      1.00000
     13       4.4525      1.00000
     14       4.4809      1.00000
     15       4.7009      1.00000
     16       4.9123      1.00036
     17       5.0415      1.00571
     18       6.6005     -0.00000
     19       8.3210     -0.00000
     20      10.1321     -0.00000
     21      12.5742      0.00000
     22      13.1685      0.00000
     23      14.9064      0.00000
     24      15.7250      0.00000

 k-point    89 :       0.4444    0.2778    0.0556
  band No.  band energies     occupation 
      1      -1.1220      1.00000
      2       0.2357      1.00000
      3       1.9317      1.00000
      4       2.6132      1.00000
      5       2.6689      1.00000
      6       2.9458      1.00000
      7       3.0731      1.00000
      8       3.2763      1.00000
      9       3.4742      1.00000
     10       3.7503      1.00000
     11       4.1135      1.00000
     12       4.2076      1.00000
     13       4.4376      1.00000
     14       4.4819      1.00000
     15       4.6992      1.00000
     16       4.8827      1.00017
     17       4.9268      1.00052
     18       6.9174     -0.00000
     19       7.7912     -0.00000
     20      10.6081     -0.00000
     21      12.0021      0.00000
     22      13.2519      0.00000
     23      15.1954      0.00000
     24      15.4713      0.00000

 k-point    90 :       0.5000    0.2778    0.0556
  band No.  band energies     occupation 
      1      -0.9006      1.00000
      2      -0.0081      1.00000
      3       1.9620      1.00000
      4       2.6164      1.00000
      5       2.6854      1.00000
      6       2.9273      1.00000
      7       3.1382      1.00000
      8       3.2344      1.00000
      9       3.5730      1.00000
     10       3.6583      1.00000
     11       4.1137      1.00000
     12       4.1650      1.00000
     13       4.4335      1.00000
     14       4.4874      1.00000
     15       4.6985      1.00000
     16       4.8610      1.00009
     17       4.8958      1.00024
     18       7.2300     -0.00000
     19       7.4059     -0.00000
     20      10.9268      0.00000
     21      11.6418      0.00000
     22      13.3023      0.00000
     23      15.2621      0.00000
     24      15.4337      0.00000

 k-point    91 :       0.3333    0.3333    0.0556
  band No.  band energies     occupation 
      1      -1.5646      1.00000
      2       1.3119      1.00000
      3       1.3712      1.00000
      4       2.5998      1.00000
      5       2.6269      1.00000
      6       2.8786      1.00000
      7       3.1229      1.00000
      8       3.2025      1.00000
      9       3.3631      1.00000
     10       3.8847      1.00000
     11       4.1615      1.00000
     12       4.3653      1.00000
     13       4.4576      1.00000
     14       4.4689      1.00000
     15       4.6527      1.00000
     16       4.8791      1.00015
     17       5.1725      1.03001
     18       6.2150     -0.00000
     19       8.2619     -0.00000
     20      10.0697     -0.00000
     21      12.9877      0.00000
     22      13.6327      0.00000
     23      14.0086      0.00000
     24      16.1476      0.00000

 k-point    92 :       0.3889    0.3333    0.0556
  band No.  band energies     occupation 
      1      -1.1928      1.00000
      2       0.9129      1.00000
      3       1.5129      1.00000
      4       2.6247      1.00000
      5       2.6462      1.00000
      6       2.9490      1.00000
      7       3.0674      1.00000
      8       3.2598      1.00000
      9       3.3718      1.00000
     10       3.8350      1.00000
     11       4.1516      1.00000
     12       4.2927      1.00000
     13       4.4093      1.00000
     14       4.4855      1.00000
     15       4.6225      1.00000
     16       4.8202      1.00003
     17       5.0588      1.00764
     18       6.2864     -0.00000
     19       7.6838     -0.00000
     20      10.5045     -0.00000
     21      12.9126      0.00000
     22      13.3527      0.00000
     23      14.2380      0.00000
     24      15.9234      0.00000

 k-point    93 :       0.4444    0.3333    0.0556
  band No.  band energies     occupation 
      1      -0.8232      1.00000
      2       0.5000      1.00000
      3       1.6325      1.00000
      4       2.6320      1.00000
      5       2.6635      1.00000
      6       2.9820      1.00000
      7       3.0689      1.00000
      8       3.2395      1.00000
      9       3.4851      1.00000
     10       3.7389      1.00000
     11       4.1506      1.00000
     12       4.2138      1.00000
     13       4.3853      1.00000
     14       4.5085      1.00000
     15       4.6050      1.00000
     16       4.7889      1.00001
     17       4.9525      1.00094
     18       6.4918     -0.00000
     19       7.1944     -0.00000
     20      10.9649      0.00000
     21      12.3778      0.00000
     22      13.4579      0.00000
     23      14.5642      0.00000
     24      15.6125      0.00000

 k-point    94 :       0.5000    0.3333    0.0556
  band No.  band energies     occupation 
      1      -0.6192      1.00000
      2       0.2794      1.00000
      3       1.6763      1.00000
      4       2.6306      1.00000
      5       2.6732      1.00000
      6       2.9747      1.00000
      7       3.0999      1.00000
      8       3.2217      1.00000
      9       3.5902      1.00000
     10       3.6424      1.00000
     11       4.1484      1.00000
     12       4.1775      1.00000
     13       4.3844      1.00000
     14       4.5188      1.00000
     15       4.5975      1.00000
     16       4.7819      1.00001
     17       4.9083      1.00033
     18       6.7593     -0.00000
     19       6.8345     -0.00000
     20      11.2560      0.00000
     21      12.0462      0.00000
     22      13.5194      0.00000
     23      14.7332      0.00000
     24      15.4574      0.00000

 k-point    95 :       0.3889    0.3889    0.0556
  band No.  band energies     occupation 
      1      -0.8412      1.00000
      2       1.0947      1.00000
      3       1.1695      1.00000
      4       2.6139      1.00000
      5       2.6520      1.00000
      6       2.9978      1.00000
      7       3.0765      1.00000
      8       3.2317      1.00000
      9       3.4256      1.00000
     10       3.7908      1.00000
     11       4.1857      1.00000
     12       4.2506      1.00000
     13       4.3542      1.00000
     14       4.5103      1.00000
     15       4.5585      1.00000
     16       4.7389      1.00000
     17       5.0178      1.00371
     18       6.1764     -0.00000
     19       7.1490     -0.00000
     20      10.9279      0.00000
     21      13.2342      0.00000
     22      13.2610      0.00000
     23      13.9332      0.00000
     24      15.9068      0.00000

 k-point    96 :       0.4444    0.3889    0.0556
  band No.  band energies     occupation 
      1      -0.4971      1.00000
      2       0.7613      1.00000
      3       1.2995      1.00000
      4       2.5807      1.00000
      5       2.6591      1.00000
      6       3.0248      1.00000
      7       3.0997      1.00000
      8       3.2129      1.00000
      9       3.5176      1.00000
     10       3.7163      1.00000
     11       4.1934      1.00000
     12       4.2049      1.00000
     13       4.3310      1.00000
     14       4.5129      1.00000
     15       4.5335      1.00000
     16       4.6878      1.00000
     17       4.9559      1.00102
     18       6.2378     -0.00000
     19       6.7302     -0.00000
     20      11.3669      0.00000
     21      12.7617      0.00000
     22      13.4998      0.00000
     23      14.1072      0.00000
     24      15.6222      0.00000

 k-point    97 :       0.5000    0.3889    0.0556
  band No.  band energies     occupation 
      1      -0.3123      1.00000
      2       0.5678      1.00000
      3       1.3622      1.00000
      4       2.5632      1.00000
      5       2.6625      1.00000
      6       3.0259      1.00000
      7       3.1207      1.00000
      8       3.2048      1.00000
      9       3.6080      1.00000
     10       3.6338      1.00000
     11       4.1660      1.00000
     12       4.2036      1.00000
     13       4.3319      1.00000
     14       4.4996      1.00000
     15       4.5412      1.00000
     16       4.6713      1.00000
     17       4.9270      1.00052
     18       6.4178     -0.00000
     19       6.4366     -0.00000
     20      11.6367      0.00000
     21      12.4554      0.00000
     22      13.5987      0.00000
     23      14.2361      0.00000
     24      15.4524      0.00000

 k-point    98 :       0.4444    0.4444    0.0556
  band No.  band energies     occupation 
      1      -0.1821      1.00000
      2       0.9496      1.00000
      3       0.9973      1.00000
      4       2.5006      1.00000
      5       2.6562      1.00000
      6       3.0550      1.00000
      7       3.1438      1.00000
      8       3.1966      1.00000
      9       3.5680      1.00000
     10       3.6782      1.00000
     11       4.1569      1.00000
     12       4.2498      1.00000
     13       4.2962      1.00000
     14       4.4463      1.00000
     15       4.5462      1.00000
     16       4.6180      1.00000
     17       4.9358      1.00064
     18       6.1534     -0.00001
     19       6.4052     -0.00000
     20      11.7863      0.00000
     21      13.0320      0.00000
     22      13.1726      0.00000
     23      14.1297      0.00000
     24      15.3365      0.00000

 k-point    99 :       0.5000    0.4444    0.0556
  band No.  band energies     occupation 
      1      -0.0158      1.00000
      2       0.8027      1.00000
      3       1.0587      1.00000
      4       2.4608      1.00000
      5       2.6552      1.00000
      6       3.0643      1.00000
      7       3.1649      1.00000
      8       3.1914      1.00000
      9       3.6223      1.00000
     10       3.6294      1.00000
     11       4.1366      1.00000
     12       4.2579      1.00000
     13       4.2942      1.00000
     14       4.4198      1.00000
     15       4.5542      1.00000
     16       4.5925      1.00000
     17       4.9228      1.00047
     18       6.2132     -0.00000
     19       6.2149     -0.00000
     20      12.0475      0.00000
     21      12.8034      0.00000
     22      13.2548      0.00000
     23      14.2008      0.00000
     24      15.1671      0.00000

 k-point   100 :       0.5000    0.5000    0.0556
  band No.  band energies     occupation 
      1       0.1412      1.00000
      2       0.8989      1.00000
      3       0.8989      1.00000
      4       2.4094      1.00000
      5       2.6525      1.00000
      6       3.0782      1.00000
      7       3.1864      1.00000
      8       3.1864      1.00000
      9       3.6281      1.00000
     10       3.6281      1.00000
     11       4.1192      1.00000
     12       4.2814      1.00000
     13       4.2814      1.00000
     14       4.3870      1.00000
     15       4.5585      1.00000
     16       4.5659      1.00000
     17       4.9164      1.00040
     18       6.1457     -0.00001
     19       6.1457     -0.00001
     20      12.3218      0.00000
     21      12.9546      0.00000
     22      12.9546      0.00000
     23      14.2523      0.00000
     24      15.0076      0.00000

 k-point   101 :       0.1111    0.1111    0.1111
  band No.  band energies     occupation 
      1      -3.5575      1.00000
      2       1.6859      1.00000
      3       2.1687      1.00000
      4       2.1687      1.00000
      5       2.4482      1.00000
      6       2.5899      1.00000
      7       2.5899      1.00000
      8       3.7828      1.00000
      9       4.1357      1.00000
     10       4.1357      1.00000
     11       4.6544      1.00000
     12       4.6544      1.00000
     13       4.8470      1.00006
     14       4.8470      1.00006
     15       4.9848      1.00192
     16       5.2605      1.02565
     17       6.2230     -0.00000
     18       6.6429     -0.00000
     19       6.6429     -0.00000
     20      12.5999      0.00000
     21      12.5999      0.00000
     22      13.1531      0.00000
     23      14.8852      0.00000
     24      15.2962      0.00000

 k-point   102 :       0.1667    0.1111    0.1111
  band No.  band energies     occupation 
      1      -3.3834      1.00000
      2       1.7033      1.00000
      3       2.0636      1.00000
      4       2.2702      1.00000
      5       2.4456      1.00000
      6       2.6146      1.00000
      7       2.6492      1.00000
      8       3.6760      1.00000
      9       4.0361      1.00000
     10       4.1502      1.00000
     11       4.4383      1.00000
     12       4.5968      1.00000
     13       4.7741      1.00001
     14       4.8437      1.00006
     15       4.9226      1.00046
     16       5.2465      1.03129
     17       5.9191     -0.00284
     18       6.7919     -0.00000
     19       6.9231     -0.00000
     20      12.6177      0.00000
     21      12.9551      0.00000
     22      13.8335      0.00000
     23      14.1501      0.00000
     24      14.4274      0.00000

 k-point   103 :       0.2222    0.1111    0.1111
  band No.  band energies     occupation 
      1      -3.1424      1.00000
      2       1.5773      1.00000
      3       2.0162      1.00000
      4       2.4006      1.00000
      5       2.4558      1.00000
      6       2.6511      1.00000
      7       2.7122      1.00000
      8       3.5825      1.00000
      9       3.9178      1.00000
     10       4.0904      1.00000
     11       4.2743      1.00000
     12       4.5216      1.00000
     13       4.6751      1.00000
     14       4.8403      1.00005
     15       4.8699      1.00012
     16       5.2248      1.03518
     17       5.5104      0.30009
     18       7.1615     -0.00000
     19       7.2595     -0.00000
     20      12.5607      0.00000
     21      13.1046      0.00000
     22      13.3235      0.00000
     23      13.7043      0.00000
     24      14.8516      0.00000

 k-point   104 :       0.2778    0.1111    0.1111
  band No.  band energies     occupation 
      1      -2.8376      1.00000
      2       1.2368      1.00000
      3       2.0794      1.00000
      4       2.4756      1.00000
      5       2.5387      1.00000
      6       2.7096      1.00000
      7       2.7702      1.00000
      8       3.5128      1.00000
      9       3.7934      1.00000
     10       3.9437      1.00000
     11       4.2175      1.00000
     12       4.4477      1.00000
     13       4.5546      1.00000
     14       4.7878      1.00001
     15       4.8603      1.00009
     16       5.1853      1.03244
     17       5.2027      1.03478
     18       7.5921     -0.00000
     19       7.6348     -0.00000
     20      12.2259      0.00000
     21      12.4986      0.00000
     22      13.2999      0.00000
     23      13.3427      0.00000
     24      15.6493      0.00000

 k-point   105 :       0.3333    0.1111    0.1111
  band No.  band energies     occupation 
      1      -2.4748      1.00000
      2       0.7695      1.00000
      3       2.1786      1.00000
      4       2.4983      1.00000
      5       2.6385      1.00000
      6       2.8122      1.00000
      7       2.8215      1.00000
      8       3.4749      1.00000
      9       3.6709      1.00000
     10       3.8240      1.00000
     11       4.1826      1.00000
     12       4.3893      1.00000
     13       4.4249      1.00000
     14       4.7040      1.00000
     15       4.8669      1.00011
     16       4.9505      1.00090
     17       5.1850      1.03238
     18       8.0371     -0.00000
     19       8.0652     -0.00000
     20      11.6373      0.00000
     21      11.7411      0.00000
     22      13.3222      0.00000
     23      13.4951      0.00000
     24      15.9151      0.00000

 k-point   106 :       0.3889    0.1111    0.1111
  band No.  band energies     occupation 
      1      -2.0654      1.00000
      2       0.2466      1.00000
      3       2.2809      1.00000
      4       2.5105      1.00000
      5       2.6904      1.00000
      6       2.8327      1.00000
      7       2.9777      1.00000
      8       3.4742      1.00000
      9       3.5535      1.00000
     10       3.7562      1.00000
     11       4.1445      1.00000
     12       4.3066      1.00000
     13       4.3563      1.00000
     14       4.6088      1.00000
     15       4.7902      1.00001
     16       4.8734      1.00013
     17       5.1731      1.03012
     18       8.4515     -0.00000
     19       8.5757     -0.00000
     20      11.0269      0.00000
     21      11.0289      0.00000
     22      13.4069      0.00000
     23      13.7149      0.00000
     24      15.6556      0.00000

 k-point   107 :       0.4444    0.1111    0.1111
  band No.  band energies     occupation 
      1      -1.6441      1.00000
      2      -0.2578      1.00000
      3       2.3733      1.00000
      4       2.4957      1.00000
      5       2.7186      1.00000
      6       2.8401      1.00000
      7       3.1314      1.00000
      8       3.4411      1.00000
      9       3.4986      1.00000
     10       3.7237      1.00000
     11       4.1075      1.00000
     12       4.2244      1.00000
     13       4.3543      1.00000
     14       4.5192      1.00000
     15       4.6949      1.00000
     16       4.8779      1.00015
     17       5.1665      1.02873
     18       8.8365     -0.00000
     19       9.1202     -0.00000
     20      10.3604     -0.00000
     21      10.5161     -0.00000
     22      13.4941      0.00000
     23      13.9246      0.00000
     24      15.3323      0.00000

 k-point   108 :       0.5000    0.1111    0.1111
  band No.  band energies     occupation 
      1      -1.3935      1.00000
      2      -0.5386      1.00000
      3       2.4457      1.00000
      4       2.4498      1.00000
      5       2.7281      1.00000
      6       2.8424      1.00000
      7       3.2242      1.00000
      8       3.3651      1.00000
      9       3.5143      1.00000
     10       3.7131      1.00000
     11       4.0903      1.00000
     12       4.1956      1.00000
     13       4.3661      1.00000
     14       4.4738      1.00000
     15       4.6631      1.00000
     16       4.8795      1.00015
     17       5.1644      1.02828
     18       9.0315     -0.00000
     19       9.6029     -0.00000
     20       9.8370     -0.00000
     21      10.2772     -0.00000
     22      13.5304      0.00000
     23      14.0254      0.00000
     24      15.1870      0.00000

 k-point   109 :       0.1667    0.1667    0.1111
  band No.  band energies     occupation 
      1      -3.2110      1.00000
      2       1.7409      1.00000
      3       2.0475      1.00000
      4       2.2662      1.00000
      5       2.4379      1.00000
      6       2.6495      1.00000
      7       2.7023      1.00000
      8       3.5709      1.00000
      9       3.9903      1.00000
     10       4.0730      1.00000
     11       4.3645      1.00000
     12       4.5117      1.00000
     13       4.7449      1.00000
     14       4.8093      1.00002
     15       4.8401      1.00005
     16       5.2346      1.03405
     17       5.9975     -0.00050
     18       6.5225     -0.00000
     19       7.1266     -0.00000
     20      12.7271      0.00000
     21      13.4573      0.00000
     22      13.6020      0.00000
     23      14.0224      0.00000
     24      14.5262      0.00000

 k-point   110 :       0.2222    0.1667    0.1111
  band No.  band energies     occupation 
      1      -2.9724      1.00000
      2       1.6555      1.00000
      3       1.9945      1.00000
      4       2.3630      1.00000
      5       2.4488      1.00000
      6       2.6828      1.00000
      7       2.7703      1.00000
      8       3.4824      1.00000
      9       3.8875      1.00000
     10       3.9543      1.00000
     11       4.3063      1.00000
     12       4.4568      1.00000
     13       4.6655      1.00000
     14       4.7707      1.00001
     15       4.8011      1.00002
     16       5.2091      1.03525
     17       5.6866     -0.03371
     18       6.6865     -0.00000
     19       7.4460     -0.00000
     20      12.3012      0.00000
     21      13.0705      0.00000
     22      13.5774      0.00000
     23      14.0901      0.00000
     24      14.5921      0.00000

 k-point   111 :       0.2778    0.1667    0.1111
  band No.  band energies     occupation 
      1      -2.6709      1.00000
      2       1.3348      1.00000
      3       2.0504      1.00000
      4       2.4591      1.00000
      5       2.5085      1.00000
      6       2.7306      1.00000
      7       2.8326      1.00000
      8       3.4225      1.00000
      9       3.7491      1.00000
     10       3.8454      1.00000
     11       4.2691      1.00000
     12       4.4100      1.00000
     13       4.5569      1.00000
     14       4.7083      1.00000
     15       4.8034      1.00002
     16       5.1760      1.03072
     17       5.3416      0.91994
     18       7.0139     -0.00000
     19       7.8140     -0.00000
     20      11.5723      0.00000
     21      12.6028      0.00000
     22      13.3885      0.00000
     23      14.2276      0.00000
     24      14.9459      0.00000

 k-point   112 :       0.3333    0.1667    0.1111
  band No.  band energies     occupation 
      1      -2.3126      1.00000
      2       0.8831      1.00000
      3       2.1379      1.00000
      4       2.4935      1.00000
      5       2.6192      1.00000
      6       2.8139      1.00000
      7       2.8753      1.00000
      8       3.4036      1.00000
      9       3.6143      1.00000
     10       3.7658      1.00000
     11       4.2308      1.00000
     12       4.3777      1.00000
     13       4.4365      1.00000
     14       4.6403      1.00000
     15       4.8084      1.00002
     16       5.0669      1.00871
     17       5.1534      1.02581
     18       7.3874     -0.00000
     19       8.2155     -0.00000
     20      10.8632     -0.00000
     21      11.9095      0.00000
     22      13.4984      0.00000
     23      14.4246      0.00000
     24      15.3022      0.00000

 k-point   113 :       0.3889    0.1667    0.1111
  band No.  band energies     occupation 
      1      -1.9093      1.00000
      2       0.3752      1.00000
      3       2.2208      1.00000
      4       2.5158      1.00000
      5       2.6868      1.00000
      6       2.8751      1.00000
      7       2.9635      1.00000
      8       3.4309      1.00000
      9       3.4963      1.00000
     10       3.7078      1.00000
     11       4.1969      1.00000
     12       4.3125      1.00000
     13       4.3715      1.00000
     14       4.5644      1.00000
     15       4.8135      1.00002
     16       4.8830      1.00017
     17       5.1270      1.01975
     18       7.7873     -0.00000
     19       8.6246     -0.00000
     20      10.2418     -0.00000
     21      11.2410      0.00000
     22      13.6585      0.00000
     23      14.6410      0.00000
     24      15.6421      0.00000

 k-point   114 :       0.4444    0.1667    0.1111
  band No.  band energies     occupation 
      1      -1.4967      1.00000
      2      -0.1148      1.00000
      3       2.2840      1.00000
      4       2.5191      1.00000
      5       2.7244      1.00000
      6       2.8764      1.00000
      7       3.1142      1.00000
      8       3.3814      1.00000
      9       3.4838      1.00000
     10       3.6656      1.00000
     11       4.1746      1.00000
     12       4.2242      1.00000
     13       4.3789      1.00000
     14       4.4907      1.00000
     15       4.7695      1.00001
     16       4.8174      1.00003
     17       5.1127      1.01666
     18       8.1892     -0.00000
     19       8.9316     -0.00000
     20       9.8243     -0.00000
     21      10.6547     -0.00000
     22      13.7997      0.00000
     23      14.8440      0.00000
     24      15.7154      0.00000

 k-point   115 :       0.5000    0.1667    0.1111
  band No.  band energies     occupation 
      1      -1.2548      1.00000
      2      -0.3848      1.00000
      3       2.3095      1.00000
      4       2.5149      1.00000
      5       2.7380      1.00000
      6       2.8752      1.00000
      7       3.2528      1.00000
      8       3.2600      1.00000
      9       3.5142      1.00000
     10       3.6454      1.00000
     11       4.1673      1.00000
     12       4.1887      1.00000
     13       4.4008      1.00000
     14       4.4453      1.00000
     15       4.7308      1.00000
     16       4.8187      1.00003
     17       5.1081      1.01571
     18       8.4369     -0.00000
     19       8.9313     -0.00000
     20       9.8035     -0.00000
     21      10.3288     -0.00000
     22      13.8583      0.00000
     23      14.9460      0.00000
     24      15.6058      0.00000

 k-point   116 :       0.2222    0.2222    0.1111
  band No.  band energies     occupation 
      1      -2.7373      1.00000
      2       1.7107      1.00000
      3       1.8669      1.00000
      4       2.3971      1.00000
      5       2.4642      1.00000
      6       2.7091      1.00000
      7       2.8479      1.00000
      8       3.3948      1.00000
      9       3.7868      1.00000
     10       3.8498      1.00000
     11       4.3354      1.00000
     12       4.3994      1.00000
     13       4.6257      1.00000
     14       4.6816      1.00000
     15       4.7644      1.00000
     16       5.1788      1.03126
     17       5.7200     -0.03482
     18       6.4012     -0.00000
     19       7.7332     -0.00000
     20      11.5284      0.00000
     21      13.1391      0.00000
     22      13.8202      0.00000
     23      13.8662      0.00000
     24      14.9520      0.00000

 k-point   117 :       0.2778    0.2222    0.1111
  band No.  band energies     occupation 
      1      -2.4408      1.00000
      2       1.4578      1.00000
      3       1.8989      1.00000
      4       2.4827      1.00000
      5       2.5074      1.00000
      6       2.7450      1.00000
      7       2.9211      1.00000
      8       3.3337      1.00000
      9       3.6411      1.00000
     10       3.8004      1.00000
     11       4.3122      1.00000
     12       4.3807      1.00000
     13       4.5443      1.00000
     14       4.6093      1.00000
     15       4.7504      1.00000
     16       5.1377      1.02218
     17       5.4739      0.44767
     18       6.5217     -0.00000
     19       8.0600     -0.00000
     20      10.7688     -0.00000
     21      12.8651      0.00000
     22      13.4927      0.00000
     23      14.1453      0.00000
     24      15.3062      0.00000

 k-point   118 :       0.3333    0.2222    0.1111
  band No.  band energies     occupation 
      1      -2.0891      1.00000
      2       1.0309      1.00000
      3       1.9907      1.00000
      4       2.5342      1.00000
      5       2.6024      1.00000
      6       2.8071      1.00000
      7       2.9638      1.00000
      8       3.3238      1.00000
      9       3.5218      1.00000
     10       3.7532      1.00000
     11       4.2542      1.00000
     12       4.3915      1.00000
     13       4.4420      1.00000
     14       4.5482      1.00000
     15       4.7465      1.00000
     16       5.0869      1.01178
     17       5.2069      1.03512
     18       6.8025     -0.00000
     19       8.3897     -0.00000
     20      10.1092     -0.00000
     21      12.1784      0.00000
     22      13.6307      0.00000
     23      14.4891      0.00000
     24      15.5374      0.00000

 k-point   119 :       0.3889    0.2222    0.1111
  band No.  band energies     occupation 
      1      -1.6947      1.00000
      2       0.5463      1.00000
      3       2.0668      1.00000
      4       2.5714      1.00000
      5       2.6754      1.00000
      6       2.8978      1.00000
      7       2.9816      1.00000
      8       3.3662      1.00000
      9       3.4366      1.00000
     10       3.7002      1.00000
     11       4.2131      1.00000
     12       4.3347      1.00000
     13       4.3994      1.00000
     14       4.4970      1.00000
     15       4.7442      1.00000
     16       4.9681      1.00134
     17       5.0815      1.01089
     18       7.1397     -0.00000
     19       8.5927     -0.00000
     20       9.6868     -0.00000
     21      11.5088      0.00000
     22      13.8205      0.00000
     23      14.8605      0.00000
     24      15.7490      0.00000

 k-point   120 :       0.4444    0.2222    0.1111
  band No.  band energies     occupation 
      1      -1.2949      1.00000
      2       0.0781      1.00000
      3       2.1163      1.00000
      4       2.5876      1.00000
      5       2.7219      1.00000
      6       2.9232      1.00000
      7       3.0700      1.00000
      8       3.3261      1.00000
      9       3.4728      1.00000
     10       3.6412      1.00000
     11       4.1881      1.00000
     12       4.2545      1.00000
     13       4.4021      1.00000
     14       4.4618      1.00000
     15       4.7420      1.00000
     16       4.8442      1.00006
     17       5.0516      1.00679
     18       7.5084     -0.00000
     19       8.4148     -0.00000
     20       9.7483     -0.00000
     21      10.9202     -0.00000
     22      13.9839      0.00000
     23      15.2173      0.00000
     24      15.8698      0.00000

 k-point   121 :       0.5000    0.2222    0.1111
  band No.  band energies     occupation 
      1      -1.0652      1.00000
      2      -0.1767      1.00000
      3       2.1336      1.00000
      4       2.5903      1.00000
      5       2.7401      1.00000
      6       2.9194      1.00000
      7       3.1485      1.00000
      8       3.2671      1.00000
      9       3.5260      1.00000
     10       3.5983      1.00000
     11       4.1775      1.00000
     12       4.2230      1.00000
     13       4.4099      1.00000
     14       4.4455      1.00000
     15       4.7410      1.00000
     16       4.7990      1.00001
     17       5.0430      1.00586
     18       7.7841     -0.00000
     19       8.1482     -0.00000
     20       9.9587     -0.00000
     21      10.5880     -0.00000
     22      14.0519      0.00000
     23      15.4198      0.00000
     24      15.8013      0.00000

 k-point   122 :       0.2778    0.2778    0.1111
  band No.  band energies     occupation 
      1      -2.1511      1.00000
      2       1.5624      1.00000
      3       1.6346      1.00000
      4       2.5319      1.00000
      5       2.5548      1.00000
      6       2.7660      1.00000
      7       3.0133      1.00000
      8       3.2587      1.00000
      9       3.5284      1.00000
     10       3.7780      1.00000
     11       4.3060      1.00000
     12       4.3841      1.00000
     13       4.4888      1.00000
     14       4.5346      1.00000
     15       4.7119      1.00000
     16       5.0888      1.01211
     17       5.4639      0.48992
     18       6.2931     -0.00000
     19       8.3110     -0.00000
     20      10.0626     -0.00000
     21      13.1038      0.00000
     22      13.2876      0.00000
     23      13.8025      0.00000
     24      16.2845      0.00000

 k-point   123 :       0.3333    0.2778    0.1111
  band No.  band energies     occupation 
      1      -1.8085      1.00000
      2       1.1997      1.00000
      3       1.7273      1.00000
      4       2.5771      1.00000
      5       2.6292      1.00000
      6       2.8094      1.00000
      7       3.0649      1.00000
      8       3.2412      1.00000
      9       3.4425      1.00000
     10       3.7514      1.00000
     11       4.2615      1.00000
     12       4.4032      1.00000
     13       4.4169      1.00000
     14       4.4771      1.00000
     15       4.6919      1.00000
     16       5.0332      1.00492
     17       5.2755      1.01631
     18       6.3799     -0.00000
     19       8.4300     -0.00000
     20       9.6071     -0.00000
     21      12.4977      0.00000
     22      13.5198      0.00000
     23      13.9946      0.00000
     24      16.5570      0.00000

 k-point   124 :       0.3889    0.2778    0.1111
  band No.  band energies     occupation 
      1      -1.4267      1.00000
      2       0.7486      1.00000
      3       1.8293      1.00000
      4       2.6224      1.00000
      5       2.6785      1.00000
      6       2.8862      1.00000
      7       3.0510      1.00000
      8       3.2869      1.00000
      9       3.4096      1.00000
     10       3.7059      1.00000
     11       4.2222      1.00000
     12       4.3302      1.00000
     13       4.4029      1.00000
     14       4.4619      1.00000
     15       4.6776      1.00000
     16       4.9735      1.00151
     17       5.0832      1.01117
     18       6.6171     -0.00000
     19       8.1865     -0.00000
     20       9.6360     -0.00000
     21      11.8296      0.00000
     22      13.8320      0.00000
     23      14.2720      0.00000
     24      16.3215      0.00000

 k-point   125 :       0.4444    0.2778    0.1111
  band No.  band energies     occupation 
      1      -1.0441      1.00000
      2       0.3112      1.00000
      3       1.8944      1.00000
      4       2.6414      1.00000
      5       2.7177      1.00000
      6       2.9546      1.00000
      7       3.0481      1.00000
      8       3.2764      1.00000
      9       3.4737      1.00000
     10       3.6426      1.00000
     11       4.1920      1.00000
     12       4.2601      1.00000
     13       4.3880      1.00000
     14       4.4779      1.00000
     15       4.6633      1.00000
     16       4.8981      1.00025
     17       4.9888      1.00208
     18       6.9243     -0.00000
     19       7.7593     -0.00000
     20       9.9549     -0.00000
     21      11.2461      0.00000
     22      14.0668      0.00000
     23      14.5868      0.00000
     24      15.9195      0.00000

 k-point   126 :       0.5000    0.2778    0.1111
  band No.  band energies     occupation 
      1      -0.8300      1.00000
      2       0.0766      1.00000
      3       1.9166      1.00000
      4       2.6437      1.00000
      5       2.7357      1.00000
      6       2.9686      1.00000
      7       3.0698      1.00000
      8       3.2564      1.00000
      9       3.5443      1.00000
     10       3.5837      1.00000
     11       4.1807      1.00000
     12       4.2269      1.00000
     13       4.3887      1.00000
     14       4.4856      1.00000
     15       4.6565      1.00000
     16       4.8577      1.00008
     17       4.9691      1.00137
     18       7.2021     -0.00000
     19       7.4292     -0.00000
     20      10.1990     -0.00000
     21      10.9258      0.00000
     22      14.1560      0.00000
     23      14.7712      0.00000
     24      15.7009      0.00000

 k-point   127 :       0.3333    0.3333    0.1111
  band No.  band energies     occupation 
      1      -1.4784      1.00000
      2       1.3577      1.00000
      3       1.3860      1.00000
      4       2.5980      1.00000
      5       2.6756      1.00000
      6       2.8462      1.00000
      7       3.1619      1.00000
      8       3.1715      1.00000
      9       3.3955      1.00000
     10       3.7408      1.00000
     11       4.2622      1.00000
     12       4.3240      1.00000
     13       4.4068      1.00000
     14       4.4693      1.00000
     15       4.6540      1.00000
     16       4.9693      1.00137
     17       5.2299      1.03471
     18       6.2072     -0.00000
     19       8.1118     -0.00000
     20       9.5947     -0.00000
     21      12.8430      0.00000
     22      12.8721      0.00000
     23      14.1391      0.00000
     24      16.4695      0.00000

 k-point   128 :       0.3889    0.3333    0.1111
  band No.  band energies     occupation 
      1      -1.1132      1.00000
      2       0.9647      1.00000
      3       1.5215      1.00000
      4       2.6150      1.00000
      5       2.6959      1.00000
      6       2.9200      1.00000
      7       3.1186      1.00000
      8       3.2246      1.00000
      9       3.4105      1.00000
     10       3.7077      1.00000
     11       4.2354      1.00000
     12       4.2682      1.00000
     13       4.3799      1.00000
     14       4.4854      1.00000
     15       4.6256      1.00000
     16       4.9087      1.00033
     17       5.0902      1.01235
     18       6.2739     -0.00000
     19       7.6265     -0.00000
     20       9.8845     -0.00000
     21      12.1926      0.00000
     22      13.2379      0.00000
     23      14.3686      0.00000
     24      15.9503      0.00000

 k-point   129 :       0.4444    0.3333    0.1111
  band No.  band energies     occupation 
      1      -0.7533      1.00000
      2       0.5687      1.00000
      3       1.6243      1.00000
      4       2.6170      1.00000
      5       2.7160      1.00000
      6       2.9874      1.00000
      7       3.0906      1.00000
      8       3.2314      1.00000
      9       3.4907      1.00000
     10       3.6528      1.00000
     11       4.1902      1.00000
     12       4.2296      1.00000
     13       4.3792      1.00000
     14       4.5043      1.00000
     15       4.5954      1.00000
     16       4.8745      1.00013
     17       4.9620      1.00117
     18       6.4785     -0.00000
     19       7.1700     -0.00000
     20      10.2610     -0.00000
     21      11.6173      0.00000
     22      13.5775      0.00000
     23      14.5957      0.00000
     24      15.4577      0.00000

 k-point   130 :       0.5000    0.3333    0.1111
  band No.  band energies     occupation 
      1      -0.5582      1.00000
      2       0.3596      1.00000
      3       1.6610      1.00000
      4       2.6145      1.00000
      5       2.7271      1.00000
      6       3.0141      1.00000
      7       3.0822      1.00000
      8       3.2284      1.00000
      9       3.5671      1.00000
     10       3.5922      1.00000
     11       4.1739      1.00000
     12       4.2061      1.00000
     13       4.3850      1.00000
     14       4.5165      1.00000
     15       4.5779      1.00000
     16       4.8797      1.00015
     17       4.8978      1.00025
     18       6.7276     -0.00000
     19       6.8370     -0.00000
     20      10.5039     -0.00000
     21      11.3106      0.00000
     22      13.7329      0.00000
     23      14.7329      0.00000
     24      15.2021      0.00000

 k-point   131 :       0.3889    0.3889    0.1111
  band No.  band energies     occupation 
      1      -0.7703      1.00000
      2       1.1669      1.00000
      3       1.1695      1.00000
      4       2.5711      1.00000
      5       2.7047      1.00000
      6       2.9954      1.00000
      7       3.1509      1.00000
      8       3.1945      1.00000
      9       3.4508      1.00000
     10       3.6933      1.00000
     11       4.1773      1.00000
     12       4.2771      1.00000
     13       4.3470      1.00000
     14       4.5108      1.00000
     15       4.5860      1.00000
     16       4.8347      1.00004
     17       5.0335      1.00495
     18       6.1470     -0.00001
     19       7.1141     -0.00000
     20      10.2383     -0.00000
     21      12.5156      0.00000
     22      12.6497      0.00000
     23      14.5883      0.00000
     24      15.3994      0.00000

 k-point   132 :       0.4444    0.3889    0.1111
  band No.  band energies     occupation 
      1      -0.4391      1.00000
      2       0.8233      1.00000
      3       1.3209      1.00000
      4       2.5226      1.00000
      5       2.7134      1.00000
      6       3.0594      1.00000
      7       3.1464      1.00000
      8       3.1964      1.00000
      9       3.5234      1.00000
     10       3.6573      1.00000
     11       4.1235      1.00000
     12       4.2662      1.00000
     13       4.3523      1.00000
     14       4.5243      1.00000
     15       4.5464      1.00000
     16       4.7869      1.00001
     17       4.9520      1.00093
     18       6.2055     -0.00000
     19       6.7010     -0.00000
     20      10.6256     -0.00000
     21      12.0093      0.00000
     22      12.9444      0.00000
     23      14.7139      0.00000
     24      14.9947      0.00000

 k-point   133 :       0.5000    0.3889    0.1111
  band No.  band energies     occupation 
      1      -0.2657      1.00000
      2       0.6440      1.00000
      3       1.3791      1.00000
      4       2.5013      1.00000
      5       2.7175      1.00000
      6       3.0810      1.00000
      7       3.1453      1.00000
      8       3.1989      1.00000
      9       3.5918      1.00000
     10       3.6068      1.00000
     11       4.1034      1.00000
     12       4.2507      1.00000
     13       4.3657      1.00000
     14       4.5168      1.00000
     15       4.5371      1.00000
     16       4.7762      1.00001
     17       4.9132      1.00037
     18       6.3798     -0.00000
     19       6.4144     -0.00000
     20      10.8627     -0.00000
     21      11.7142      0.00000
     22      13.1116      0.00000
     23      14.6175      0.00000
     24      14.9631      0.00000

 k-point   134 :       0.4444    0.4444    0.1111
  band No.  band energies     occupation 
      1      -0.1419      1.00000
      2       1.0246      1.00000
      3       1.0301      1.00000
      4       2.4203      1.00000
      5       2.7111      1.00000
      6       3.1250      1.00000
      7       3.1769      1.00000
      8       3.1892      1.00000
      9       3.5690      1.00000
     10       3.6464      1.00000
     11       4.0674      1.00000
     12       4.3067      1.00000
     13       4.3204      1.00000
     14       4.4940      1.00000
     15       4.5426      1.00000
     16       4.7159      1.00000
     17       4.9242      1.00048
     18       6.1119     -0.00002
     19       6.3689     -0.00000
     20      11.0129      0.00000
     21      12.3151      0.00000
     22      12.4392      0.00000
     23      14.3372      0.00000
     24      15.0952      0.00000

 k-point   135 :       0.5000    0.4444    0.1111
  band No.  band energies     occupation 
      1       0.0087      1.00000
      2       0.8774      1.00000
      3       1.1099      1.00000
      4       2.3738      1.00000
      5       2.7102      1.00000
      6       3.1448      1.00000
      7       3.1781      1.00000
      8       3.2041      1.00000
      9       3.6127      1.00000
     10       3.6176      1.00000
     11       4.0461      1.00000
     12       4.2979      1.00000
     13       4.3338      1.00000
     14       4.4659      1.00000
     15       4.5478      1.00000
     16       4.6933      1.00000
     17       4.9081      1.00032
     18       6.1700     -0.00000
     19       6.1753     -0.00000
     20      11.2495      0.00000
     21      12.0778      0.00000
     22      12.5522      0.00000
     23      14.1299      0.00000
     24      15.1767      0.00000

 k-point   136 :       0.5000    0.5000    0.1111
  band No.  band energies     occupation 
      1       0.1460      1.00000
      2       0.9739      1.00000
      3       0.9739      1.00000
      4       2.3141      1.00000
      5       2.7075      1.00000
      6       3.1708      1.00000
      7       3.1708      1.00000
      8       3.2284      1.00000
      9       3.6215      1.00000
     10       3.6215      1.00000
     11       4.0237      1.00000
     12       4.3193      1.00000
     13       4.3193      1.00000
     14       4.4381      1.00000
     15       4.5507      1.00000
     16       4.6658      1.00000
     17       4.9016      1.00027
     18       6.1005     -0.00003
     19       6.1005     -0.00003
     20      11.4955      0.00000
     21      12.2475      0.00000
     22      12.2475      0.00000
     23      13.9173      0.00000
     24      15.2665      0.00000

 k-point   137 :       0.1667    0.1667    0.1667
  band No.  band energies     occupation 
      1      -3.0404      1.00000
      2       1.7709      1.00000
      3       2.1525      1.00000
      4       2.1525      1.00000
      5       2.4275      1.00000
      6       2.7208      1.00000
      7       2.7208      1.00000
      8       3.4751      1.00000
      9       3.9631      1.00000
     10       3.9631      1.00000
     11       4.3892      1.00000
     12       4.3892      1.00000
     13       4.7442      1.00000
     14       4.7504      1.00000
     15       4.7504      1.00000
     16       5.2403      1.03294
     17       6.1242     -0.00001
     18       6.7125     -0.00000
     19       6.7125     -0.00000
     20      13.3217      0.00000
     21      13.3217      0.00000
     22      13.3666      0.00000
     23      14.0510      0.00000
     24      14.0510      0.00000

 k-point   138 :       0.2222    0.1667    0.1667
  band No.  band energies     occupation 
      1      -2.8044      1.00000
      2       1.7082      1.00000
      3       2.0387      1.00000
      4       2.2891      1.00000
      5       2.4426      1.00000
      6       2.7474      1.00000
      7       2.7937      1.00000
      8       3.4000      1.00000
      9       3.8452      1.00000
     10       3.8624      1.00000
     11       4.3262      1.00000
     12       4.3925      1.00000
     13       4.6638      1.00000
     14       4.6678      1.00000
     15       4.7559      1.00000
     16       5.2242      1.03522
     17       5.8592     -0.00831
     18       6.7929     -0.00000
     19       6.9495     -0.00000
     20      12.5799      0.00000
     21      12.5871      0.00000
     22      13.6934      0.00000
     23      14.0626      0.00000
     24      14.2862      0.00000

 k-point   139 :       0.2778    0.1667    0.1667
  band No.  band energies     occupation 
      1      -2.5066      1.00000
      2       1.4185      1.00000
      3       2.0435      1.00000
      4       2.4447      1.00000
      5       2.4783      1.00000
      6       2.7842      1.00000
      7       2.8540      1.00000
      8       3.3595      1.00000
      9       3.7243      1.00000
     10       3.7430      1.00000
     11       4.3010      1.00000
     12       4.3774      1.00000
     13       4.5672      1.00000
     14       4.6042      1.00000
     15       4.7597      1.00000
     16       5.1934      1.03370
     17       5.4814      0.41666
     18       7.1231     -0.00000
     19       7.2192     -0.00000
     20      11.7991      0.00000
     21      11.8084      0.00000
     22      14.0358      0.00000
     23      14.2096      0.00000
     24      14.4757      0.00000

 k-point   140 :       0.3333    0.1667    0.1667
  band No.  band energies     occupation 
      1      -2.1532      1.00000
      2       0.9871      1.00000
      3       2.0925      1.00000
      4       2.5243      1.00000
      5       2.5959      1.00000
      6       2.8400      1.00000
      7       2.8877      1.00000
      8       3.3648      1.00000
      9       3.6039      1.00000
     10       3.6546      1.00000
     11       4.2833      1.00000
     12       4.3567      1.00000
     13       4.4587      1.00000
     14       4.5565      1.00000
     15       4.7607      1.00000
     16       5.1570      1.02662
     17       5.1736      1.03024
     18       7.5091     -0.00000
     19       7.5217     -0.00000
     20      11.0556      0.00000
     21      11.1078      0.00000
     22      14.3959      0.00000
     23      14.4037      0.00000
     24      14.6958      0.00000

 k-point   141 :       0.3889    0.1667    0.1667
  band No.  band energies     occupation 
      1      -1.7566      1.00000
      2       0.4970      1.00000
      3       2.1403      1.00000
      4       2.5621      1.00000
      5       2.7037      1.00000
      6       2.9009      1.00000
      7       2.9357      1.00000
      8       3.4113      1.00000
      9       3.4855      1.00000
     10       3.6032      1.00000
     11       4.2620      1.00000
     12       4.3472      1.00000
     13       4.3589      1.00000
     14       4.5079      1.00000
     15       4.7594      1.00000
     16       4.9514      1.00092
     17       5.1243      1.01916
     18       7.8012     -0.00000
     19       7.9605     -0.00000
     20      10.3713     -0.00000
     21      10.5134     -0.00000
     22      14.5857      0.00000
     23      14.7772      0.00000
     24      14.9515      0.00000

 k-point   142 :       0.4444    0.1667    0.1667
  band No.  band energies     occupation 
      1      -1.3537      1.00000
      2       0.0235      1.00000
      3       2.1742      1.00000
      4       2.5783      1.00000
      5       2.7545      1.00000
      6       2.9123      1.00000
      7       3.0634      1.00000
      8       3.3703      1.00000
      9       3.4707      1.00000
     10       3.5735      1.00000
     11       4.2383      1.00000
     12       4.2897      1.00000
     13       4.3592      1.00000
     14       4.4548      1.00000
     15       4.7574      1.00000
     16       4.8155      1.00002
     17       5.1027      1.01465
     18       8.0521     -0.00000
     19       8.4147     -0.00000
     20       9.7698     -0.00000
     21      10.0775     -0.00000
     22      14.7358      0.00000
     23      15.0662      0.00000
     24      15.2579      0.00000

 k-point   143 :       0.5000    0.1667    0.1667
  band No.  band energies     occupation 
      1      -1.1213      1.00000
      2      -0.2348      1.00000
      3       2.1866      1.00000
      4       2.5806      1.00000
      5       2.7688      1.00000
      6       2.9189      1.00000
      7       3.1496      1.00000
      8       3.2934      1.00000
      9       3.5038      1.00000
     10       3.5571      1.00000
     11       4.2260      1.00000
     12       4.2659      1.00000
     13       4.3823      1.00000
     14       4.4166      1.00000
     15       4.7565      1.00000
     16       4.7696      1.00001
     17       5.0952      1.01325
     18       8.1623     -0.00000
     19       8.7077     -0.00000
     20       9.4275     -0.00000
     21       9.9050     -0.00000
     22      14.7946      0.00000
     23      15.1735      0.00000
     24      15.4675      0.00000

 k-point   144 :       0.2222    0.2222    0.1667
  band No.  band energies     occupation 
      1      -2.5723      1.00000
      2       1.7202      1.00000
      3       1.9776      1.00000
      4       2.2951      1.00000
      5       2.4726      1.00000
      6       2.7838      1.00000
      7       2.8552      1.00000
      8       3.3340      1.00000
      9       3.7388      1.00000
     10       3.7775      1.00000
     11       4.3423      1.00000
     12       4.3625      1.00000
     13       4.5651      1.00000
     14       4.6417      1.00000
     15       4.7189      1.00000
     16       5.2148      1.03544
     17       5.9033     -0.00385
     18       6.5115     -0.00000
     19       7.1093     -0.00000
     20      11.7620      0.00000
     21      12.8287      0.00000
     22      12.9134      0.00000
     23      14.2882      0.00000
     24      15.0760      0.00000

 k-point   145 :       0.2778    0.2222    0.1667
  band No.  band energies     occupation 
      1      -2.2800      1.00000
      2       1.5132      1.00000
      3       1.9400      1.00000
      4       2.4113      1.00000
      5       2.5273      1.00000
      6       2.8094      1.00000
      7       2.9208      1.00000
      8       3.2999      1.00000
      9       3.6212      1.00000
     10       3.6992      1.00000
     11       4.3303      1.00000
     12       4.3644      1.00000
     13       4.4900      1.00000
     14       4.5677      1.00000
     15       4.7129      1.00000
     16       5.1855      1.03246
     17       5.6171      0.01581
     18       6.6186     -0.00000
     19       7.3719     -0.00000
     20      10.9917      0.00000
     21      12.0774      0.00000
     22      13.1980      0.00000
     23      14.4758      0.00000
     24      15.4487      0.00000

 k-point   146 :       0.3333    0.2222    0.1667
  band No.  band energies     occupation 
      1      -1.9339      1.00000
      2       1.1188      1.00000
      3       1.9720      1.00000
      4       2.5520      1.00000
      5       2.5942      1.00000
      6       2.8411      1.00000
      7       2.9574      1.00000
      8       3.3157      1.00000
      9       3.5248      1.00000
     10       3.6281      1.00000
     11       4.3040      1.00000
     12       4.3607      1.00000
     13       4.4478      1.00000
     14       4.4843      1.00000
     15       4.7109      1.00000
     16       5.1431      1.02341
     17       5.2928      1.00041
     18       6.8881     -0.00000
     19       7.6598     -0.00000
     20      10.3114     -0.00000
     21      11.3511      0.00000
     22      13.5636      0.00000
     23      14.6900      0.00000
     24      15.6910      0.00000

 k-point   147 :       0.3889    0.2222    0.1667
  band No.  band energies     occupation 
      1      -1.5473      1.00000
      2       0.6573      1.00000
      3       2.0048      1.00000
      4       2.6316      1.00000
      5       2.6914      1.00000
      6       2.8911      1.00000
      7       2.9736      1.00000
      8       3.3675      1.00000
      9       3.4493      1.00000
     10       3.5744      1.00000
     11       4.2745      1.00000
     12       4.3357      1.00000
     13       4.4051      1.00000
     14       4.4501      1.00000
     15       4.7035      1.00000
     16       5.0268      1.00439
     17       5.1155      1.01724
     18       7.1960     -0.00000
     19       7.9353     -0.00000
     20       9.7653     -0.00000
     21      10.7085     -0.00000
     22      13.9533      0.00000
     23      14.9125      0.00000
     24      15.9091      0.00000

 k-point   148 :       0.4444    0.2222    0.1667
  band No.  band energies     occupation 
      1      -1.1586      1.00000
      2       0.2091      1.00000
      3       2.0266      1.00000
      4       2.6513      1.00000
      5       2.7683      1.00000
      6       2.9551      1.00000
      7       2.9995      1.00000
      8       3.3505      1.00000
      9       3.4587      1.00000
     10       3.5377      1.00000
     11       4.2482      1.00000
     12       4.3038      1.00000
     13       4.3745      1.00000
     14       4.4509      1.00000
     15       4.6925      1.00000
     16       4.8689      1.00011
     17       5.0824      1.01103
     18       7.4966     -0.00000
     19       8.1033     -0.00000
     20       9.4495     -0.00000
     21      10.1893     -0.00000
     22      14.3158      0.00000
     23      15.1072      0.00000
     24      15.9278      0.00000

 k-point   149 :       0.5000    0.2222    0.1667
  band No.  band energies     occupation 
      1      -0.9396      1.00000
      2      -0.0321      1.00000
      3       2.0342      1.00000
      4       2.6539      1.00000
      5       2.7918      1.00000
      6       2.9766      1.00000
      7       3.0303      1.00000
      8       3.3165      1.00000
      9       3.4976      1.00000
     10       3.5109      1.00000
     11       4.2390      1.00000
     12       4.2862      1.00000
     13       4.3691      1.00000
     14       4.4522      1.00000
     15       4.6869      1.00000
     16       4.8124      1.00002
     17       5.0717      1.00939
     18       7.6602     -0.00000
     19       8.1102     -0.00000
     20       9.4020     -0.00000
     21       9.9434     -0.00000
     22      14.4925      0.00000
     23      15.2054      0.00000
     24      15.7415      0.00000

 k-point   150 :       0.2778    0.2778    0.1667
  band No.  band energies     occupation 
      1      -1.9951      1.00000
      2       1.5465      1.00000
      3       1.7504      1.00000
      4       2.4485      1.00000
      5       2.6024      1.00000
      6       2.8201      1.00000
      7       3.0013      1.00000
      8       3.2563      1.00000
      9       3.5242      1.00000
     10       3.6625      1.00000
     11       4.3366      1.00000
     12       4.3754      1.00000
     13       4.3889      1.00000
     14       4.5398      1.00000
     15       4.6815      1.00000
     16       5.1557      1.02633
     17       5.6117      0.02364
     18       6.3343     -0.00000
     19       7.5837     -0.00000
     20      10.2682     -0.00000
     21      12.3885      0.00000
     22      12.4123      0.00000
     23      14.6795      0.00000
     24      16.4252      0.00000

 k-point   151 :       0.3333    0.2778    0.1667
  band No.  band energies     occupation 
      1      -1.6592      1.00000
      2       1.2603      1.00000
      3       1.7549      1.00000
      4       2.5315      1.00000
      5       2.6798      1.00000
      6       2.8377      1.00000
      7       3.0486      1.00000
      8       3.2594      1.00000
      9       3.4581      1.00000
     10       3.6242      1.00000
     11       4.2937      1.00000
     12       4.3383      1.00000
     13       4.3967      1.00000
     14       4.4923      1.00000
     15       4.6688      1.00000
     16       5.1096      1.01603
     17       5.3768      0.82547
     18       6.4105     -0.00000
     19       7.7643     -0.00000
     20       9.6976     -0.00000
     21      11.6697      0.00000
     22      12.7663      0.00000
     23      14.9040      0.00000
     24      16.4085      0.00000

 k-point   152 :       0.3889    0.2778    0.1667
  band No.  band energies     occupation 
      1      -1.2867      1.00000
      2       0.8437      1.00000
      3       1.8074      1.00000
      4       2.6243      1.00000
      5       2.7307      1.00000
      6       2.8778      1.00000
      7       3.0585      1.00000
      8       3.2946      1.00000
      9       3.4370      1.00000
     10       3.5854      1.00000
     11       4.2352      1.00000
     12       4.3076      1.00000
     13       4.4158      1.00000
     14       4.4675      1.00000
     15       4.6551      1.00000
     16       5.0435      1.00590
     17       5.1372      1.02205
     18       6.6383     -0.00000
     19       7.8041     -0.00000
     20       9.3949     -0.00000
     21      11.0186      0.00000
     22      13.1595      0.00000
     23      15.1227      0.00000
     24      15.8401      0.00000

 k-point   153 :       0.4444    0.2778    0.1667
  band No.  band energies     occupation 
      1      -0.9178      1.00000
      2       0.4323      1.00000
      3       1.8408      1.00000
      4       2.6739      1.00000
      5       2.7769      1.00000
      6       2.9195      1.00000
      7       3.0677      1.00000
      8       3.2957      1.00000
      9       3.4714      1.00000
     10       3.5502      1.00000
     11       4.2002      1.00000
     12       4.2684      1.00000
     13       4.4307      1.00000
     14       4.4773      1.00000
     15       4.6329      1.00000
     16       4.9138      1.00037
     17       5.0507      1.00668
     18       6.9157     -0.00000
     19       7.6257     -0.00000
     20       9.4301     -0.00000
     21      10.4774     -0.00000
     22      13.5309      0.00000
     23      15.1880      0.00000
     24      15.4615      0.00000

 k-point   154 :       0.5000    0.2778    0.1667
  band No.  band energies     occupation 
      1      -0.7162      1.00000
      2       0.2142      1.00000
      3       1.8518      1.00000
      4       2.6815      1.00000
      5       2.8049      1.00000
      6       2.9345      1.00000
      7       3.0747      1.00000
      8       3.2882      1.00000
      9       3.5019      1.00000
     10       3.5284      1.00000
     11       4.1910      1.00000
     12       4.2485      1.00000
     13       4.4371      1.00000
     14       4.4896      1.00000
     15       4.6188      1.00000
     16       4.8519      1.00007
     17       5.0335      1.00495
     18       7.1232     -0.00000
     19       7.4278     -0.00000
     20       9.5617     -0.00000
     21      10.2002     -0.00000
     22      13.7169      0.00000
     23      15.0286      0.00000
     24      15.4675      0.00000

 k-point   155 :       0.3333    0.3333    0.1667
  band No.  band energies     occupation 
      1      -1.3374      1.00000
      2       1.3370      1.00000
      3       1.5046      1.00000
      4       2.5393      1.00000
      5       2.7428      1.00000
      6       2.8681      1.00000
      7       3.1186      1.00000
      8       3.2277      1.00000
      9       3.4286      1.00000
     10       3.6170      1.00000
     11       4.2207      1.00000
     12       4.3306      1.00000
     13       4.3910      1.00000
     14       4.4914      1.00000
     15       4.6461      1.00000
     16       5.0600      1.00780
     17       5.3293      0.94556
     18       6.1929     -0.00000
     19       7.7133     -0.00000
     20       9.3692     -0.00000
     21      12.0089      0.00000
     22      12.0589      0.00000
     23      15.1123      0.00000
     24      15.8026      0.00000

 k-point   156 :       0.3889    0.3333    0.1667
  band No.  band energies     occupation 
      1      -0.9840      1.00000
      2       1.0366      1.00000
      3       1.5481      1.00000
      4       2.5615      1.00000
      5       2.7678      1.00000
      6       2.9322      1.00000
      7       3.1346      1.00000
      8       3.2433      1.00000
      9       3.4452      1.00000
     10       3.6013      1.00000
     11       4.1507      1.00000
     12       4.3166      1.00000
     13       4.3980      1.00000
     14       4.4967      1.00000
     15       4.6304      1.00000
     16       4.9999      1.00261
     17       5.1496      1.02492
     18       6.2504     -0.00000
     19       7.4467     -0.00000
     20       9.3937     -0.00000
     21      11.3772      0.00000
     22      12.4289      0.00000
     23      15.0073      0.00000
     24      15.5224      0.00000

 k-point   157 :       0.4444    0.3333    0.1667
  band No.  band energies     occupation 
      1      -0.6414      1.00000
      2       0.6773      1.00000
      3       1.6162      1.00000
      4       2.5779      1.00000
      5       2.7930      1.00000
      6       2.9665      1.00000
      7       3.1576      1.00000
      8       3.2444      1.00000
      9       3.4986      1.00000
     10       3.5780      1.00000
     11       4.1068      1.00000
     12       4.2838      1.00000
     13       4.4347      1.00000
     14       4.5077      1.00000
     15       4.6027      1.00000
     16       4.9275      1.00052
     17       5.0075      1.00304
     18       6.4475     -0.00000
     19       7.0920     -0.00000
     20       9.6307     -0.00000
     21      10.8285     -0.00000
     22      12.8033      0.00000
     23      14.5425      0.00000
     24      15.6701      0.00000

 k-point   158 :       0.5000    0.3333    0.1667
  band No.  band energies     occupation 
      1      -0.4615      1.00000
      2       0.4889      1.00000
      3       1.6403      1.00000
      4       2.5825      1.00000
      5       2.8083      1.00000
      6       2.9703      1.00000
      7       3.1792      1.00000
      8       3.2360      1.00000
      9       3.5406      1.00000
     10       3.5525      1.00000
     11       4.0922      1.00000
     12       4.2701      1.00000
     13       4.4557      1.00000
     14       4.5179      1.00000
     15       4.5797      1.00000
     16       4.8798      1.00015
     17       4.9731      1.00149
     18       6.6578     -0.00000
     19       6.8231     -0.00000
     20       9.8192     -0.00000
     21      10.5451     -0.00000
     22      12.9929      0.00000
     23      14.3107      0.00000
     24      15.7471      0.00000

 k-point   159 :       0.3889    0.3889    0.1667
  band No.  band energies     occupation 
      1      -0.6567      1.00000
      2       1.1657      1.00000
      3       1.2889      1.00000
      4       2.4951      1.00000
      5       2.7844      1.00000
      6       3.0125      1.00000
      7       3.1543      1.00000
      8       3.2574      1.00000
      9       3.4777      1.00000
     10       3.6097      1.00000
     11       4.0733      1.00000
     12       4.3443      1.00000
     13       4.3621      1.00000
     14       4.5160      1.00000
     15       4.6224      1.00000
     16       4.9388      1.00069
     17       5.0742      1.00975
     18       6.0944     -0.00004
     19       7.0160     -0.00000
     20       9.6193     -0.00000
     21      11.7175      0.00000
     22      11.8228      0.00000
     23      14.4169      0.00000
     24      15.7309      0.00000

 k-point   160 :       0.4444    0.3889    0.1667
  band No.  band energies     occupation 
      1      -0.3485      1.00000
      2       0.9175      1.00000
      3       1.3634      1.00000
      4       2.4440      1.00000
      5       2.7987      1.00000
      6       3.0505      1.00000
      7       3.1721      1.00000
      8       3.2845      1.00000
      9       3.5321      1.00000
     10       3.6041      1.00000
     11       4.0222      1.00000
     12       4.3183      1.00000
     13       4.3937      1.00000
     14       4.5282      1.00000
     15       4.6013      1.00000
     16       4.8874      1.00019
     17       4.9577      1.00106
     18       6.1467     -0.00001
     19       6.6337     -0.00000
     20       9.9358     -0.00000
     21      11.2141      0.00000
     22      12.1483      0.00000
     23      13.8974      0.00000
     24      15.9383      0.00000

 k-point   161 :       0.5000    0.3889    0.1667
  band No.  band energies     occupation 
      1      -0.1944      1.00000
      2       0.7660      1.00000
      3       1.4094      1.00000
      4       2.4243      1.00000
      5       2.8051      1.00000
      6       3.0532      1.00000
      7       3.1914      1.00000
      8       3.2917      1.00000
      9       3.5793      1.00000
     10       3.5800      1.00000
     11       4.0047      1.00000
     12       4.3074      1.00000
     13       4.4140      1.00000
     14       4.5343      1.00000
     15       4.5788      1.00000
     16       4.8865      1.00018
     17       4.8891      1.00020
     18       6.3069     -0.00000
     19       6.3694     -0.00000
     20      10.1440     -0.00000
     21      10.9308      0.00000
     22      12.3377      0.00000
     23      13.6574      0.00000
     24      16.0254      0.00000

 k-point   162 :       0.4444    0.4444    0.1667
  band No.  band energies     occupation 
      1      -0.0825      1.00000
      2       1.0870      1.00000
      3       1.1440      1.00000
      4       2.3256      1.00000
      5       2.8001      1.00000
      6       3.1150      1.00000
      7       3.1543      1.00000
      8       3.3577      1.00000
      9       3.5713      1.00000
     10       3.6161      1.00000
     11       3.9632      1.00000
     12       4.3577      1.00000
     13       4.3590      1.00000
     14       4.5373      1.00000
     15       4.5808      1.00000
     16       4.8260      1.00003
     17       4.9072      1.00032
     18       6.0381     -0.00018
     19       6.2986     -0.00000
     20      10.2849     -0.00000
     21      11.5417      0.00000
     22      11.6366      0.00000
     23      13.3691      0.00000
     24      16.1602      0.00000

 k-point   163 :       0.5000    0.4444    0.1667
  band No.  band energies     occupation 
      1       0.0435      1.00000
      2       0.9961      1.00000
      3       1.1949      1.00000
      4       2.2746      1.00000
      5       2.8002      1.00000
      6       3.1250      1.00000
      7       3.1633      1.00000
      8       3.3859      1.00000
      9       3.6043      1.00000
     10       3.6055      1.00000
     11       3.9419      1.00000
     12       4.3498      1.00000
     13       4.3774      1.00000
     14       4.5393      1.00000
     15       4.5538      1.00000
     16       4.8053      1.00002
     17       4.8818      1.00016
     18       6.0918     -0.00004
     19       6.1039     -0.00003
     20      10.5045     -0.00000
     21      11.2989      0.00000
     22      11.7794      0.00000
     23      13.1288      0.00000
     24      16.2512      0.00000

 k-point   164 :       0.5000    0.5000    0.1667
  band No.  band energies     occupation 
      1       0.1530      1.00000
      2       1.0933      1.00000
      3       1.0933      1.00000
      4       2.2065      1.00000
      5       2.7980      1.00000
      6       3.1539      1.00000
      7       3.1539      1.00000
      8       3.4244      1.00000
      9       3.6147      1.00000
     10       3.6147      1.00000
     11       3.9184      1.00000
     12       4.3704      1.00000
     13       4.3704      1.00000
     14       4.5215      1.00000
     15       4.5388      1.00000
     16       4.7777      1.00001
     17       4.8750      1.00014
     18       6.0201     -0.00028
     19       6.0201     -0.00028
     20      10.7351     -0.00000
     21      11.4829      0.00000
     22      11.4829      0.00000
     23      12.8915      0.00000
     24      16.3430      0.00000

 k-point   165 :       0.2222    0.2222    0.2222
  band No.  band energies     occupation 
      1      -2.3447      1.00000
      2       1.6970      1.00000
      3       2.1227      1.00000
      4       2.1227      1.00000
      5       2.5238      1.00000
      6       2.8657      1.00000
      7       2.8657      1.00000
      8       3.2858      1.00000
      9       3.6762      1.00000
     10       3.6762      1.00000
     11       4.3522      1.00000
     12       4.3522      1.00000
     13       4.4609      1.00000
     14       4.6547      1.00000
     15       4.6547      1.00000
     16       5.2227      1.03531
     17       6.0150     -0.00032
     18       6.6553     -0.00000
     19       6.6553     -0.00000
     20      11.9909      0.00000
     21      12.0613      0.00000
     22      12.0613      0.00000
     23      15.2468      0.00000
     24      15.2468      0.00000

 k-point   166 :       0.2778    0.2222    0.2222
  band No.  band energies     occupation 
      1      -2.0585      1.00000
      2       1.5512      1.00000
      3       1.9740      1.00000
      4       2.2915      1.00000
      5       2.5969      1.00000
      6       2.8787      1.00000
      7       2.9335      1.00000
      8       3.2683      1.00000
      9       3.5861      1.00000
     10       3.6036      1.00000
     11       4.3507      1.00000
     12       4.3514      1.00000
     13       4.3870      1.00000
     14       4.5794      1.00000
     15       4.6655      1.00000
     16       5.2053      1.03500
     17       5.7673     -0.02636
     18       6.6924     -0.00000
     19       6.8225     -0.00000
     20      11.2302      0.00000
     21      11.2924      0.00000
     22      12.3621      0.00000
     23      15.4541      0.00000
     24      15.7370      0.00000

 k-point   167 :       0.3333    0.2222    0.2222
  band No.  band energies     occupation 
      1      -1.7208      1.00000
      2       1.2212      1.00000
      3       1.9236      1.00000
      4       2.4690      1.00000
      5       2.6711      1.00000
      6       2.8925      1.00000
      7       2.9714      1.00000
      8       3.2988      1.00000
      9       3.5271      1.00000
     10       3.5290      1.00000
     11       4.2907      1.00000
     12       4.3412      1.00000
     13       4.3982      1.00000
     14       4.5097      1.00000
     15       4.6689      1.00000
     16       5.1702      1.02953
     17       5.4048      0.72970
     18       6.9815     -0.00000
     19       7.0015     -0.00000
     20      10.5088     -0.00000
     21      10.6292     -0.00000
     22      12.7293      0.00000
     23      15.6823      0.00000
     24      15.9452      0.00000

 k-point   168 :       0.3889    0.2222    0.2222
  band No.  band energies     occupation 
      1      -1.3460      1.00000
      2       0.8000      1.00000
      3       1.9140      1.00000
      4       2.6361      1.00000
      5       2.7178      1.00000
      6       2.9024      1.00000
      7       3.0043      1.00000
      8       3.3564      1.00000
      9       3.4543      1.00000
     10       3.5044      1.00000
     11       4.2396      1.00000
     12       4.3144      1.00000
     13       4.4271      1.00000
     14       4.4684      1.00000
     15       4.6605      1.00000
     16       5.1073      1.01556
     17       5.1294      1.02028
     18       7.1750     -0.00000
     19       7.3289     -0.00000
     20       9.8688     -0.00000
     21      10.0989     -0.00000
     22      13.1262      0.00000
     23      15.6854      0.00000
     24      15.9040      0.00000

 k-point   169 :       0.4444    0.2222    0.2222
  band No.  band energies     occupation 
      1      -0.9741      1.00000
      2       0.3837      1.00000
      3       1.9134      1.00000
      4       2.7300      1.00000
      5       2.7706      1.00000
      6       2.8993      1.00000
      7       3.0480      1.00000
      8       3.3946      1.00000
      9       3.3971      1.00000
     10       3.5065      1.00000
     11       4.2086      1.00000
     12       4.2861      1.00000
     13       4.4588      1.00000
     14       4.4592      1.00000
     15       4.6416      1.00000
     16       4.9046      1.00030
     17       5.0972      1.01361
     18       7.3123     -0.00000
     19       7.6668     -0.00000
     20       9.3570     -0.00000
     21       9.7424     -0.00000
     22      13.5058      0.00000
     23      15.2037      0.00000
     24      16.0749      0.00000

 k-point   170 :       0.5000    0.2222    0.2222
  band No.  band energies     occupation 
      1      -0.7703      1.00000
      2       0.1626      1.00000
      3       1.9138      1.00000
      4       2.7301      1.00000
      5       2.8407      1.00000
      6       2.8793      1.00000
      7       3.0700      1.00000
      8       3.3741      1.00000
      9       3.4030      1.00000
     10       3.5138      1.00000
     11       4.1982      1.00000
     12       4.2760      1.00000
     13       4.4608      1.00000
     14       4.4757      1.00000
     15       4.6293      1.00000
     16       4.8282      1.00004
     17       5.0851      1.01147
     18       7.3670     -0.00000
     19       7.8383     -0.00000
     20       9.1275     -0.00000
     21       9.6136     -0.00000
     22      13.7003      0.00000
     23      14.9677      0.00000
     24      16.1410      0.00000

 k-point   171 :       0.2778    0.2778    0.2222
  band No.  band energies     occupation 
      1      -1.7810      1.00000
      2       1.5163      1.00000
      3       1.9020      1.00000
      4       2.2866      1.00000
      5       2.6838      1.00000
      6       2.9005      1.00000
      7       2.9882      1.00000
      8       3.2533      1.00000
      9       3.5163      1.00000
     10       3.5636      1.00000
     11       4.2762      1.00000
     12       4.3615      1.00000
     13       4.3715      1.00000
     14       4.5640      1.00000
     15       4.6365      1.00000
     16       5.1964      1.03409
     17       5.7848     -0.02232
     18       6.3904     -0.00000
     19       6.9233     -0.00000
     20      10.5228     -0.00000
     21      11.5708      0.00000
     22      11.5941      0.00000
     23      15.7711      0.00000
     24      16.3169      0.00000

 k-point   172 :       0.3333    0.2778    0.2222
  band No.  band energies     occupation 
      1      -1.4552      1.00000
      2       1.3093      1.00000
      3       1.8113      1.00000
      4       2.4049      1.00000
      5       2.7622      1.00000
      6       2.9087      1.00000
      7       3.0333      1.00000
      8       3.2781      1.00000
      9       3.4733      1.00000
     10       3.5307      1.00000
     11       4.1972      1.00000
     12       4.3557      1.00000
     13       4.3902      1.00000
     14       4.5254      1.00000
     15       4.6343      1.00000
     16       5.1647      1.02835
     17       5.5035      0.32693
     18       6.4512     -0.00000
     19       7.0896     -0.00000
     20       9.8998     -0.00000
     21      10.8837     -0.00000
     22      11.9475      0.00000
     23      15.5697      0.00000
     24      16.0957      0.00000

 k-point   173 :       0.3889    0.2778    0.2222
  band No.  band energies     occupation 
      1      -1.0970      1.00000
      2       0.9588      1.00000
      3       1.7836      1.00000
      4       2.5452      1.00000
      5       2.8003      1.00000
      6       2.9173      1.00000
      7       3.0807      1.00000
      8       3.3165      1.00000
      9       3.4584      1.00000
     10       3.5099      1.00000
     11       4.1387      1.00000
     12       4.3289      1.00000
     13       4.4250      1.00000
     14       4.5111      1.00000
     15       4.6261      1.00000
     16       5.1156      1.01728
     17       5.1934      1.03370
     18       6.6511     -0.00000
     19       7.2377     -0.00000
     20       9.4341     -0.00000
     21      10.2880     -0.00000
     22      12.3449      0.00000
     23      14.9486      0.00000
     24      16.3142      0.00000

 k-point   174 :       0.4444    0.2778    0.2222
  band No.  band energies     occupation 
      1      -0.7487      1.00000
      2       0.5915      1.00000
      3       1.7765      1.00000
      4       2.6541      1.00000
      5       2.8182      1.00000
      6       2.9043      1.00000
      7       3.1486      1.00000
      8       3.3204      1.00000
      9       3.4512      1.00000
     10       3.5181      1.00000
     11       4.1029      1.00000
     12       4.3044      1.00000
     13       4.4723      1.00000
     14       4.5251      1.00000
     15       4.6025      1.00000
     16       4.9414      1.00073
     17       5.0948      1.01318
     18       6.8500     -0.00000
     19       7.3159     -0.00000
     20       9.1795     -0.00000
     21       9.8400     -0.00000
     22      12.7295      0.00000
     23      14.4166      0.00000
     24      16.5025      0.00000

 k-point   175 :       0.5000    0.2778    0.2222
  band No.  band energies     occupation 
      1      -0.5652      1.00000
      2       0.3984      1.00000
      3       1.7750      1.00000
      4       2.6921      1.00000
      5       2.8427      1.00000
      6       2.8799      1.00000
      7       3.1862      1.00000
      8       3.3105      1.00000
      9       3.4452      1.00000
     10       3.5289      1.00000
     11       4.0910      1.00000
     12       4.2970      1.00000
     13       4.5067      1.00000
     14       4.5363      1.00000
     15       4.5850      1.00000
     16       4.8438      1.00006
     17       5.0795      1.01057
     18       6.9470     -0.00000
     19       7.3220     -0.00000
     20       9.1216     -0.00000
     21       9.6524     -0.00000
     22      12.9303      0.00000
     23      14.1659      0.00000
     24      16.5782      0.00000

 k-point   176 :       0.3333    0.3333    0.2222
  band No.  band energies     occupation 
      1      -1.1462      1.00000
      2       1.3111      1.00000
      3       1.6588      1.00000
      4       2.4067      1.00000
      5       2.8259      1.00000
      6       2.9407      1.00000
      7       3.0814      1.00000
      8       3.2900      1.00000
      9       3.4580      1.00000
     10       3.5328      1.00000
     11       4.1107      1.00000
     12       4.3696      1.00000
     13       4.3812      1.00000
     14       4.5225      1.00000
     15       4.6250      1.00000
     16       5.1334      1.02120
     17       5.4653      0.48422
     18       6.1709     -0.00000
     19       7.1370     -0.00000
     20       9.4176     -0.00000
     21      11.2316      0.00000
     22      11.2485      0.00000
     23      14.8725      0.00000
     24      16.3425      0.00000

 k-point   177 :       0.3889    0.3333    0.2222
  band No.  band energies     occupation 
      1      -0.8111      1.00000
      2       1.1070      1.00000
      3       1.6078      1.00000
      4       2.4537      1.00000
      5       2.8514      1.00000
      6       2.9756      1.00000
      7       3.1255      1.00000
      8       3.3253      1.00000
      9       3.4750      1.00000
     10       3.5340      1.00000
     11       4.0443      1.00000
     12       4.3457      1.00000
     13       4.4087      1.00000
     14       4.5257      1.00000
     15       4.6251      1.00000
     16       5.0833      1.01118
     17       5.2336      1.03422
     18       6.2127     -0.00000
     19       7.0769     -0.00000
     20       9.1834     -0.00000
     21      10.6228     -0.00000
     22      11.6328      0.00000
     23      14.2177      0.00000
     24      16.5950      0.00000

 k-point   178 :       0.4444    0.3333    0.2222
  band No.  band energies     occupation 
      1      -0.4950      1.00000
      2       0.8159      1.00000
      3       1.6144      1.00000
      4       2.5011      1.00000
      5       2.8791      1.00000
      6       2.9618      1.00000
      7       3.1983      1.00000
      8       3.3325      1.00000
      9       3.5028      1.00000
     10       3.5422      1.00000
     11       4.0033      1.00000
     12       4.3243      1.00000
     13       4.4547      1.00000
     14       4.5358      1.00000
     15       4.6266      1.00000
     16       4.9615      1.00116
     17       5.0729      1.00957
     18       6.3837     -0.00000
     19       6.9063     -0.00000
     20       9.1965     -0.00000
     21      10.1296     -0.00000
     22      12.0172      0.00000
     23      13.6738      0.00000
     24      16.7993      0.00000

 k-point   179 :       0.5000    0.3333    0.2222
  band No.  band energies     occupation 
      1      -0.3370      1.00000
      2       0.6606      1.00000
      3       1.6193      1.00000
      4       2.5193      1.00000
      5       2.9059      1.00000
      6       2.9375      1.00000
      7       3.2395      1.00000
      8       3.3238      1.00000
      9       3.5083      1.00000
     10       3.5529      1.00000
     11       3.9895      1.00000
     12       4.3201      1.00000
     13       4.4865      1.00000
     14       4.5301      1.00000
     15       4.6432      1.00000
     16       4.8541      1.00008
     17       5.0493      1.00653
     18       6.5255     -0.00000
     19       6.7577     -0.00000
     20       9.2813     -0.00000
     21       9.8943     -0.00000
     22      12.2211      0.00000
     23      13.4165      0.00000
     24      16.8818      0.00000

 k-point   180 :       0.3889    0.3889    0.2222
  band No.  band energies     occupation 
      1      -0.5084      1.00000
      2       1.1705      1.00000
      3       1.4434      1.00000
      4       2.3873      1.00000
      5       2.8806      1.00000
      6       3.0443      1.00000
      7       3.1238      1.00000
      8       3.3988      1.00000
      9       3.5026      1.00000
     10       3.5569      1.00000
     11       3.9687      1.00000
     12       4.3727      1.00000
     13       4.3773      1.00000
     14       4.5325      1.00000
     15       4.6435      1.00000
     16       5.0347      1.00505
     17       5.1538      1.02588
     18       6.0146     -0.00033
     19       6.7999     -0.00000
     20       9.2007     -0.00000
     21      10.9767      0.00000
     22      11.0298      0.00000
     23      13.5540      0.00000
     24      16.8626      0.00000

 k-point   181 :       0.4444    0.3889    0.2222
  band No.  band energies     occupation 
      1      -0.2352      1.00000
      2       1.0303      1.00000
      3       1.4357      1.00000
      4       2.3505      1.00000
      5       2.9062      1.00000
      6       3.0470      1.00000
      7       3.1631      1.00000
      8       3.4510      1.00000
      9       3.5436      1.00000
     10       3.5735      1.00000
     11       3.9200      1.00000
     12       4.3551      1.00000
     13       4.4112      1.00000
     14       4.5386      1.00000
     15       4.6645      1.00000
     16       4.9501      1.00089
     17       5.0147      1.00349
     18       6.0550     -0.00011
     19       6.4998     -0.00000
     20       9.3874     -0.00000
     21      10.4863     -0.00000
     22      11.3827      0.00000
     23      13.0054      0.00000
     24      17.0765      0.00000

 k-point   182 :       0.5000    0.3889    0.2222
  band No.  band energies     occupation 
      1      -0.1076      1.00000
      2       0.9255      1.00000
      3       1.4550      1.00000
      4       2.3391      1.00000
      5       2.9185      1.00000
      6       3.0364      1.00000
      7       3.1881      1.00000
      8       3.4653      1.00000
      9       3.5615      1.00000
     10       3.5833      1.00000
     11       3.9033      1.00000
     12       4.3550      1.00000
     13       4.4299      1.00000
     14       4.5391      1.00000
     15       4.6876      1.00000
     16       4.8532      1.00007
     17       4.9870      1.00201
     18       6.1861     -0.00000
     19       6.2879     -0.00000
     20       9.5406     -0.00000
     21      10.2294     -0.00000
     22      11.5860      0.00000
     23      12.7451      0.00000
     24      17.1626      0.00000

 k-point   183 :       0.4444    0.4444    0.2222
  band No.  band energies     occupation 
      1      -0.0140      1.00000
      2       1.1701      1.00000
      3       1.2981      1.00000
      4       2.2290      1.00000
      5       2.9182      1.00000
      6       3.1129      1.00000
      7       3.1417      1.00000
      8       3.5507      1.00000
      9       3.5751      1.00000
     10       3.6018      1.00000
     11       3.8627      1.00000
     12       4.3896      1.00000
     13       4.3933      1.00000
     14       4.5370      1.00000
     15       4.6808      1.00000
     16       4.8990      1.00026
     17       4.9316      1.00058
     18       5.9266     -0.00244
     19       6.1807     -0.00000
     20       9.6648     -0.00000
     21      10.8258     -0.00000
     22      10.8802     -0.00000
     23      12.4561      0.00000
     24      17.2954      0.00000

 k-point   184 :       0.5000    0.4444    0.2222
  band No.  band energies     occupation 
      1       0.0818      1.00000
      2       1.1494      1.00000
      3       1.3105      1.00000
      4       2.1784      1.00000
      5       2.9217      1.00000
      6       3.1162      1.00000
      7       3.1580      1.00000
      8       3.5757      1.00000
      9       3.5973      1.00000
     10       3.6168      1.00000
     11       3.8419      1.00000
     12       4.3978      1.00000
     13       4.4096      1.00000
     14       4.5332      1.00000
     15       4.6773      1.00000
     16       4.8416      1.00005
     17       4.9129      1.00037
     18       5.9715     -0.00093
     19       5.9940     -0.00054
     20       9.8522     -0.00000
     21      10.5830     -0.00000
     22      11.0528      0.00000
     23      12.1964      0.00000
     24      17.3830      0.00000

 k-point   185 :       0.5000    0.5000    0.2222
  band No.  band energies     occupation 
      1       0.1611      1.00000
      2       1.2472      1.00000
      3       1.2472      1.00000
      4       2.1041      1.00000
      5       2.9218      1.00000
      6       3.1482      1.00000
      7       3.1482      1.00000
      8       3.6099      1.00000
      9       3.6099      1.00000
     10       3.6412      1.00000
     11       3.8186      1.00000
     12       4.4221      1.00000
     13       4.4221      1.00000
     14       4.5244      1.00000
     15       4.6376      1.00000
     16       4.8338      1.00004
     17       4.8857      1.00018
     18       5.8989     -0.00418
     19       5.8989     -0.00418
     20      10.0557     -0.00000
     21      10.7759     -0.00000
     22      10.7759     -0.00000
     23      11.9394      0.00000
     24      17.4707      0.00000

 k-point   186 :       0.2778    0.2778    0.2778
  band No.  band energies     occupation 
      1      -1.5138      1.00000
      2       1.4558      1.00000
      3       2.0772      1.00000
      4       2.0772      1.00000
      5       2.7787      1.00000
      6       2.9761      1.00000
      7       2.9761      1.00000
      8       3.2632      1.00000
      9       3.5042      1.00000
     10       3.5042      1.00000
     11       4.1770      1.00000
     12       4.3744      1.00000
     13       4.3744      1.00000
     14       4.5866      1.00000
     15       4.5866      1.00000
     16       5.2063      1.03508
     17       5.8834     -0.00553
     18       6.4573     -0.00000
     19       6.4573     -0.00000
     20      10.7655     -0.00000
     21      10.8687     -0.00000
     22      10.8687     -0.00000
     23      15.5409      0.00000
     24      16.8377      0.00000

 k-point   187 :       0.3333    0.2778    0.2778
  band No.  band energies     occupation 
      1      -1.2027      1.00000
      2       1.3219      1.00000
      3       1.8765      1.00000
      4       2.2583      1.00000
      5       2.8555      1.00000
      6       2.9660      1.00000
      7       3.0372      1.00000
      8       3.3069      1.00000
      9       3.4851      1.00000
     10       3.4888      1.00000
     11       4.0959      1.00000
     12       4.3671      1.00000
     13       4.3899      1.00000
     14       4.5523      1.00000
     15       4.6005      1.00000
     16       5.1881      1.03290
     17       5.6277      0.00256
     18       6.4724     -0.00000
     19       6.5280     -0.00000
     20      10.1064     -0.00000
     21      10.2622     -0.00000
     22      11.1943      0.00000
     23      14.8163      0.00000
     24      17.0808      0.00000

 k-point   188 :       0.3889    0.2778    0.2778
  band No.  band energies     occupation 
      1      -0.8652      1.00000
      2       1.0728      1.00000
      3       1.7549      1.00000
      4       2.4213      1.00000
      5       2.8789      1.00000
      6       2.9582      1.00000
      7       3.1217      1.00000
      8       3.3531      1.00000
      9       3.4730      1.00000
     10       3.4997      1.00000
     11       4.0358      1.00000
     12       4.3436      1.00000
     13       4.4219      1.00000
     14       4.5540      1.00000
     15       4.5980      1.00000
     16       5.1526      1.02561
     17       5.2689      1.02087
     18       6.5928     -0.00000
     19       6.7024     -0.00000
     20       9.5207     -0.00000
     21       9.8002     -0.00000
     22      11.5872      0.00000
     23      14.1538      0.00000
     24      17.3129      0.00000

 k-point   189 :       0.4444    0.2778    0.2778
  band No.  band energies     occupation 
      1      -0.5465      1.00000
      2       0.7767      1.00000
      3       1.7041      1.00000
      4       2.5376      1.00000
      5       2.8738      1.00000
      6       2.9524      1.00000
      7       3.2200      1.00000
      8       3.3559      1.00000
      9       3.4610      1.00000
     10       3.5307      1.00000
     11       3.9988      1.00000
     12       4.3279      1.00000
     13       4.4697      1.00000
     14       4.5730      1.00000
     15       4.5989      1.00000
     16       4.9809      1.00176
     17       5.1179      1.01777
     18       6.6397     -0.00000
     19       6.9279     -0.00000
     20       9.0924     -0.00000
     21       9.5084     -0.00000
     22      11.9752      0.00000
     23      13.6035      0.00000
     24      17.4887      0.00000

 k-point   190 :       0.5000    0.2778    0.2778
  band No.  band energies     occupation 
      1      -0.3869      1.00000
      2       0.6198      1.00000
      3       1.6905      1.00000
      4       2.5804      1.00000
      5       2.8696      1.00000
      6       2.9500      1.00000
      7       3.2841      1.00000
      8       3.3289      1.00000
      9       3.4565      1.00000
     10       3.5443      1.00000
     11       3.9862      1.00000
     12       4.3255      1.00000
     13       4.5183      1.00000
     14       4.5330      1.00000
     15       4.6589      1.00000
     16       4.8336      1.00004
     17       5.1036      1.01483
     18       6.6570     -0.00000
     19       7.0286     -0.00000
     20       8.9247     -0.00000
     21       9.4082     -0.00000
     22      12.1838      0.00000
     23      13.3406      0.00000
     24      17.5558      0.00000

 k-point   191 :       0.3333    0.3333    0.2778
  band No.  band energies     occupation 
      1      -0.9123      1.00000
      2       1.2806      1.00000
      3       1.8345      1.00000
      4       2.2235      1.00000
      5       2.9198      1.00000
      6       3.0073      1.00000
      7       3.0566      1.00000
      8       3.3737      1.00000
      9       3.4829      1.00000
     10       3.4987      1.00000
     11       4.0101      1.00000
     12       4.3741      1.00000
     13       4.3831      1.00000
     14       4.5546      1.00000
     15       4.5974      1.00000
     16       5.1793      1.03135
     17       5.6199      0.01216
     18       6.1414     -0.00001
     19       6.5503     -0.00000
     20       9.6118     -0.00000
     21      10.5080     -0.00000
     22      10.5537     -0.00000
     23      14.0777      0.00000
     24      17.4950      0.00000

 k-point   192 :       0.3889    0.3333    0.2778
  band No.  band energies     occupation 
      1      -0.6044      1.00000
      2       1.1585      1.00000
      3       1.7041      1.00000
      4       2.3089      1.00000
      5       2.9394      1.00000
      6       3.0172      1.00000
      7       3.1262      1.00000
      8       3.4450      1.00000
      9       3.4985      1.00000
     10       3.5193      1.00000
     11       3.9452      1.00000
     12       4.3557      1.00000
     13       4.4041      1.00000
     14       4.5602      1.00000
     15       4.6082      1.00000
     16       5.1461      1.02412
     17       5.3334      0.93743
     18       6.1585     -0.00000
     19       6.5846     -0.00000
     20       9.2129     -0.00000
     21       9.9852     -0.00000
     22      10.9089     -0.00000
     23      13.4088      0.00000
     24      17.7606      0.00000

 k-point   193 :       0.4444    0.3333    0.2778
  band No.  band energies     occupation 
      1      -0.3263      1.00000
      2       0.9706      1.00000
      3       1.6244      1.00000
      4       2.3887      1.00000
      5       2.9494      1.00000
      6       3.0094      1.00000
      7       3.2040      1.00000
      8       3.4700      1.00000
      9       3.5053      1.00000
     10       3.5662      1.00000
     11       3.9045      1.00000
     12       4.3468      1.00000
     13       4.4398      1.00000
     14       4.5647      1.00000
     15       4.6485      1.00000
     16       5.0158      1.00357
     17       5.1209      1.01840
     18       6.2635     -0.00000
     19       6.5948     -0.00000
     20       8.9951     -0.00000
     21       9.6007     -0.00000
     22      11.2914      0.00000
     23      12.8520      0.00000
     24      17.9585      0.00000

 k-point   194 :       0.5000    0.3333    0.2778
  band No.  band energies     occupation 
      1      -0.1965      1.00000
      2       0.8640      1.00000
      3       1.6020      1.00000
      4       2.4182      1.00000
      5       2.9534      1.00000
      6       3.0070      1.00000
      7       3.2366      1.00000
      8       3.4755      1.00000
      9       3.5063      1.00000
     10       3.5851      1.00000
     11       3.8907      1.00000
     12       4.3487      1.00000
     13       4.4632      1.00000
     14       4.5535      1.00000
     15       4.7487      1.00000
     16       4.8209      1.00003
     17       5.1024      1.01459
     18       6.3143     -0.00000
     19       6.5909     -0.00000
     20       8.9353     -0.00000
     21       9.4530     -0.00000
     22      11.5035      0.00000
     23      12.5820      0.00000
     24      18.0351      0.00000

 k-point   195 :       0.3889    0.3889    0.2778
  band No.  band energies     occupation 
      1      -0.3380      1.00000
      2       1.1878      1.00000
      3       1.6177      1.00000
      4       2.2529      1.00000
      5       2.9809      1.00000
      6       3.0872      1.00000
      7       3.1141      1.00000
      8       3.5251      1.00000
      9       3.5311      1.00000
     10       3.5790      1.00000
     11       3.8736      1.00000
     12       4.3717      1.00000
     13       4.3831      1.00000
     14       4.5580      1.00000
     15       4.6366      1.00000
     16       5.1127      1.01667
     17       5.2683      1.02127
     18       5.9065     -0.00362
     19       6.4481     -0.00000
     20       9.0277     -0.00000
     21      10.3169     -0.00000
     22      10.3397     -0.00000
     23      12.7381      0.00000
     24      18.0460      0.00000

 k-point   196 :       0.4444    0.3889    0.2778
  band No.  band energies     occupation 
      1      -0.1132      1.00000
      2       1.1489      1.00000
      3       1.5408      1.00000
      4       2.2451      1.00000
      5       3.0178      1.00000
      6       3.0737      1.00000
      7       3.1711      1.00000
      8       3.5467      1.00000
      9       3.5513      1.00000
     10       3.6678      1.00000
     11       3.8271      1.00000
     12       4.3726      1.00000
     13       4.4047      1.00000
     14       4.5590      1.00000
     15       4.6840      1.00000
     16       5.0197      1.00384
     17       5.0925      1.01276
     18       5.9255     -0.00250
     19       6.2743     -0.00000
     20       9.0293     -0.00000
     21       9.8799     -0.00000
     22      10.6942     -0.00000
     23      12.1801      0.00000
     24      18.2569      0.00000

 k-point   197 :       0.5000    0.3889    0.2778
  band No.  band energies     occupation 
      1      -0.0172      1.00000
      2       1.1100      1.00000
      3       1.5159      1.00000
      4       2.2479      1.00000
      5       3.0464      1.00000
      6       3.0507      1.00000
      7       3.1986      1.00000
      8       3.5554      1.00000
      9       3.5574      1.00000
     10       3.6988      1.00000
     11       3.8109      1.00000
     12       4.3805      1.00000
     13       4.4198      1.00000
     14       4.5558      1.00000
     15       4.8039      1.00002
     16       4.8119      1.00002
     17       5.0689      1.00899
     18       6.0086     -0.00038
     19       6.1513     -0.00001
     20       9.0865     -0.00000
     21       9.6779     -0.00000
     22      10.9043     -0.00000
     23      11.9064      0.00000
     24      18.3390      0.00000

 k-point   198 :       0.4444    0.4444    0.2778
  band No.  band energies     occupation 
      1       0.0525      1.00000
      2       1.2782      1.00000
      3       1.4711      1.00000
      4       2.1348      1.00000
      5       3.0554      1.00000
      6       3.1359      1.00000
      7       3.1538      1.00000
      8       3.5803      1.00000
      9       3.5821      1.00000
     10       3.7736      1.00000
     11       3.7761      1.00000
     12       4.4027      1.00000
     13       4.4080      1.00000
     14       4.5465      1.00000
     15       4.7181      1.00000
     16       4.9554      1.00101
     17       5.0250      1.00424
     18       5.7747     -0.02465
     19       6.0023     -0.00044
     20       9.1881     -0.00000
     21      10.2121     -0.00000
     22      10.2162     -0.00000
     23      11.6232      0.00000
     24      18.4741      0.00000

 k-point   199 :       0.5000    0.4444    0.2778
  band No.  band energies     occupation 
      1       0.1176      1.00000
      2       1.3221      1.00000
      3       1.4472      1.00000
      4       2.0913      1.00000
      5       3.0677      1.00000
      6       3.1348      1.00000
      7       3.1765      1.00000
      8       3.5920      1.00000
      9       3.5942      1.00000
     10       3.7536      1.00000
     11       3.8148      1.00000
     12       4.4252      1.00000
     13       4.4256      1.00000
     14       4.5357      1.00000
     15       4.7843      1.00001
     16       4.8236      1.00003
     17       5.0086      1.00310
     18       5.8051     -0.01778
     19       5.8410     -0.01098
     20       9.3152     -0.00000
     21       9.9829     -0.00000
     22      10.4159     -0.00000
     23      11.3487      0.00000
     24      18.5581      0.00000

 k-point   200 :       0.5000    0.5000    0.2778
  band No.  band energies     occupation 
      1       0.1691      1.00000
      2       1.4197      1.00000
      3       1.4197      1.00000
      4       2.0142      1.00000
      5       3.0741      1.00000
      6       3.1695      1.00000
      7       3.1695      1.00000
      8       3.6076      1.00000
      9       3.6076      1.00000
     10       3.7310      1.00000
     11       3.8552      1.00000
     12       4.4613      1.00000
     13       4.4613      1.00000
     14       4.5091      1.00000
     15       4.7747      1.00001
     16       4.7900      1.00001
     17       4.9821      1.00181
     18       5.7350     -0.03291
     19       5.7350     -0.03291
     20       9.4698     -0.00000
     21      10.1758     -0.00000
     22      10.1758     -0.00000
     23      11.0739      0.00000
     24      18.6425      0.00000

 k-point   201 :       0.3333    0.3333    0.3333
  band No.  band energies     occupation 
      1      -0.6490      1.00000
      2       1.2436      1.00000
      3       2.0107      1.00000
      4       2.0107      1.00000
      5       3.0042      1.00000
      6       3.0497      1.00000
      7       3.0497      1.00000
      8       3.4918      1.00000
      9       3.5029      1.00000
     10       3.5029      1.00000
     11       3.9252      1.00000
     12       4.3743      1.00000
     13       4.3743      1.00000
     14       4.5794      1.00000
     15       4.5794      1.00000
     16       5.1917      1.03345
     17       5.7045     -0.03544
     18       6.1074     -0.00002
     19       6.1074     -0.00002
     20       9.7505     -0.00000
     21      10.0027     -0.00000
     22      10.0027     -0.00000
     23      13.3330      0.00000
     24      18.5433      0.00000

 k-point   202 :       0.3889    0.3333    0.3333
  band No.  band energies     occupation 
      1      -0.3799      1.00000
      2       1.1933      1.00000
      3       1.8005      1.00000
      4       2.1602      1.00000
      5       3.0211      1.00000
      6       3.0628      1.00000
      7       3.1296      1.00000
      8       3.5182      1.00000
      9       3.5208      1.00000
     10       3.6170      1.00000
     11       3.8599      1.00000
     12       4.3587      1.00000
     13       4.3861      1.00000
     14       4.5896      1.00000
     15       4.5899      1.00000
     16       5.1737      1.03026
     17       5.4264      0.64613
     18       6.0758     -0.00006
     19       6.1123     -0.00002
     20       9.2820     -0.00000
     21       9.5988     -0.00000
     22      10.2851     -0.00000
     23      12.6622      0.00000
     24      18.7805      0.00000

 k-point   203 :       0.4444    0.3333    0.3333
  band No.  band energies     occupation 
      1      -0.1530      1.00000
      2       1.1255      1.00000
      3       1.6457      1.00000
      4       2.2578      1.00000
      5       3.0175      1.00000
      6       3.0864      1.00000
      7       3.2028      1.00000
      8       3.5279      1.00000
      9       3.5359      1.00000
     10       3.7018      1.00000
     11       3.8182      1.00000
     12       4.3593      1.00000
     13       4.4080      1.00000
     14       4.5830      1.00000
     15       4.6539      1.00000
     16       5.0822      1.01099
     17       5.1436      1.02355
     18       6.0540     -0.00012
     19       6.2431     -0.00000
     20       8.9195     -0.00000
     21       9.3539     -0.00000
     22      10.6489     -0.00000
     23      12.1020      0.00000
     24      18.9571      0.00000

 k-point   204 :       0.5000    0.3333    0.3333
  band No.  band energies     occupation 
      1      -0.0562      1.00000
      2       1.0844      1.00000
      3       1.5912      1.00000
      4       2.2911      1.00000
      5       3.0153      1.00000
      6       3.0987      1.00000
      7       3.2323      1.00000
      8       3.5313      1.00000
      9       3.5412      1.00000
     10       3.7278      1.00000
     11       3.8037      1.00000
     12       4.3659      1.00000
     13       4.4217      1.00000
     14       4.5746      1.00000
     15       4.7813      1.00001
     16       4.8500      1.00007
     17       5.1290      1.02021
     18       6.0464     -0.00014
     19       6.3014     -0.00000
     20       8.7859     -0.00000
     21       9.2721     -0.00000
     22      10.8625     -0.00000
     23      11.8240      0.00000
     24      19.0237      0.00000

 k-point   205 :       0.3889    0.3889    0.3333
  band No.  band energies     occupation 
      1      -0.1642      1.00000
      2       1.2265      1.00000
      3       1.7893      1.00000
      4       2.0984      1.00000
      5       3.0762      1.00000
      6       3.1345      1.00000
      7       3.1356      1.00000
      8       3.5431      1.00000
      9       3.5458      1.00000
     10       3.7698      1.00000
     11       3.7929      1.00000
     12       4.3636      1.00000
     13       4.3699      1.00000
     14       4.5813      1.00000
     15       4.6120      1.00000
     16       5.1643      1.02826
     17       5.3964      0.76025
     18       5.7792     -0.02362
     19       6.0245     -0.00025
     20       9.0386     -0.00000
     21       9.7314     -0.00000
     22       9.8334     -0.00000
     23      11.9943      0.00000
     24      19.2208      0.00000

 k-point   206 :       0.4444    0.3889    0.3333
  band No.  band energies     occupation 
      1       0.0009      1.00000
      2       1.2706      1.00000
      3       1.6626      1.00000
      4       2.1321      1.00000
      5       3.1021      1.00000
      6       3.1563      1.00000
      7       3.2037      1.00000
      8       3.5604      1.00000
      9       3.5637      1.00000
     10       3.7484      1.00000
     11       3.8749      1.00000
     12       4.3741      1.00000
     13       4.3798      1.00000
     14       4.5795      1.00000
     15       4.6568      1.00000
     16       5.1128      1.01669
     17       5.1513      1.02532
     18       5.7639     -0.02714
     19       5.9703     -0.00095
     20       8.8538     -0.00000
     21       9.4443     -0.00000
     22      10.1101     -0.00000
     23      11.4373      0.00000
     24      19.4370      0.00000

 k-point   207 :       0.5000    0.3889    0.3333
  band No.  band energies     occupation 
      1       0.0647      1.00000
      2       1.3029      1.00000
      3       1.5870      1.00000
      4       2.1519      1.00000
      5       3.1065      1.00000
      6       3.1721      1.00000
      7       3.2327      1.00000
      8       3.5678      1.00000
      9       3.5683      1.00000
     10       3.7325      1.00000
     11       3.9063      1.00000
     12       4.3876      1.00000
     13       4.3878      1.00000
     14       4.5752      1.00000
     15       4.7399      1.00000
     16       4.9324      1.00059
     17       5.1254      1.01939
     18       5.7862     -0.02199
     19       5.9482     -0.00155
     20       8.7965     -0.00000
     21       9.3243     -0.00000
     22      10.3154     -0.00000
     23      11.1557      0.00000
     24      19.5151      0.00000

 k-point   208 :       0.4444    0.4444    0.3333
  band No.  band energies     occupation 
      1       0.1082      1.00000
      2       1.4042      1.00000
      3       1.6401      1.00000
      4       2.0442      1.00000
      5       3.1769      1.00000
      6       3.2048      1.00000
      7       3.2155      1.00000
      8       3.5845      1.00000
      9       3.5869      1.00000
     10       3.6998      1.00000
     11       3.9902      1.00000
     12       4.3945      1.00000
     13       4.4003      1.00000
     14       4.5570      1.00000
     15       4.6742      1.00000
     16       5.0810      1.01080
     17       5.1007      1.01427
     18       5.5920      0.05790
     19       5.7674     -0.02634
     20       8.8668     -0.00000
     21       9.6691     -0.00000
     22       9.7384     -0.00000
     23      10.8860     -0.00000
     24      19.6766      0.00000

 k-point   209 :       0.5000    0.4444    0.3333
  band No.  band energies     occupation 
      1       0.1469      1.00000
      2       1.4933      1.00000
      3       1.5871      1.00000
      4       2.0160      1.00000
      5       3.1953      1.00000
      6       3.2210      1.00000
      7       3.2378      1.00000
      8       3.5933      1.00000
      9       3.5969      1.00000
     10       3.6811      1.00000
     11       4.0184      1.00000
     12       4.4169      1.00000
     13       4.4254      1.00000
     14       4.5428      1.00000
     15       4.7077      1.00000
     16       4.9814      1.00178
     17       5.0876      1.01190
     18       5.6036      0.03663
     19       5.6521     -0.01953
     20       8.9069     -0.00000
     21       9.5312     -0.00000
     22       9.8943     -0.00000
     23      10.6034     -0.00000
     24      19.7618      0.00000

 k-point   210 :       0.5000    0.5000    0.3333
  band No.  band energies     occupation 
      1       0.1760      1.00000
      2       1.5878      1.00000
      3       1.5878      1.00000
      4       1.9409      1.00000
      5       3.2342      1.00000
      6       3.2342      1.00000
      7       3.2454      1.00000
      8       3.6072      1.00000
      9       3.6072      1.00000
     10       3.6595      1.00000
     11       4.0398      1.00000
     12       4.4717      1.00000
     13       4.4717      1.00000
     14       4.4947      1.00000
     15       4.6959      1.00000
     16       4.9804      1.00174
     17       5.0618      1.00802
     18       5.5394      0.19666
     19       5.5394      0.19666
     20       8.9915     -0.00000
     21       9.7078     -0.00000
     22       9.7078     -0.00000
     23      10.3157     -0.00000
     24      19.8489      0.00000

 k-point   211 :       0.3889    0.3889    0.3889
  band No.  band energies     occupation 
      1      -0.0122      1.00000
      2       1.2963      1.00000
      3       1.9313      1.00000
      4       1.9313      1.00000
      5       3.1566      1.00000
      6       3.1866      1.00000
      7       3.1866      1.00000
      8       3.5652      1.00000
      9       3.5652      1.00000
     10       3.7293      1.00000
     11       3.9559      1.00000
     12       4.3544      1.00000
     13       4.3544      1.00000
     14       4.5913      1.00000
     15       4.5913      1.00000
     16       5.1802      1.03152
     17       5.4672      0.47596
     18       5.6605     -0.02458
     19       5.6605     -0.02458
     20       8.9966     -0.00000
     21       9.4720     -0.00000
     22       9.4720     -0.00000
     23      11.3359      0.00000
     24      20.2716      0.00000

 k-point   212 :       0.4444    0.3889    0.3889
  band No.  band energies     occupation 
      1       0.0916      1.00000
      2       1.3999      1.00000
      3       1.7638      1.00000
      4       2.0219      1.00000
      5       3.1913      1.00000
      6       3.2497      1.00000
      7       3.2552      1.00000
      8       3.5793      1.00000
      9       3.5820      1.00000
     10       3.6864      1.00000
     11       4.0746      1.00000
     12       4.3476      1.00000
     13       4.3703      1.00000
     14       4.5856      1.00000
     15       4.6110      1.00000
     16       5.1644      1.02827
     17       5.2097      1.03528
     18       5.5863      0.06959
     19       5.6645     -0.02659
     20       8.7607     -0.00000
     21       9.2581     -0.00000
     22       9.6580     -0.00000
     23      10.7899     -0.00000
     24      20.4531      0.00000

 k-point   213 :       0.5000    0.3889    0.3889
  band No.  band energies     occupation 
      1       0.1283      1.00000
      2       1.4856      1.00000
      3       1.6562      1.00000
      4       2.0524      1.00000
      5       3.2003      1.00000
      6       3.2796      1.00000
      7       3.2891      1.00000
      8       3.5808      1.00000
      9       3.5896      1.00000
     10       3.6704      1.00000
     11       4.1027      1.00000
     12       4.3452      1.00000
     13       4.3904      1.00000
     14       4.5790      1.00000
     15       4.6652      1.00000
     16       5.0402      1.00558
     17       5.1511      1.02527
     18       5.5640      0.12326
     19       5.6974     -0.03512
     20       8.6574     -0.00000
     21       9.1876     -0.00000
     22       9.8394     -0.00000
     23      10.5075     -0.00000
     24      20.5210      0.00000

 k-point   214 :       0.4444    0.4444    0.3889
  band No.  band energies     occupation 
      1       0.1486      1.00000
      2       1.5353      1.00000
      3       1.7788      1.00000
      4       1.9560      1.00000
      5       3.2797      1.00000
      6       3.2993      1.00000
      7       3.3334      1.00000
      8       3.5960      1.00000
      9       3.5975      1.00000
     10       3.6436      1.00000
     11       4.1831      1.00000
     12       4.3642      1.00000
     13       4.3732      1.00000
     14       4.5528      1.00000
     15       4.6004      1.00000
     16       5.1534      1.02581
     17       5.2147      1.03544
     18       5.4115      0.70469
     19       5.5124      0.29249
     20       8.6673     -0.00000
     21       9.3104     -0.00000
     22       9.4025     -0.00000
     23      10.2617     -0.00000
     24      20.8651      0.00000

 k-point   215 :       0.5000    0.4444    0.3889
  band No.  band energies     occupation 
      1       0.1679      1.00000
      2       1.6410      1.00000
      3       1.7069      1.00000
      4       1.9522      1.00000
      5       3.3024      1.00000
      6       3.3344      1.00000
      7       3.3727      1.00000
      8       3.5965      1.00000
      9       3.6070      1.00000
     10       3.6266      1.00000
     11       4.1876      1.00000
     12       4.3733      1.00000
     13       4.4052      1.00000
     14       4.5375      1.00000
     15       4.6131      1.00000
     16       5.1237      1.01901
     17       5.1515      1.02537
     18       5.4044      0.73136
     19       5.4624      0.49630
     20       8.6278     -0.00000
     21       9.2474     -0.00000
     22       9.5075     -0.00000
     23       9.9844     -0.00000
     24      20.9624      0.00000

 k-point   216 :       0.5000    0.5000    0.3889
  band No.  band energies     occupation 
      1       0.1813      1.00000
      2       1.7256      1.00000
      3       1.7256      1.00000
      4       1.8868      1.00000
      5       3.3503      1.00000
      6       3.3503      1.00000
      7       3.4185      1.00000
      8       3.6067      1.00000
      9       3.6082      1.00000
     10       3.6082      1.00000
     11       4.1744      1.00000
     12       4.4329      1.00000
     13       4.4329      1.00000
     14       4.4831      1.00000
     15       4.6020      1.00000
     16       5.1212      1.01847
     17       5.1914      1.03341
     18       5.3482      0.90459
     19       5.3482      0.90459
     20       8.6357     -0.00000
     21       9.3804     -0.00000
     22       9.3804     -0.00000
     23       9.6989     -0.00000
     24      21.0715      0.00000

 k-point   217 :       0.4444    0.4444    0.4444
  band No.  band energies     occupation 
      1       0.1725      1.00000
      2       1.6580      1.00000
      3       1.8669      1.00000
      4       1.8669      1.00000
      5       3.3976      1.00000
      6       3.4097      1.00000
      7       3.4097      1.00000
      8       3.6057      1.00000
      9       3.6102      1.00000
     10       3.6102      1.00000
     11       4.3191      1.00000
     12       4.3269      1.00000
     13       4.3269      1.00000
     14       4.5345      1.00000
     15       4.5345      1.00000
     16       5.1728      1.03007
     17       5.2920      1.00129
     18       5.2920      1.00129
     19       5.3294      0.94543
     20       8.5278     -0.00000
     21       9.2061     -0.00000
     22       9.2061     -0.00000
     23       9.7745     -0.00000
     24      21.9186      0.00000

 k-point   218 :       0.5000    0.4444    0.4444
  band No.  band energies     occupation 
      1       0.1804      1.00000
      2       1.7515      1.00000
      3       1.7858      1.00000
      4       1.8965      1.00000
      5       3.4286      1.00000
      6       3.4628      1.00000
      7       3.4720      1.00000
      8       3.5902      1.00000
      9       3.6038      1.00000
     10       3.6218      1.00000
     11       4.2961      1.00000
     12       4.3040      1.00000
     13       4.3676      1.00000
     14       4.5154      1.00000
     15       4.5243      1.00000
     16       5.1654      1.02849
     17       5.2145      1.03544
     18       5.2635      1.02410
     19       5.3619      0.86928
     20       8.4678     -0.00000
     21       9.1419     -0.00000
     22       9.2698     -0.00000
     23       9.5222     -0.00000
     24      21.9939      0.00000

 k-point   219 :       0.5000    0.5000    0.4444
  band No.  band energies     occupation 
      1       0.1845      1.00000
      2       1.8130      1.00000
      3       1.8130      1.00000
      4       1.8536      1.00000
      5       3.4927      1.00000
      6       3.4927      1.00000
      7       3.5608      1.00000
      8       3.5744      1.00000
      9       3.6114      1.00000
     10       3.6114      1.00000
     11       4.2534      1.00000
     12       4.3416      1.00000
     13       4.3416      1.00000
     14       4.4756      1.00000
     15       4.5130      1.00000
     16       5.1579      1.02683
     17       5.2151      1.03545
     18       5.2151      1.03545
     19       5.3703      0.84523
     20       8.4159     -0.00000
     21       9.1897     -0.00000
     22       9.1897     -0.00000
     23       9.2794     -0.00000
     24      22.2554      0.00000

 k-point   220 :       0.5000    0.5000    0.5000
  band No.  band energies     occupation 
      1       0.1856      1.00000
      2       1.8425      1.00000
      3       1.8425      1.00000
      4       1.8425      1.00000
      5       3.5635      1.00000
      6       3.5635      1.00000
      7       3.5635      1.00000
      8       3.6198      1.00000
      9       3.6198      1.00000
     10       3.6198      1.00000
     11       4.2791      1.00000
     12       4.2791      1.00000
     13       4.2791      1.00000
     14       4.4729      1.00000
     15       4.4729      1.00000
     16       5.1703      1.02954
     17       5.1703      1.02954
     18       5.1703      1.02954
     19       5.4429      0.57870
     20       8.3415     -0.00000
     21       9.1275     -0.00000
     22       9.1275     -0.00000
     23       9.1275     -0.00000
     24      23.0018      0.00000
 Fermi energy:         5.4615546048

 spin component 2

 k-point     1 :       0.0000    0.0000    0.0000
  band No.  band energies     occupation 
      1      -4.0171      1.00000
      2       1.6494      1.00000
      3       2.3428      1.00000
      4       2.3428      1.00000
      5       2.7905      1.00000
      6       2.7905      1.00000
      7       2.7905      1.00000
      8       4.4332      1.00000
      9       4.4332      1.00000
     10       4.4332      1.00000
     11       5.1053      1.01516
     12       5.1053      1.01516
     13       5.4756      0.44076
     14       5.7896     -0.02123
     15       5.7896     -0.02123
     16       5.7896     -0.02123
     17       6.2965     -0.00000
     18       6.2965     -0.00000
     19       6.2965     -0.00000
     20      11.7055      0.00000
     21      11.7055      0.00000
     22      12.0724      0.00000
     23      17.0765      0.00000
     24      17.0765      0.00000

 k-point     2 :       0.0556    0.0000    0.0000
  band No.  band energies     occupation 
      1      -3.9815      1.00000
      2       1.6597      1.00000
      3       2.3165      1.00000
      4       2.3652      1.00000
      5       2.7941      1.00000
      6       2.7941      1.00000
      7       2.7992      1.00000
      8       4.4124      1.00000
      9       4.4124      1.00000
     10       4.4239      1.00000
     11       5.0861      1.01164
     12       5.1056      1.01523
     13       5.4632      0.49322
     14       5.6576     -0.02293
     15       5.6576     -0.02293
     16       5.7896     -0.02122
     17       6.1391     -0.00001
     18       6.4774     -0.00000
     19       6.4774     -0.00000
     20      11.7055      0.00000
     21      11.8269      0.00000
     22      12.2088      0.00000
     23      16.9238      0.00000
     24      16.9537      0.00000

 k-point     3 :       0.1111    0.0000    0.0000
  band No.  band energies     occupation 
      1      -3.8749      1.00000
      2       1.6815      1.00000
      3       2.2371      1.00000
      4       2.4313      1.00000
      5       2.8043      1.00000
      6       2.8043      1.00000
      7       2.8251      1.00000
      8       4.3539      1.00000
      9       4.3539      1.00000
     10       4.3965      1.00000
     11       5.0241      1.00417
     12       5.1062      1.01534
     13       5.4262      0.64687
     14       5.4467      0.56264
     15       5.4467      0.56262
     16       5.7607     -0.02783
     17       5.7897     -0.02120
     18       6.8323     -0.00000
     19       6.8324     -0.00000
     20      11.7057      0.00000
     21      11.9343      0.00000
     22      12.7901      0.00000
     23      16.3788      0.00000
     24      16.3788      0.00000

 k-point     4 :       0.1667    0.0000    0.0000
  band No.  band energies     occupation 
      1      -3.6983      1.00000
      2       1.6666      1.00000
      3       2.1275      1.00000
      4       2.5377      1.00000
      5       2.8200      1.00000
      6       2.8200      1.00000
      7       2.8665      1.00000
      8       4.2696      1.00000
      9       4.2696      1.00000
     10       4.3527      1.00000
     11       4.8971      1.00024
     12       5.1053      1.01517
     13       5.2532      1.02892
     14       5.2532      1.02892
     15       5.3515      0.89633
     16       5.3666      0.85583
     17       5.7898     -0.02117
     18       7.2574     -0.00000
     19       7.2574     -0.00000
     20      11.7059      0.00000
     21      11.9997      0.00000
     22      13.6808      0.00000
     23      15.5793      0.00000
     24      15.5793      0.00000

 k-point     5 :       0.2222    0.0000    0.0000
  band No.  band energies     occupation 
      1      -3.4536      1.00000
      2       1.4825      1.00000
      3       2.0907      1.00000
      4       2.6785      1.00000
      5       2.8393      1.00000
      6       2.8393      1.00000
      7       2.9210      1.00000
      8       4.1753      1.00000
      9       4.1753      1.00000
     10       4.2952      1.00000
     11       4.6719      1.00000
     12       5.0746      1.00982
     13       5.0864      1.01170
     14       5.0864      1.01170
     15       5.0976      1.01368
     16       5.2905      1.00290
     17       5.7900     -0.02113
     18       7.7336     -0.00000
     19       7.7336     -0.00000
     20      11.7065      0.00000
     21      12.0733      0.00000
     22      14.6027      0.00000
     23      14.7191      0.00000
     24      14.7191      0.00000

 k-point     6 :       0.2778    0.0000    0.0000
  band No.  band energies     occupation 
      1      -3.1440      1.00000
      2       1.0909      1.00000
      3       2.1555      1.00000
      4       2.8444      1.00000
      5       2.8594      1.00000
      6       2.8594      1.00000
      7       2.9845      1.00000
      8       4.0863      1.00000
      9       4.0864      1.00000
     10       4.2284      1.00000
     11       4.4345      1.00000
     12       4.9081      1.00032
     13       4.9443      1.00078
     14       4.9443      1.00078
     15       5.0647      1.00840
     16       5.2186      1.03544
     17       5.7902     -0.02109
     18       8.2549     -0.00000
     19       8.2549     -0.00000
     20      11.7073      0.00000
     21      12.1656      0.00000
     22      13.8644      0.00000
     23      13.8644      0.00000
     24      14.8108      0.00000

 k-point     7 :       0.3333    0.0000    0.0000
  band No.  band energies     occupation 
      1      -2.7746      1.00000
      2       0.5788      1.00000
      3       2.2559      1.00000
      4       2.8776      1.00000
      5       2.8776      1.00000
      6       3.0214      1.00000
      7       3.0513      1.00000
      8       4.0140      1.00000
      9       4.0140      1.00000
     10       4.1587      1.00000
     11       4.2713      1.00000
     12       4.7747      1.00001
     13       4.8263      1.00003
     14       4.8263      1.00003
     15       4.9812      1.00177
     16       5.1831      1.03205
     17       5.7903     -0.02105
     18       8.8182     -0.00000
     19       8.8182     -0.00000
     20      11.7083      0.00000
     21      12.2782      0.00000
     22      13.0359      0.00000
     23      13.0359      0.00000
     24      14.4657      0.00000

 k-point     8 :       0.3889    0.0000    0.0000
  band No.  band energies     occupation 
      1      -2.3565      1.00000
      2       0.0202      1.00000
      3       2.3541      1.00000
      4       2.8916      1.00000
      5       2.8916      1.00000
      6       3.1127      1.00000
      7       3.1886      1.00000
      8       3.9636      1.00000
      9       3.9636      1.00000
     10       4.0948      1.00000
     11       4.1808      1.00000
     12       4.6614      1.00000
     13       4.7354      1.00000
     14       4.7354      1.00000
     15       4.8714      1.00012
     16       5.1732      1.03015
     17       5.7905     -0.02102
     18       9.4213     -0.00000
     19       9.4213     -0.00000
     20      11.7094      0.00000
     21      12.2415      0.00000
     22      12.2415      0.00000
     23      12.4051      0.00000
     24      14.1019      0.00000

 k-point     9 :       0.4444    0.0000    0.0000
  band No.  band energies     occupation 
      1      -1.9234      1.00000
      2      -0.5114      1.00000
      3       2.4252      1.00000
      4       2.9002      1.00000
      5       2.9002      1.00000
      6       3.1576      1.00000
      7       3.3151      1.00000
      8       3.9352      1.00000
      9       3.9352      1.00000
     10       4.0483      1.00000
     11       4.1402      1.00000
     12       4.5807      1.00000
     13       4.6771      1.00000
     14       4.6771      1.00000
     15       4.7785      1.00001
     16       5.1710      1.02969
     17       5.7906     -0.02100
     18      10.0610     -0.00000
     19      10.0610     -0.00000
     20      11.4867      0.00000
     21      11.4867      0.00000
     22      11.7103      0.00000
     23      12.5224      0.00000
     24      13.8289      0.00000

 k-point    10 :       0.5000    0.0000    0.0000
  band No.  band energies     occupation 
      1      -1.6619      1.00000
      2      -0.8079      1.00000
      3       2.4513      1.00000
      4       2.9031      1.00000
      5       2.9031      1.00000
      6       3.1743      1.00000
      7       3.3637      1.00000
      8       3.9263      1.00000
      9       3.9263      1.00000
     10       4.0310      1.00000
     11       4.1294      1.00000
     12       4.5507      1.00000
     13       4.6569      1.00000
     14       4.6569      1.00000
     15       4.7412      1.00000
     16       5.1706      1.02961
     17       5.7906     -0.02099
     18      10.6357     -0.00000
     19      10.6357     -0.00000
     20      10.8735     -0.00000
     21      10.8735     -0.00000
     22      11.7106      0.00000
     23      12.5752      0.00000
     24      13.7223      0.00000

 k-point    11 :       0.0556    0.0556    0.0000
  band No.  band energies     occupation 
      1      -3.9459      1.00000
      2       1.6704      1.00000
      3       2.3146      1.00000
      4       2.3630      1.00000
      5       2.7894      1.00000
      6       2.7972      1.00000
      7       2.8164      1.00000
      8       4.3648      1.00000
      9       4.3920      1.00000
     10       4.4427      1.00000
     11       5.0764      1.01008
     12       5.0964      1.01347
     13       5.4481      0.55680
     14       5.5257      0.24359
     15       5.5812      0.08085
     16       5.7745     -0.02470
     17       6.2118     -0.00000
     18       6.4259     -0.00000
     19       6.6163     -0.00000
     20      11.7597      0.00000
     21      11.9495      0.00000
     22      12.2945      0.00000
     23      16.4875      0.00000
     24      16.8400      0.00000

 k-point    12 :       0.1111    0.0556    0.0000
  band No.  band energies     occupation 
      1      -3.8394      1.00000
      2       1.6937      1.00000
      3       2.2446      1.00000
      4       2.4190      1.00000
      5       2.7934      1.00000
      6       2.8065      1.00000
      7       2.8488      1.00000
      8       4.2869      1.00000
      9       4.3356      1.00000
     10       4.4389      1.00000
     11       5.0153      1.00353
     12       5.0934      1.01292
     13       5.2923      1.00098
     14       5.4120      0.70272
     15       5.4189      0.67593
     16       5.7661     -0.02664
     17       5.9157     -0.00303
     18       6.7034     -0.00000
     19       6.9333     -0.00000
     20      11.7776      0.00000
     21      12.1117      0.00000
     22      12.8151      0.00000
     23      15.7919      0.00000
     24      16.3967      0.00000

 k-point    13 :       0.1667    0.0556    0.0000
  band No.  band energies     occupation 
      1      -3.6632      1.00000
      2       1.6828      1.00000
      3       2.1344      1.00000
      4       2.5225      1.00000
      5       2.8059      1.00000
      6       2.8214      1.00000
      7       2.8941      1.00000
      8       4.1927      1.00000
      9       4.2554      1.00000
     10       4.4108      1.00000
     11       4.8689      1.00011
     12       5.0798      1.01062
     13       5.1018      1.01448
     14       5.2343      1.03411
     15       5.3558      0.88542
     16       5.5466      0.17379
     17       5.7639     -0.02712
     18       7.1022     -0.00000
     19       7.3379     -0.00000
     20      11.7873      0.00000
     21      12.1876      0.00000
     22      13.7018      0.00000
     23      14.9947      0.00000
     24      15.6168      0.00000

 k-point    14 :       0.2222    0.0556    0.0000
  band No.  band energies     occupation 
      1      -3.4189      1.00000
      2       1.5035      1.00000
      3       2.0960      1.00000
      4       2.6579      1.00000
      5       2.8243      1.00000
      6       2.8427      1.00000
      7       2.9498      1.00000
      8       4.0955      1.00000
      9       4.1671      1.00000
     10       4.3622      1.00000
     11       4.6254      1.00000
     12       4.9422      1.00074
     13       5.0731      1.00959
     14       5.0864      1.01170
     15       5.2416      1.03263
     16       5.3065      0.98351
     17       5.7635     -0.02722
     18       7.5511     -0.00000
     19       7.8017     -0.00000
     20      11.7951      0.00000
     21      12.2678      0.00000
     22      14.1497      0.00000
     23      14.7003      0.00000
     24      14.7578      0.00000

 k-point    15 :       0.2778    0.0556    0.0000
  band No.  band energies     occupation 
      1      -3.1098      1.00000
      2       1.1146      1.00000
      3       2.1617      1.00000
      4       2.7931      1.00000
      5       2.8457      1.00000
      6       2.8902      1.00000
      7       3.0121      1.00000
      8       4.0093      1.00000
      9       4.0822      1.00000
     10       4.2974      1.00000
     11       4.3991      1.00000
     12       4.8165      1.00003
     13       4.9339      1.00061
     14       5.0341      1.00501
     15       5.0879      1.01195
     16       5.2166      1.03546
     17       5.7636     -0.02720
     18       8.0399     -0.00000
     19       8.3146     -0.00000
     20      11.7949      0.00000
     21      12.3648      0.00000
     22      13.3842      0.00000
     23      13.9031      0.00000
     24      15.0560      0.00000

 k-point    16 :       0.3333    0.0556    0.0000
  band No.  band energies     occupation 
      1      -2.7412      1.00000
      2       0.6048      1.00000
      3       2.2639      1.00000
      4       2.8443      1.00000
      5       2.8666      1.00000
      6       3.0311      1.00000
      7       3.0746      1.00000
      8       3.9464      1.00000
      9       4.0045      1.00000
     10       4.2211      1.00000
     11       4.2561      1.00000
     12       4.6965      1.00000
     13       4.8194      1.00003
     14       4.9074      1.00032
     15       4.9962      1.00243
     16       5.1752      1.03055
     17       5.7638     -0.02714
     18       8.5638     -0.00000
     19       8.8717     -0.00000
     20      11.7579      0.00000
     21      12.4400      0.00000
     22      12.7233      0.00000
     23      13.0753      0.00000
     24      14.7282      0.00000

 k-point    17 :       0.3889    0.0556    0.0000
  band No.  band energies     occupation 
      1      -2.3241      1.00000
      2       0.0485      1.00000
      3       2.3643      1.00000
      4       2.8590      1.00000
      5       2.8839      1.00000
      6       3.1289      1.00000
      7       3.1955      1.00000
      8       3.9149      1.00000
      9       3.9391      1.00000
     10       4.1400      1.00000
     11       4.1901      1.00000
     12       4.5900      1.00000
     13       4.7334      1.00000
     14       4.8036      1.00002
     15       4.8877      1.00019
     16       5.1640      1.02820
     17       5.7641     -0.02708
     18       9.1183     -0.00000
     19       9.4701     -0.00000
     20      11.5314      0.00000
     21      12.1457      0.00000
     22      12.2822      0.00000
     23      12.6786      0.00000
     24      14.3493      0.00000

 k-point    18 :       0.4444    0.0556    0.0000
  band No.  band energies     occupation 
      1      -1.8925      1.00000
      2      -0.4807      1.00000
      3       2.4380      1.00000
      4       2.8643      1.00000
      5       2.8952      1.00000
      6       3.1661      1.00000
      7       3.3252      1.00000
      8       3.8947      1.00000
      9       3.9158      1.00000
     10       4.0662      1.00000
     11       4.1688      1.00000
     12       4.5123      1.00000
     13       4.6799      1.00000
     14       4.7419      1.00000
     15       4.7915      1.00001
     16       5.1616      1.02766
     17       5.7643     -0.02704
     18       9.6936     -0.00000
     19      10.1052     -0.00000
     20      10.9959      0.00000
     21      11.5300      0.00000
     22      12.0260      0.00000
     23      12.8061      0.00000
     24      14.0565      0.00000

 k-point    19 :       0.5000    0.0556    0.0000
  band No.  band energies     occupation 
      1      -1.6326      1.00000
      2      -0.7754      1.00000
      3       2.4653      1.00000
      4       2.8654      1.00000
      5       2.8990      1.00000
      6       3.1792      1.00000
      7       3.3763      1.00000
      8       3.8784      1.00000
      9       3.9278      1.00000
     10       4.0289      1.00000
     11       4.1653      1.00000
     12       4.4830      1.00000
     13       4.6617      1.00000
     14       4.7306      1.00000
     15       4.7434      1.00000
     16       5.1613      1.02758
     17       5.7643     -0.02703
     18      10.1430     -0.00000
     19      10.5362     -0.00000
     20      10.6680     -0.00000
     21      10.9281      0.00000
     22      12.0086      0.00000
     23      12.8689      0.00000
     24      13.9388      0.00000

 k-point    20 :       0.1111    0.1111    0.0000
  band No.  band energies     occupation 
      1      -3.7335      1.00000
      2       1.7230      1.00000
      3       2.2275      1.00000
      4       2.4177      1.00000
      5       2.7872      1.00000
      6       2.8135      1.00000
      7       2.8926      1.00000
      8       4.1852      1.00000
      9       4.2861      1.00000
     10       4.4703      1.00000
     11       4.9414      1.00073
     12       5.0705      1.00921
     13       5.0978      1.01372
     14       5.3128      0.97427
     15       5.3835      0.80394
     16       5.7295     -0.03372
     17       6.0196     -0.00029
     18       6.5496     -0.00000
     19       7.1950     -0.00000
     20      11.8171      0.00000
     21      12.6259      0.00000
     22      12.9890      0.00000
     23      14.9655      0.00000
     24      16.3389      0.00000

 k-point    21 :       0.1667    0.1111    0.0000
  band No.  band energies     occupation 
      1      -3.5581      1.00000
      2       1.7273      1.00000
      3       2.1360      1.00000
      4       2.4884      1.00000
      5       2.7912      1.00000
      6       2.8269      1.00000
      7       2.9481      1.00000
      8       4.0752      1.00000
      9       4.2190      1.00000
     10       4.4744      1.00000
     11       4.7281      1.00000
     12       4.9853      1.00194
     13       5.0629      1.00817
     14       5.1754      1.03059
     15       5.3239      0.95579
     16       5.7078     -0.03545
     17       5.7609     -0.02779
     18       6.7733     -0.00000
     19       7.5591     -0.00000
     20      11.8358      0.00000
     21      12.8284      0.00000
     22      13.7711      0.00000
     23      14.1237      0.00000
     24      15.7240      0.00000

 k-point    22 :       0.2222    0.1111    0.0000
  band No.  band energies     occupation 
      1      -3.3152      1.00000
      2       1.5649      1.00000
      3       2.0976      1.00000
      4       2.6025      1.00000
      5       2.8039      1.00000
      6       2.8529      1.00000
      7       3.0115      1.00000
      8       3.9705      1.00000
      9       4.1481      1.00000
     10       4.4506      1.00000
     11       4.4867      1.00000
     12       4.8794      1.00015
     13       5.0312      1.00475
     14       5.0558      1.00728
     15       5.2398      1.03305
     16       5.4731      0.45139
     17       5.6976     -0.03514
     18       7.1432     -0.00000
     19       7.9944     -0.00000
     20      11.8388      0.00000
     21      12.9008      0.00000
     22      13.3582      0.00000
     23      14.7593      0.00000
     24      14.8721      0.00000

 k-point    23 :       0.2778    0.1111    0.0000
  band No.  band energies     occupation 
      1      -3.0078      1.00000
      2       1.1840      1.00000
      3       2.1692      1.00000
      4       2.7094      1.00000
      5       2.8227      1.00000
      6       2.9168      1.00000
      7       3.0764      1.00000
      8       3.8856      1.00000
      9       4.0707      1.00000
     10       4.3008      1.00000
     11       4.3980      1.00000
     12       4.7599      1.00000
     13       4.9010      1.00027
     14       5.0219      1.00400
     15       5.1482      1.02460
     16       5.2737      1.01764
     17       5.6930     -0.03469
     18       7.5619     -0.00000
     19       8.4863     -0.00000
     20      11.7653      0.00000
     21      12.5649      0.00000
     22      13.1471      0.00000
     23      14.0176      0.00000
     24      15.2909      0.00000

 k-point    24 :       0.3333    0.1111    0.0000
  band No.  band energies     occupation 
      1      -2.6416      1.00000
      2       0.6816      1.00000
      3       2.2782      1.00000
      4       2.7603      1.00000
      5       2.8447      1.00000
      6       3.0484      1.00000
      7       3.1330      1.00000
      8       3.8357      1.00000
      9       3.9717      1.00000
     10       4.2178      1.00000
     11       4.3163      1.00000
     12       4.6355      1.00000
     13       4.7980      1.00001
     14       4.9288      1.00054
     15       5.0747      1.00983
     16       5.1637      1.02813
     17       5.6911     -0.03444
     18       8.0139     -0.00000
     19       9.0273     -0.00000
     20      11.4034      0.00000
     21      12.2540      0.00000
     22      13.1916      0.00000
     23      13.2817      0.00000
     24      15.0306      0.00000

 k-point    25 :       0.3889    0.1111    0.0000
  band No.  band energies     occupation 
      1      -2.2276      1.00000
      2       0.1325      1.00000
      3       2.3874      1.00000
      4       2.7708      1.00000
      5       2.8658      1.00000
      6       3.1715      1.00000
      7       3.2093      1.00000
      8       3.8335      1.00000
      9       3.8776      1.00000
     10       4.2050      1.00000
     11       4.2116      1.00000
     12       4.5198      1.00000
     13       4.7276      1.00000
     14       4.8291      1.00004
     15       4.9707      1.00142
     16       5.1380      1.02224
     17       5.6903     -0.03432
     18       8.4941     -0.00000
     19       9.6123     -0.00000
     20      10.8137     -0.00000
     21      12.2079      0.00000
     22      12.4028      0.00000
     23      13.4546      0.00000
     24      14.6754      0.00000

 k-point    26 :       0.4444    0.1111    0.0000
  band No.  band energies     occupation 
      1      -1.8005      1.00000
      2      -0.3897      1.00000
      3       2.4722      1.00000
      4       2.7642      1.00000
      5       2.8815      1.00000
      6       3.1894      1.00000
      7       3.3475      1.00000
      8       3.8099      1.00000
      9       3.8790      1.00000
     10       4.0992      1.00000
     11       4.2176      1.00000
     12       4.4303      1.00000
     13       4.6877      1.00000
     14       4.7656      1.00000
     15       4.8781      1.00015
     16       5.1340      1.02133
     17       5.6900     -0.03428
     18       8.9934     -0.00000
     19      10.2170     -0.00000
     20      10.2345     -0.00000
     21      11.6585      0.00000
     22      12.2191      0.00000
     23      13.6287      0.00000
     24      14.3889      0.00000

 k-point    27 :       0.5000    0.1111    0.0000
  band No.  band energies     occupation 
      1      -1.5454      1.00000
      2      -0.6787      1.00000
      3       2.5060      1.00000
      4       2.7579      1.00000
      5       2.8873      1.00000
      6       3.1937      1.00000
      7       3.4068      1.00000
      8       3.7814      1.00000
      9       3.9325      1.00000
     10       4.0235      1.00000
     11       4.2274      1.00000
     12       4.3937      1.00000
     13       4.6749      1.00000
     14       4.7473      1.00000
     15       4.8385      1.00005
     16       5.1335      1.02122
     17       5.6899     -0.03427
     18       9.3679     -0.00000
     19       9.8074     -0.00000
     20      10.7649     -0.00000
     21      11.0875      0.00000
     22      12.2273      0.00000
     23      13.7218      0.00000
     24      14.2600      0.00000

 k-point    28 :       0.1667    0.1667    0.0000
  band No.  band energies     occupation 
      1      -3.3843      1.00000
      2       1.7724      1.00000
      3       2.0758      1.00000
      4       2.4868      1.00000
      5       2.7866      1.00000
      6       2.8407      1.00000
      7       3.0152      1.00000
      8       3.9539      1.00000
      9       4.1747      1.00000
     10       4.5120      1.00000
     11       4.5133      1.00000
     12       4.9343      1.00062
     13       5.0291      1.00457
     14       5.0779      1.01032
     15       5.2687      1.02101
     16       5.6556     -0.02177
     17       5.8149     -0.01574
     18       6.5905     -0.00000
     19       7.8846     -0.00000
     20      11.8399      0.00000
     21      13.2654      0.00000
     22      13.6196      0.00000
     23      14.0078      0.00000
     24      15.8009      0.00000

 k-point    29 :       0.2222    0.1667    0.0000
  band No.  band energies     occupation 
      1      -3.1435      1.00000
      2       1.6609      1.00000
      3       2.0375      1.00000
      4       2.5478      1.00000
      5       2.7918      1.00000
      6       2.8725      1.00000
      7       3.0896      1.00000
      8       3.8429      1.00000
      9       4.1314      1.00000
     10       4.3013      1.00000
     11       4.5218      1.00000
     12       4.8511      1.00007
     13       4.9573      1.00105
     14       5.0124      1.00334
     15       5.1911      1.03337
     16       5.6206      0.01114
     17       5.6226      0.00868
     18       6.7497     -0.00000
     19       8.2879     -0.00000
     20      11.7364      0.00000
     21      12.5669      0.00000
     22      13.8994      0.00000
     23      14.8632      0.00000
     24      15.0572      0.00000

 k-point    30 :       0.2778    0.1667    0.0000
  band No.  band energies     occupation 
      1      -2.8392      1.00000
      2       1.2951      1.00000
      3       2.1282      1.00000
      4       2.6227      1.00000
      5       2.8054      1.00000
      6       2.9422      1.00000
      7       3.1613      1.00000
      8       3.7586      1.00000
      9       4.0409      1.00000
     10       4.1874      1.00000
     11       4.4894      1.00000
     12       4.7387      1.00000
     13       4.8418      1.00005
     14       4.9850      1.00192
     15       5.1105      1.01621
     16       5.4040      0.73267
     17       5.6001      0.04261
     18       7.0611     -0.00000
     19       8.7536     -0.00000
     20      11.2837      0.00000
     21      12.2812      0.00000
     22      14.0695      0.00000
     23      14.2023      0.00000
     24      15.4718      0.00000

 k-point    31 :       0.3333    0.1667    0.0000
  band No.  band energies     occupation 
      1      -2.4769      1.00000
      2       0.8056      1.00000
      3       2.2531      1.00000
      4       2.6652      1.00000
      5       2.8245      1.00000
      6       3.0651      1.00000
      7       3.2129      1.00000
      8       3.7234      1.00000
      9       3.9056      1.00000
     10       4.1853      1.00000
     11       4.4034      1.00000
     12       4.6127      1.00000
     13       4.7611      1.00000
     14       4.9061      1.00031
     15       5.0733      1.00962
     16       5.2341      1.03414
     17       5.5887      0.06456
     18       7.4304     -0.00000
     19       9.2727     -0.00000
     20      10.6284     -0.00000
     21      12.2694      0.00000
     22      13.3796      0.00000
     23      14.2453      0.00000
     24      15.2809      0.00000

 k-point    32 :       0.3889    0.1667    0.0000
  band No.  band energies     occupation 
      1      -2.0683      1.00000
      2       0.2691      1.00000
      3       2.3787      1.00000
      4       2.6683      1.00000
      5       2.8454      1.00000
      6       3.2204      1.00000
      7       3.2294      1.00000
      8       3.7556      1.00000
      9       3.7975      1.00000
     10       4.2132      1.00000
     11       4.2741      1.00000
     12       4.4889      1.00000
     13       4.7187      1.00000
     14       4.8160      1.00002
     15       5.0492      1.00651
     16       5.1179      1.01775
     17       5.5826      0.07772
     18       7.8387     -0.00000
     19       9.8385     -0.00000
     20       9.9813     -0.00000
     21      12.3169      0.00000
     22      12.5981      0.00000
     23      14.4077      0.00000
     24      14.9832      0.00000

 k-point    33 :       0.4444    0.1667    0.0000
  band No.  band energies     occupation 
      1      -1.6489      1.00000
      2      -0.2407      1.00000
      3       2.4898      1.00000
      4       2.6389      1.00000
      5       2.8625      1.00000
      6       3.2226      1.00000
      7       3.3679      1.00000
      8       3.7153      1.00000
      9       3.8455      1.00000
     10       4.1292      1.00000
     11       4.2498      1.00000
     12       4.3837      1.00000
     13       4.6991      1.00000
     14       4.7606      1.00000
     15       4.9784      1.00167
     16       5.0899      1.01230
     17       5.5796      0.08448
     18       8.2779     -0.00000
     19       9.3918     -0.00000
     20      10.4406     -0.00000
     21      11.8672      0.00000
     22      12.3652      0.00000
     23      14.4925      0.00000
     24      14.8183      0.00000

 k-point    34 :       0.5000    0.1667    0.0000
  band No.  band energies     occupation 
      1      -1.4016      1.00000
      2      -0.5204      1.00000
      3       2.5678      1.00000
      4       2.5890      1.00000
      5       2.8693      1.00000
      6       3.2168      1.00000
      7       3.4419      1.00000
      8       3.6716      1.00000
      9       3.9403      1.00000
     10       4.0172      1.00000
     11       4.2832      1.00000
     12       4.3235      1.00000
     13       4.6933      1.00000
     14       4.7457      1.00000
     15       4.9411      1.00072
     16       5.0877      1.01192
     17       5.5787      0.08654
     18       8.6254     -0.00000
     19       8.9934     -0.00000
     20      10.9258      0.00000
     21      11.3392      0.00000
     22      12.3852      0.00000
     23      14.4907      0.00000
     24      14.7974      0.00000

 k-point    35 :       0.2222    0.2222    0.0000
  band No.  band energies     occupation 
      1      -2.9060      1.00000
      2       1.7522      1.00000
      3       1.8592      1.00000
      4       2.5515      1.00000
      5       2.7898      1.00000
      6       2.9089      1.00000
      7       3.1775      1.00000
      8       3.7261      1.00000
      9       4.1111      1.00000
     10       4.1307      1.00000
     11       4.5677      1.00000
     12       4.8064      1.00002
     13       4.8545      1.00008
     14       4.9739      1.00152
     15       5.1188      1.01794
     16       5.5546      0.14949
     17       5.6323     -0.00257
     18       6.5820     -0.00000
     19       8.6612     -0.00000
     20      11.2376      0.00000
     21      12.2887      0.00000
     22      14.8259      0.00000
     23      15.0716      0.00000
     24      15.2994      0.00000

 k-point    36 :       0.2778    0.2222    0.0000
  band No.  band energies     occupation 
      1      -2.6060      1.00000
      2       1.4400      1.00000
      3       1.9460      1.00000
      4       2.5973      1.00000
      5       2.7966      1.00000
      6       2.9757      1.00000
      7       3.2617      1.00000
      8       3.6385      1.00000
      9       3.9447      1.00000
     10       4.1487      1.00000
     11       4.5664      1.00000
     12       4.7219      1.00000
     13       4.7521      1.00000
     14       4.9415      1.00073
     15       5.0394      1.00550
     16       5.4889      0.38540
     17       5.5074      0.31164
     18       6.6921     -0.00000
     19       9.1000     -0.00000
     20      10.5233     -0.00000
     21      12.2950      0.00000
     22      14.4455      0.00000
     23      15.0848      0.00000
     24      15.6034      0.00000

 k-point    37 :       0.3333    0.2222    0.0000
  band No.  band energies     occupation 
      1      -2.2496      1.00000
      2       0.9696      1.00000
      3       2.0913      1.00000
      4       2.6372      1.00000
      5       2.8101      1.00000
      6       3.0841      1.00000
      7       3.3070      1.00000
      8       3.6199      1.00000
      9       3.8128      1.00000
     10       4.1836      1.00000
     11       4.4698      1.00000
     12       4.6093      1.00000
     13       4.7117      1.00000
     14       4.8678      1.00011
     15       5.0064      1.00297
     16       5.3211      0.96072
     17       5.4768      0.43578
     18       6.9446     -0.00000
     19       9.5947     -0.00000
     20       9.8222     -0.00000
     21      12.3687      0.00000
     22      13.6292      0.00000
     23      15.1315      0.00000
     24      15.7099      0.00000

 k-point    38 :       0.3889    0.2222    0.0000
  band No.  band energies     occupation 
      1      -1.8489      1.00000
      2       0.4525      1.00000
      3       2.2245      1.00000
      4       2.6521      1.00000
      5       2.8267      1.00000
      6       3.2256      1.00000
      7       3.2916      1.00000
      8       3.6957      1.00000
      9       3.7134      1.00000
     10       4.2232      1.00000
     11       4.3156      1.00000
     12       4.4893      1.00000
     13       4.7097      1.00000
     14       4.7846      1.00001
     15       5.0060      1.00295
     16       5.1802      1.03152
     17       5.4584      0.51348
     18       7.2669     -0.00000
     19       9.1817     -0.00000
     20      10.1376     -0.00000
     21      12.4581      0.00000
     22      12.8592      0.00000
     23      14.9663      0.00000
     24      15.7669      0.00000

 k-point    39 :       0.4444    0.2222    0.0000
  band No.  band energies     occupation 
      1      -1.4407      1.00000
      2      -0.0390      1.00000
      3       2.3239      1.00000
      4       2.6468      1.00000
      5       2.8411      1.00000
      6       3.2602      1.00000
      7       3.3735      1.00000
      8       3.6293      1.00000
      9       3.8248      1.00000
     10       4.1497      1.00000
     11       4.2576      1.00000
     12       4.3844      1.00000
     13       4.7121      1.00000
     14       4.7387      1.00000
     15       5.0116      1.00329
     16       5.0770      1.01017
     17       5.4486      0.55450
     18       7.6399     -0.00000
     19       8.6164     -0.00000
     20      10.7139     -0.00000
     21      12.1475      0.00000
     22      12.5328      0.00000
     23      14.7722      0.00000
     24      15.8904      0.00000

 k-point    40 :       0.5000    0.2222    0.0000
  band No.  band energies     occupation 
      1      -1.2042      1.00000
      2      -0.3054      1.00000
      3       2.3628      1.00000
      4       2.6400      1.00000
      5       2.8470      1.00000
      6       3.2466      1.00000
      7       3.4708      1.00000
      8       3.5624      1.00000
      9       3.9511      1.00000
     10       4.0122      1.00000
     11       4.2842      1.00000
     12       4.3271      1.00000
     13       4.7132      1.00000
     14       4.7287      1.00000
     15       5.0224      1.00404
     16       5.0280      1.00448
     17       5.4456      0.56722
     18       7.9697     -0.00000
     19       8.2220     -0.00000
     20      11.1500      0.00000
     21      11.6665      0.00000
     22      12.5627      0.00000
     23      14.6950      0.00000
     24      15.9477      0.00000

 k-point    41 :       0.2778    0.2778    0.0000
  band No.  band energies     occupation 
      1      -2.3121      1.00000
      2       1.5973      1.00000
      3       1.6154      1.00000
      4       2.6317      1.00000
      5       2.7960      1.00000
      6       3.0294      1.00000
      7       3.3695      1.00000
      8       3.5374      1.00000
      9       3.8218      1.00000
     10       4.1701      1.00000
     11       4.6273      1.00000
     12       4.6320      1.00000
     13       4.6805      1.00000
     14       4.9055      1.00030
     15       4.9479      1.00085
     16       5.4298      0.63232
     17       5.4656      0.48290
     18       6.5539     -0.00000
     19       9.5126     -0.00000
     20       9.7665     -0.00000
     21      12.3853      0.00000
     22      14.6158      0.00000
     23      14.8867      0.00000
     24      15.6150      0.00000

 k-point    42 :       0.3333    0.2778    0.0000
  band No.  band energies     occupation 
      1      -1.9637      1.00000
      2       1.1621      1.00000
      3       1.7789      1.00000
      4       2.6735      1.00000
      5       2.8018      1.00000
      6       3.1150      1.00000
      7       3.4019      1.00000
      8       3.5415      1.00000
      9       3.7179      1.00000
     10       4.2106      1.00000
     11       4.4856      1.00000
     12       4.6021      1.00000
     13       4.6743      1.00000
     14       4.8249      1.00003
     15       4.9119      1.00036
     16       5.3533      0.89189
     17       5.3727      0.83805
     18       6.6319     -0.00000
     19       9.0732     -0.00000
     20       9.9821     -0.00000
     21      12.5039      0.00000
     22      13.9180      0.00000
     23      15.1183      0.00000
     24      15.5139      0.00000

 k-point    43 :       0.3889    0.2778    0.0000
  band No.  band energies     occupation 
      1      -1.5739      1.00000
      2       0.6726      1.00000
      3       1.9330      1.00000
      4       2.6964      1.00000
      5       2.8111      1.00000
      6       3.2313      1.00000
      7       3.3418      1.00000
      8       3.6379      1.00000
      9       3.6716      1.00000
     10       4.2492      1.00000
     11       4.3243      1.00000
     12       4.5006      1.00000
     13       4.7065      1.00000
     14       4.7374      1.00000
     15       4.9164      1.00040
     16       5.2277      1.03495
     17       5.3347      0.93484
     18       6.8373     -0.00000
     19       8.4612     -0.00000
     20      10.4998     -0.00000
     21      12.6281      0.00000
     22      13.1710      0.00000
     23      15.2393      0.00000
     24      15.4531      0.00000

 k-point    44 :       0.4444    0.2778    0.0000
  band No.  band energies     occupation 
      1      -1.1806      1.00000
      2       0.2069      1.00000
      3       2.0431      1.00000
      4       2.7013      1.00000
      5       2.8197      1.00000
      6       3.2967      1.00000
      7       3.3602      1.00000
      8       3.5663      1.00000
      9       3.8231      1.00000
     10       4.1566      1.00000
     11       4.2726      1.00000
     12       4.4051      1.00000
     13       4.6962      1.00000
     14       4.7253      1.00000
     15       4.9257      1.00050
     16       5.1300      1.02042
     17       5.3132      0.97369
     18       7.1228     -0.00000
     19       7.9377     -0.00000
     20      11.0465      0.00000
     21      12.4855      0.00000
     22      12.7288      0.00000
     23      15.0068      0.00000
     24      15.7352      0.00000

 k-point    45 :       0.5000    0.2778    0.0000
  band No.  band energies     occupation 
      1      -0.9576      1.00000
      2      -0.0422      1.00000
      3       2.0837      1.00000
      4       2.7005      1.00000
      5       2.8232      1.00000
      6       3.2806      1.00000
      7       3.4676      1.00000
      8       3.4867      1.00000
      9       3.9646      1.00000
     10       4.0096      1.00000
     11       4.2828      1.00000
     12       4.3601      1.00000
     13       4.6894      1.00000
     14       4.7315      1.00000
     15       4.9310      1.00057
     16       5.0904      1.01238
     17       5.3062      0.98388
     18       7.4228     -0.00000
     19       7.5588     -0.00000
     20      11.4362      0.00000
     21      12.0495      0.00000
     22      12.7688      0.00000
     23      14.9181      0.00000
     24      15.8536      0.00000

 k-point    46 :       0.3333    0.3333    0.0000
  band No.  band energies     occupation 
      1      -1.6261      1.00000
      2       1.3313      1.00000
      3       1.4067      1.00000
      4       2.7127      1.00000
      5       2.7986      1.00000
      6       3.1705      1.00000
      7       3.4111      1.00000
      8       3.5774      1.00000
      9       3.6386      1.00000
     10       4.2533      1.00000
     11       4.4149      1.00000
     12       4.5691      1.00000
     13       4.6849      1.00000
     14       4.7757      1.00001
     15       4.8185      1.00003
     16       5.2875      1.00590
     17       5.3115      0.97619
     18       6.5233     -0.00000
     19       8.4093     -0.00000
     20      10.4259     -0.00000
     21      12.6598      0.00000
     22      14.0662      0.00000
     23      14.5284      0.00000
     24      15.6366      0.00000

 k-point    47 :       0.3889    0.3333    0.0000
  band No.  band energies     occupation 
      1      -1.2506      1.00000
      2       0.9127      1.00000
      3       1.5644      1.00000
      4       2.7260      1.00000
      5       2.7988      1.00000
      6       3.2546      1.00000
      7       3.3623      1.00000
      8       3.5784      1.00000
      9       3.7019      1.00000
     10       4.2913      1.00000
     11       4.2930      1.00000
     12       4.5043      1.00000
     13       4.6827      1.00000
     14       4.7145      1.00000
     15       4.8016      1.00002
     16       5.2256      1.03512
     17       5.2278      1.03494
     18       6.5826     -0.00000
     19       7.8445     -0.00000
     20      10.9168     -0.00000
     21      12.8175      0.00000
     22      13.5007      0.00000
     23      14.7116      0.00000
     24      15.4851      0.00000

 k-point    48 :       0.4444    0.3333    0.0000
  band No.  band energies     occupation 
      1      -0.8763      1.00000
      2       0.4817      1.00000
      3       1.7065      1.00000
      4       2.7179      1.00000
      5       2.8001      1.00000
      6       3.3271      1.00000
      7       3.3504      1.00000
      8       3.5275      1.00000
      9       3.8440      1.00000
     10       4.1469      1.00000
     11       4.3124      1.00000
     12       4.4253      1.00000
     13       4.6362      1.00000
     14       4.7378      1.00000
     15       4.8037      1.00002
     16       5.1517      1.02541
     17       5.1880      1.03288
     18       6.7562     -0.00000
     19       7.3843     -0.00000
     20      11.4324      0.00000
     21      12.8586      0.00000
     22      12.9442      0.00000
     23      14.9874      0.00000
     24      15.2691      0.00000

 k-point    49 :       0.5000    0.3333    0.0000
  band No.  band energies     occupation 
      1      -0.6695      1.00000
      2       0.2539      1.00000
      3       1.7607      1.00000
      4       2.7109      1.00000
      5       2.8008      1.00000
      6       3.3147      1.00000
      7       3.4117      1.00000
      8       3.4888      1.00000
      9       3.9801      1.00000
     10       4.0093      1.00000
     11       4.3177      1.00000
     12       4.3852      1.00000
     13       4.6300      1.00000
     14       4.7464      1.00000
     15       4.8058      1.00002
     16       5.1205      1.01832
     17       5.1752      1.03056
     18       6.9980     -0.00000
     19       7.0490     -0.00000
     20      11.7831      0.00000
     21      12.4633      0.00000
     22      12.9947      0.00000
     23      15.1076      0.00000
     24      15.1791      0.00000

 k-point    50 :       0.3889    0.3889    0.0000
  band No.  band energies     occupation 
      1      -0.8936      1.00000
      2       1.1072      1.00000
      3       1.1962      1.00000
      4       2.7101      1.00000
      5       2.7899      1.00000
      6       3.3078      1.00000
      7       3.3582      1.00000
      8       3.5356      1.00000
      9       3.7808      1.00000
     10       4.2187      1.00000
     11       4.3407      1.00000
     12       4.4855      1.00000
     13       4.6236      1.00000
     14       4.6990      1.00000
     15       4.7319      1.00000
     16       5.1408      1.02289
     17       5.1876      1.03282
     18       6.4984     -0.00000
     19       7.3463     -0.00000
     20      11.3796      0.00000
     21      13.0062      0.00000
     22      13.6621      0.00000
     23      14.2012      0.00000
     24      15.6296      0.00000

 k-point    51 :       0.4444    0.3889    0.0000
  band No.  band energies     occupation 
      1      -0.5428      1.00000
      2       0.7577      1.00000
      3       1.3400      1.00000
      4       2.6647      1.00000
      5       2.7844      1.00000
      6       3.3486      1.00000
      7       3.3753      1.00000
      8       3.5031      1.00000
      9       3.8864      1.00000
     10       4.1181      1.00000
     11       4.3687      1.00000
     12       4.4395      1.00000
     13       4.5698      1.00000
     14       4.6643      1.00000
     15       4.7495      1.00000
     16       5.0861      1.01165
     17       5.1384      1.02233
     18       6.5490     -0.00000
     19       6.9697     -0.00000
     20      11.8650      0.00000
     21      13.1568      0.00000
     22      13.2228      0.00000
     23      14.3097      0.00000
     24      15.5560      0.00000

 k-point    52 :       0.5000    0.3889    0.0000
  band No.  band energies     occupation 
      1      -0.3536      1.00000
      2       0.5547      1.00000
      3       1.4124      1.00000
      4       2.6392      1.00000
      5       2.7826      1.00000
      6       3.3445      1.00000
      7       3.4147      1.00000
      8       3.4825      1.00000
      9       3.9956      1.00000
     10       4.0105      1.00000
     11       4.3761      1.00000
     12       4.4058      1.00000
     13       4.5608      1.00000
     14       4.6588      1.00000
     15       4.7571      1.00000
     16       5.0669      1.00871
     17       5.1161      1.01738
     18       6.7020     -0.00000
     19       6.7123     -0.00000
     20      12.1885      0.00000
     21      12.8693      0.00000
     22      13.2167      0.00000
     23      14.4176      0.00000
     24      15.4872      0.00000

 k-point    53 :       0.4444    0.4444    0.0000
  band No.  band energies     occupation 
      1      -0.2184      1.00000
      2       0.9596      1.00000
      3       1.0148      1.00000
      4       2.5704      1.00000
      5       2.7743      1.00000
      6       3.3609      1.00000
      7       3.4229      1.00000
      8       3.4862      1.00000
      9       3.9448      1.00000
     10       4.0707      1.00000
     11       4.4167      1.00000
     12       4.4411      1.00000
     13       4.5113      1.00000
     14       4.5641      1.00000
     15       4.7592      1.00000
     16       5.0186      1.00376
     17       5.1073      1.01555
     18       6.4827     -0.00000
     19       6.6906     -0.00000
     20      12.3259      0.00000
     21      13.3248      0.00000
     22      13.4143      0.00000
     23      13.8144      0.00000
     24      15.7960      0.00000

 k-point    54 :       0.5000    0.4444    0.0000
  band No.  band energies     occupation 
      1      -0.0458      1.00000
      2       0.8043      1.00000
      3       1.0814      1.00000
      4       2.5204      1.00000
      5       2.7707      1.00000
      6       3.3649      1.00000
      7       3.4515      1.00000
      8       3.4751      1.00000
      9       4.0078      1.00000
     10       4.0119      1.00000
     11       4.4255      1.00000
     12       4.4340      1.00000
     13       4.4932      1.00000
     14       4.5387      1.00000
     15       4.7634      1.00000
     16       4.9946      1.00235
     17       5.0905      1.01240
     18       6.5319     -0.00000
     19       6.5324     -0.00000
     20      12.6469      0.00000
     21      13.1969      0.00000
     22      13.3913      0.00000
     23      13.7888      0.00000
     24      15.8476      0.00000

 k-point    55 :       0.5000    0.5000    0.0000
  band No.  band energies     occupation 
      1       0.1187      1.00000
      2       0.9083      1.00000
      3       0.9083      1.00000
      4       2.4579      1.00000
      5       2.7666      1.00000
      6       3.3721      1.00000
      7       3.4721      1.00000
      8       3.4721      1.00000
      9       4.0125      1.00000
     10       4.0125      1.00000
     11       4.4379      1.00000
     12       4.4593      1.00000
     13       4.4593      1.00000
     14       4.4932      1.00000
     15       4.7655      1.00000
     16       4.9691      1.00137
     17       5.0752      1.00991
     18       6.4773     -0.00000
     19       6.4773     -0.00000
     20      13.0483      0.00000
     21      13.3307      0.00000
     22      13.3307      0.00000
     23      13.4601      0.00000
     24      16.2089      0.00000

 k-point    56 :       0.0556    0.0556    0.0556
  band No.  band energies     occupation 
      1      -3.9103      1.00000
      2       1.6813      1.00000
      3       2.3369      1.00000
      4       2.3369      1.00000
      5       2.7783      1.00000
      6       2.8200      1.00000
      7       2.8200      1.00000
      8       4.3093      1.00000
      9       4.4212      1.00000
     10       4.4212      1.00000
     11       5.0770      1.01017
     12       5.0770      1.01017
     13       5.4360      0.60697
     14       5.4630      0.49370
     15       5.4630      0.49369
     16       5.7627     -0.02740
     17       6.2808     -0.00000
     18       6.5467     -0.00000
     19       6.5467     -0.00000
     20      11.9521      0.00000
     21      11.9521      0.00000
     22      12.3669      0.00000
     23      16.3042      0.00000
     24      16.7748      0.00000

 k-point    57 :       0.1111    0.0556    0.0556
  band No.  band energies     occupation 
      1      -3.8041      1.00000
      2       1.7059      1.00000
      3       2.2572      1.00000
      4       2.4023      1.00000
      5       2.7744      1.00000
      6       2.8306      1.00000
      7       2.8581      1.00000
      8       4.2224      1.00000
      9       4.3611      1.00000
     10       4.4339      1.00000
     11       5.0096      1.00316
     12       5.0780      1.01033
     13       5.2414      1.03267
     14       5.3196      0.96316
     15       5.4052      0.72825
     16       5.7507     -0.02998
     17       6.0299     -0.00022
     18       6.7637     -0.00000
     19       6.8334     -0.00000
     20      11.9595      0.00000
     21      12.1824      0.00000
     22      12.8418      0.00000
     23      15.6981      0.00000
     24      16.0189      0.00000

 k-point    58 :       0.1667    0.0556    0.0556
  band No.  band energies     occupation 
      1      -3.6281      1.00000
      2       1.6987      1.00000
      3       2.1437      1.00000
      4       2.5068      1.00000
      5       2.7790      1.00000
      6       2.8480      1.00000
      7       2.9076      1.00000
      8       4.1259      1.00000
      9       4.2747      1.00000
     10       4.4220      1.00000
     11       4.8440      1.00006
     12       5.0497      1.00657
     13       5.0745      1.00981
     14       5.1699      1.02946
     15       5.3505      0.89881
     16       5.6589     -0.02370
     17       5.7451     -0.03110
     18       7.1498     -0.00000
     19       7.2061     -0.00000
     20      11.9699      0.00000
     21      12.2791      0.00000
     22      13.7226      0.00000
     23      14.9325      0.00000
     24      15.1664      0.00000

 k-point    59 :       0.2222    0.0556    0.0556
  band No.  band energies     occupation 
      1      -3.3843      1.00000
      2       1.5241      1.00000
      3       2.1026      1.00000
      4       2.6415      1.00000
      5       2.7898      1.00000
      6       2.8734      1.00000
      7       2.9661      1.00000
      8       4.0335      1.00000
      9       4.1776      1.00000
     10       4.3888      1.00000
     11       4.5894      1.00000
     12       4.9188      1.00042
     13       5.0084      1.00309
     14       5.0891      1.01216
     15       5.2786      1.01389
     16       5.3599      0.87448
     17       5.7424     -0.03161
     18       7.5953     -0.00000
     19       7.6339     -0.00000
     20      11.9778      0.00000
     21      12.3736      0.00000
     22      14.0848      0.00000
     23      14.3292      0.00000
     24      14.7652      0.00000

 k-point    60 :       0.2778    0.0556    0.0556
  band No.  band energies     occupation 
      1      -3.0758      1.00000
      2       1.1379      1.00000
      3       2.1685      1.00000
      4       2.7805      1.00000
      5       2.8035      1.00000
      6       2.9211      1.00000
      7       3.0290      1.00000
      8       3.9562      1.00000
      9       4.0841      1.00000
     10       4.3360      1.00000
     11       4.3668      1.00000
     12       4.7953      1.00001
     13       4.8883      1.00019
     14       5.0605      1.00786
     15       5.1440      1.02363
     16       5.2054      1.03501
     17       5.7411     -0.03185
     18       8.0856     -0.00000
     19       8.1040     -0.00000
     20      11.9667      0.00000
     21      12.4882      0.00000
     22      13.3088      0.00000
     23      13.5539      0.00000
     24      15.3137      0.00000

 k-point    61 :       0.3333    0.0556    0.0556
  band No.  band energies     occupation 
      1      -2.7080      1.00000
      2       0.6306      1.00000
      3       2.2718      1.00000
      4       2.8163      1.00000
      5       2.8570      1.00000
      6       3.0424      1.00000
      7       3.0897      1.00000
      8       3.9013      1.00000
      9       4.0033      1.00000
     10       4.2059      1.00000
     11       4.2875      1.00000
     12       4.6733      1.00000
     13       4.7853      1.00001
     14       4.9849      1.00192
     15       4.9886      1.00207
     16       5.1649      1.02839
     17       5.7405     -0.03196
     18       8.6083     -0.00000
     19       8.6153     -0.00000
     20      11.8777      0.00000
     21      12.5081      0.00000
     22      12.6632      0.00000
     23      12.9084      0.00000
     24      15.0398      0.00000

 k-point    62 :       0.3889    0.0556    0.0556
  band No.  band energies     occupation 
      1      -2.2919      1.00000
      2       0.0766      1.00000
      3       2.3743      1.00000
      4       2.8242      1.00000
      5       2.8839      1.00000
      6       3.1401      1.00000
      7       3.2027      1.00000
      8       3.8754      1.00000
      9       3.9379      1.00000
     10       4.1127      1.00000
     11       4.2378      1.00000
     12       4.5636      1.00000
     13       4.7103      1.00000
     14       4.8692      1.00012
     15       4.8843      1.00017
     16       5.1538      1.02590
     17       5.7403     -0.03200
     18       9.1380     -0.00000
     19       9.1817     -0.00000
     20      11.5654      0.00000
     21      11.7950      0.00000
     22      12.5405      0.00000
     23      12.8007      0.00000
     24      14.6409      0.00000

 k-point    63 :       0.4444    0.0556    0.0556
  band No.  band energies     occupation 
      1      -1.8618      1.00000
      2      -0.4503      1.00000
      3       2.4507      1.00000
      4       2.8258      1.00000
      5       2.8960      1.00000
      6       3.1730      1.00000
      7       3.3355      1.00000
      8       3.8789      1.00000
      9       3.8892      1.00000
     10       4.0503      1.00000
     11       4.2102      1.00000
     12       4.4824      1.00000
     13       4.6721      1.00000
     14       4.7883      1.00001
     15       4.7967      1.00001
     16       5.1516      1.02538
     17       5.7402     -0.03201
     18       9.6691     -0.00000
     19       9.7825     -0.00000
     20      11.0590      0.00000
     21      11.0931      0.00000
     22      12.4332      0.00000
     23      12.9528      0.00000
     24      14.3233      0.00000

 k-point    64 :       0.5000    0.0556    0.0556
  band No.  band energies     occupation 
      1      -1.6035      1.00000
      2      -0.7430      1.00000
      3       2.4796      1.00000
      4       2.8252      1.00000
      5       2.8997      1.00000
      6       3.1844      1.00000
      7       3.3898      1.00000
      8       3.8686      1.00000
      9       3.8897      1.00000
     10       4.0215      1.00000
     11       4.2038      1.00000
     12       4.4511      1.00000
     13       4.6664      1.00000
     14       4.7437      1.00000
     15       4.7719      1.00001
     16       5.1513      1.02532
     17       5.7402     -0.03201
     18      10.0122     -0.00000
     19      10.3677     -0.00000
     20      10.4741     -0.00000
     21      10.7087     -0.00000
     22      12.4147      0.00000
     23      13.0243      0.00000
     24      14.1944      0.00000

 k-point    65 :       0.1111    0.1111    0.0556
  band No.  band energies     occupation 
      1      -3.6984      1.00000
      2       1.7355      1.00000
      3       2.2498      1.00000
      4       2.3932      1.00000
      5       2.7596      1.00000
      6       2.8502      1.00000
      7       2.8960      1.00000
      8       4.1227      1.00000
      9       4.3285      1.00000
     10       4.4442      1.00000
     11       4.9426      1.00075
     12       5.0484      1.00642
     13       5.0901      1.01233
     14       5.2186      1.03544
     15       5.3583      0.87880
     16       5.7246     -0.03434
     17       6.1178     -0.00002
     18       6.6203     -0.00000
     19       7.0499     -0.00000
     20      12.0695      0.00000
     21      12.6335      0.00000
     22      13.0199      0.00000
     23      14.9906      0.00000
     24      15.8947      0.00000

 k-point    66 :       0.1667    0.1111    0.0556
  band No.  band energies     occupation 
      1      -3.5233      1.00000
      2       1.7418      1.00000
      3       2.1529      1.00000
      4       2.4704      1.00000
      5       2.7546      1.00000
      6       2.8689      1.00000
      7       2.9523      1.00000
      8       4.0192      1.00000
      9       4.2527      1.00000
     10       4.4471      1.00000
     11       4.7331      1.00000
     12       4.9826      1.00183
     13       5.0333      1.00493
     14       5.1087      1.01585
     15       5.3033      0.98783
     16       5.7044     -0.03544
     17       5.8471     -0.01002
     18       6.8316     -0.00000
     19       7.3898     -0.00000
     20      12.1001      0.00000
     21      12.8481      0.00000
     22      13.7918      0.00000
     23      14.1582      0.00000
     24      15.1895      0.00000

 k-point    67 :       0.2222    0.1111    0.0556
  band No.  band energies     occupation 
      1      -3.2808      1.00000
      2       1.5841      1.00000
      3       2.1085      1.00000
      4       2.5914      1.00000
      5       2.7592      1.00000
      6       2.8968      1.00000
      7       3.0166      1.00000
      8       3.9260      1.00000
      9       4.1650      1.00000
     10       4.4118      1.00000
     11       4.5101      1.00000
     12       4.8785      1.00015
     13       4.9553      1.00101
     14       5.0595      1.00773
     15       5.2349      1.03401
     16       5.5329      0.21823
     17       5.6915     -0.03450
     18       7.1941     -0.00000
     19       7.7959     -0.00000
     20      12.1061      0.00000
     21      12.9384      0.00000
     22      13.3819      0.00000
     23      14.3457      0.00000
     24      14.8314      0.00000

 k-point    68 :       0.2778    0.1111    0.0556
  band No.  band energies     occupation 
      1      -2.9740      1.00000
      2       1.2064      1.00000
      3       2.1777      1.00000
      4       2.7056      1.00000
      5       2.7811      1.00000
      6       2.9495      1.00000
      7       3.0816      1.00000
      8       3.8539      1.00000
      9       4.0730      1.00000
     10       4.2756      1.00000
     11       4.4150      1.00000
     12       4.7603      1.00000
     13       4.8477      1.00006
     14       5.0351      1.00510
     15       5.1599      1.02729
     16       5.2943      0.99876
     17       5.6828     -0.03293
     18       7.6066     -0.00000
     19       8.2524     -0.00000
     20      11.9887      0.00000
     21      12.6687      0.00000
     22      13.1188      0.00000
     23      13.6125      0.00000
     24      15.5575      0.00000

 k-point    69 :       0.3333    0.1111    0.0556
  band No.  band energies     occupation 
      1      -2.6086      1.00000
      2       0.7066      1.00000
      3       2.2858      1.00000
      4       2.7433      1.00000
      5       2.8345      1.00000
      6       3.0606      1.00000
      7       3.1378      1.00000
      8       3.8134      1.00000
      9       3.9739      1.00000
     10       4.1689      1.00000
     11       4.3558      1.00000
     12       4.6362      1.00000
     13       4.7588      1.00000
     14       4.9637      1.00121
     15       5.0920      1.01266
     16       5.1486      1.02470
     17       5.6775     -0.03155
     18       8.0525     -0.00000
     19       8.7494     -0.00000
     20      11.5245      0.00000
     21      12.3413      0.00000
     22      12.8967      0.00000
     23      13.3594      0.00000
     24      15.4175      0.00000

 k-point    70 :       0.3889    0.1111    0.0556
  band No.  band energies     occupation 
      1      -2.1957      1.00000
      2       0.1600      1.00000
      3       2.3957      1.00000
      4       2.7436      1.00000
      5       2.8696      1.00000
      6       3.1739      1.00000
      7       3.2175      1.00000
      8       3.8132      1.00000
      9       3.8827      1.00000
     10       4.1061      1.00000
     11       4.3024      1.00000
     12       4.5201      1.00000
     13       4.7001      1.00000
     14       4.8644      1.00010
     15       4.9785      1.00168
     16       5.1241      1.01911
     17       5.6745     -0.03059
     18       8.5247     -0.00000
     19       9.2759     -0.00000
     20      10.9121     -0.00000
     21      11.8431      0.00000
     22      12.7186      0.00000
     23      13.5112      0.00000
     24      15.0417      0.00000

 k-point    71 :       0.4444    0.1111    0.0556
  band No.  band energies     occupation 
      1      -1.7702      1.00000
      2      -0.3596      1.00000
      3       2.4838      1.00000
      4       2.7300      1.00000
      5       2.8870      1.00000
      6       3.1940      1.00000
      7       3.3581      1.00000
      8       3.8052      1.00000
      9       3.8556      1.00000
     10       4.0448      1.00000
     11       4.2757      1.00000
     12       4.4302      1.00000
     13       4.6770      1.00000
     14       4.7819      1.00001
     15       4.8902      1.00020
     16       5.1216      1.01855
     17       5.6729     -0.03006
     18       9.0085     -0.00000
     19       9.7811     -0.00000
     20      10.3681     -0.00000
     21      11.2254      0.00000
     22      12.7232      0.00000
     23      13.6802      0.00000
     24      14.7262      0.00000

 k-point    72 :       0.5000    0.1111    0.0556
  band No.  band energies     occupation 
      1      -1.5167      1.00000
      2      -0.6467      1.00000
      3       2.5208      1.00000
      4       2.7194      1.00000
      5       2.8926      1.00000
      6       3.1995      1.00000
      7       3.4220      1.00000
      8       3.7718      1.00000
      9       3.8896      1.00000
     10       4.0026      1.00000
     11       4.2726      1.00000
     12       4.3930      1.00000
     13       4.6796      1.00000
     14       4.7429      1.00000
     15       4.8569      1.00008
     16       5.1214      1.01852
     17       5.6724     -0.02989
     18       9.3449     -0.00000
     19       9.8183     -0.00000
     20      10.3633     -0.00000
     21      10.7912     -0.00000
     22      12.7360      0.00000
     23      13.7653      0.00000
     24      14.5910      0.00000

 k-point    73 :       0.1667    0.1667    0.0556
  band No.  band energies     occupation 
      1      -3.3497      1.00000
      2       1.7851      1.00000
      3       2.0988      1.00000
      4       2.4695      1.00000
      5       2.7428      1.00000
      6       2.8873      1.00000
      7       3.0175      1.00000
      8       3.9101      1.00000
      9       4.2014      1.00000
     10       4.4237      1.00000
     11       4.5863      1.00000
     12       4.9357      1.00064
     13       4.9749      1.00155
     14       5.0474      1.00632
     15       5.2369      1.03364
     16       5.6637     -0.02622
     17       5.8943     -0.00455
     18       6.6314     -0.00000
     19       7.6929     -0.00000
     20      12.1165      0.00000
     21      13.3158      0.00000
     22      13.6296      0.00000
     23      14.0229      0.00000
     24      15.3080      0.00000

 k-point    74 :       0.2222    0.1667    0.0556
  band No.  band energies     occupation 
      1      -3.1095      1.00000
      2       1.6772      1.00000
      3       2.0547      1.00000
      4       2.5390      1.00000
      5       2.7462      1.00000
      6       2.9156      1.00000
      7       3.0912      1.00000
      8       3.8131      1.00000
      9       4.1415      1.00000
     10       4.2771      1.00000
     11       4.5350      1.00000
     12       4.8514      1.00007
     13       4.8934      1.00022
     14       5.0146      1.00348
     15       5.1645      1.02829
     16       5.6281      0.00210
     17       5.6840     -0.03319
     18       6.7852     -0.00000
     19       8.0666     -0.00000
     20      11.9658      0.00000
     21      12.6828      0.00000
     22      13.8906      0.00000
     23      14.5255      0.00000
     24      14.9380      0.00000

 k-point    75 :       0.2778    0.1667    0.0556
  band No.  band energies     occupation 
      1      -2.8058      1.00000
      2       1.3156      1.00000
      3       2.1388      1.00000
      4       2.6209      1.00000
      5       2.7710      1.00000
      6       2.9701      1.00000
      7       3.1618      1.00000
      8       3.7418      1.00000
      9       4.0383      1.00000
     10       4.1691      1.00000
     11       4.4957      1.00000
     12       4.7416      1.00000
     13       4.8006      1.00002
     14       4.9914      1.00220
     15       5.0944      1.01309
     16       5.4334      0.61802
     17       5.6087      0.02828
     18       7.0935     -0.00000
     19       8.4933     -0.00000
     20      11.4076      0.00000
     21      12.5145      0.00000
     22      13.6664      0.00000
     23      14.1742      0.00000
     24      15.6290      0.00000

 k-point    76 :       0.3333    0.1667    0.0556
  band No.  band energies     occupation 
      1      -2.4444      1.00000
      2       0.8291      1.00000
      3       2.2584      1.00000
      4       2.6602      1.00000
      5       2.8141      1.00000
      6       3.0741      1.00000
      7       3.2132      1.00000
      8       3.7153      1.00000
      9       3.9055      1.00000
     10       4.1399      1.00000
     11       4.4281      1.00000
     12       4.6207      1.00000
     13       4.7328      1.00000
     14       4.9234      1.00047
     15       5.0621      1.00806
     16       5.2416      1.03263
     17       5.5913      0.05933
     18       7.4589     -0.00000
     19       8.9566     -0.00000
     20      10.7361     -0.00000
     21      12.4599      0.00000
     22      13.0487      0.00000
     23      14.3238      0.00000
     24      15.6546      0.00000

 k-point    77 :       0.3889    0.1667    0.0556
  band No.  band energies     occupation 
      1      -2.0371      1.00000
      2       0.2956      1.00000
      3       2.3786      1.00000
      4       2.6592      1.00000
      5       2.8495      1.00000
      6       3.2098      1.00000
      7       3.2445      1.00000
      8       3.7481      1.00000
      9       3.7975      1.00000
     10       4.1130      1.00000
     11       4.3558      1.00000
     12       4.5014      1.00000
     13       4.6980      1.00000
     14       4.8342      1.00004
     15       5.0488      1.00648
     16       5.1070      1.01549
     17       5.5805      0.08236
     18       7.8616     -0.00000
     19       9.4011     -0.00000
     20      10.1549     -0.00000
     21      12.0455      0.00000
     22      12.8450      0.00000
     23      14.5114      0.00000
     24      15.3285      0.00000

 k-point    78 :       0.4444    0.1667    0.0556
  band No.  band energies     occupation 
      1      -1.6194      1.00000
      2      -0.2115      1.00000
      3       2.4845      1.00000
      4       2.6294      1.00000
      5       2.8708      1.00000
      6       3.2260      1.00000
      7       3.3767      1.00000
      8       3.7085      1.00000
      9       3.8277      1.00000
     10       4.0485      1.00000
     11       4.3227      1.00000
     12       4.4020      1.00000
     13       4.6901      1.00000
     14       4.7662      1.00001
     15       4.9844      1.00190
     16       5.0729      1.00956
     17       5.5747      0.09603
     18       8.2909     -0.00000
     19       9.3426     -0.00000
     20      10.1648     -0.00000
     21      11.4398      0.00000
     22      12.8816      0.00000
     23      14.6877      0.00000
     24      15.0406      0.00000

 k-point    79 :       0.5000    0.1667    0.0556
  band No.  band energies     occupation 
      1      -1.3739      1.00000
      2      -0.4890      1.00000
      3       2.5564      1.00000
      4       2.5836      1.00000
      5       2.8782      1.00000
      6       3.2236      1.00000
      7       3.4579      1.00000
      8       3.6552      1.00000
      9       3.8994      1.00000
     10       3.9806      1.00000
     11       4.3347      1.00000
     12       4.3444      1.00000
     13       4.6978      1.00000
     14       4.7359      1.00000
     15       4.9481      1.00085
     16       5.0715      1.00936
     17       5.5728      0.10051
     18       8.6164     -0.00000
     19       9.0098     -0.00000
     20      10.5025     -0.00000
     21      11.0263      0.00000
     22      12.9078      0.00000
     23      14.8305      0.00000
     24      14.8601      0.00000

 k-point    80 :       0.2222    0.2222    0.0556
  band No.  band energies     occupation 
      1      -2.8725      1.00000
      2       1.7605      1.00000
      3       1.8836      1.00000
      4       2.5484      1.00000
      5       2.7495      1.00000
      6       2.9435      1.00000
      7       3.1773      1.00000
      8       3.7096      1.00000
      9       4.0993      1.00000
     10       4.1286      1.00000
     11       4.5712      1.00000
     12       4.8072      1.00002
     13       4.8103      1.00002
     14       4.9738      1.00152
     15       5.0829      1.01111
     16       5.5745      0.09655
     17       5.6879     -0.03395
     18       6.6024     -0.00000
     19       8.4065     -0.00000
     20      11.3614      0.00000
     21      12.5362      0.00000
     22      14.6237      0.00000
     23      14.7056      0.00000
     24      14.9231      0.00000

 k-point    81 :       0.2778    0.2222    0.0556
  band No.  band energies     occupation 
      1      -2.5733      1.00000
      2       1.4576      1.00000
      3       1.9579      1.00000
      4       2.6009      1.00000
      5       2.7693      1.00000
      6       2.9952      1.00000
      7       3.2596      1.00000
      8       3.6330      1.00000
      9       3.9403      1.00000
     10       4.1286      1.00000
     11       4.5663      1.00000
     12       4.7208      1.00000
     13       4.7339      1.00000
     14       4.9425      1.00075
     15       5.0080      1.00307
     16       5.5085      0.30714
     17       5.5455      0.17708
     18       6.7092     -0.00000
     19       8.7937     -0.00000
     20      10.6352     -0.00000
     21      12.5867      0.00000
     22      13.9388      0.00000
     23      14.9930      0.00000
     24      15.2262      0.00000

 k-point    82 :       0.3333    0.2222    0.0556
  band No.  band energies     occupation 
      1      -2.2179      1.00000
      2       0.9910      1.00000
      3       2.0946      1.00000
      4       2.6433      1.00000
      5       2.8012      1.00000
      6       3.0872      1.00000
      7       3.3056      1.00000
      8       3.6192      1.00000
      9       3.8130      1.00000
     10       4.1366      1.00000
     11       4.4861      1.00000
     12       4.6228      1.00000
     13       4.6975      1.00000
     14       4.8702      1.00012
     15       4.9850      1.00193
     16       5.3321      0.94018
     17       5.4991      0.34400
     18       6.9609     -0.00000
     19       9.1681     -0.00000
     20      10.0069     -0.00000
     21      12.6279      0.00000
     22      13.2584      0.00000
     23      15.2370      0.00000
     24      15.4966      0.00000

 k-point    83 :       0.3889    0.2222    0.0556
  band No.  band energies     occupation 
      1      -1.8186      1.00000
      2       0.4773      1.00000
      3       2.2177      1.00000
      4       2.6601      1.00000
      5       2.8312      1.00000
      6       3.2148      1.00000
      7       3.3020      1.00000
      8       3.6783      1.00000
      9       3.7263      1.00000
     10       4.1230      1.00000
     11       4.3889      1.00000
     12       4.5124      1.00000
     13       4.6958      1.00000
     14       4.7898      1.00001
     15       4.9879      1.00204
     16       5.1804      1.03155
     17       5.4744      0.44597
     18       7.2808     -0.00000
     19       9.0913     -0.00000
     20       9.9365     -0.00000
     21      12.3045      0.00000
     22      13.0026      0.00000
     23      15.2962      0.00000
     24      15.8035      0.00000

 k-point    84 :       0.4444    0.2222    0.0556
  band No.  band energies     occupation 
      1      -1.4123      1.00000
      2      -0.0109      1.00000
      3       2.3060      1.00000
      4       2.6597      1.00000
      5       2.8514      1.00000
      6       3.2624      1.00000
      7       3.3772      1.00000
      8       3.6205      1.00000
      9       3.8117      1.00000
     10       4.0551      1.00000
     11       4.3324      1.00000
     12       4.4204      1.00000
     13       4.7009      1.00000
     14       4.7408      1.00000
     15       4.9942      1.00233
     16       5.0736      1.00966
     17       5.4603      0.50523
     18       7.6482     -0.00000
     19       8.6043     -0.00000
     20      10.3736     -0.00000
     21      11.7197      0.00000
     22      13.0574      0.00000
     23      15.1553      0.00000
     24      15.9305      0.00000

 k-point    85 :       0.5000    0.2222    0.0556
  band No.  band energies     occupation 
      1      -1.1778      1.00000
      2      -0.2748      1.00000
      3       2.3391      1.00000
      4       2.6565      1.00000
      5       2.8587      1.00000
      6       3.2546      1.00000
      7       3.4849      1.00000
      8       3.5397      1.00000
      9       3.9137      1.00000
     10       3.9661      1.00000
     11       4.3182      1.00000
     12       4.3812      1.00000
     13       4.7153      1.00000
     14       4.7168      1.00000
     15       5.0005      1.00265
     16       5.0288      1.00455
     17       5.4558      0.52436
     18       7.9629     -0.00000
     19       8.2361     -0.00000
     20      10.7093     -0.00000
     21      11.3387      0.00000
     22      13.0934      0.00000
     23      15.0766      0.00000
     24      15.9794      0.00000

 k-point    86 :       0.2778    0.2778    0.0556
  band No.  band energies     occupation 
      1      -2.2802      1.00000
      2       1.6172      1.00000
      3       1.6231      1.00000
      4       2.6405      1.00000
      5       2.7785      1.00000
      6       3.0371      1.00000
      7       3.3637      1.00000
      8       3.5409      1.00000
      9       3.8214      1.00000
     10       4.1368      1.00000
     11       4.6210      1.00000
     12       4.6277      1.00000
     13       4.6912      1.00000
     14       4.9071      1.00031
     15       4.9110      1.00035
     16       5.4576      0.51680
     17       5.4999      0.34086
     18       6.5596     -0.00000
     19       9.0893     -0.00000
     20       9.9550     -0.00000
     21      12.7071      0.00000
     22      14.1673      0.00000
     23      14.3068      0.00000
     24      16.0897      0.00000

 k-point    87 :       0.3333    0.2778    0.0556
  band No.  band energies     occupation 
      1      -1.9330      1.00000
      2       1.1808      1.00000
      3       1.7853      1.00000
      4       2.6839      1.00000
      5       2.7976      1.00000
      6       3.1097      1.00000
      7       3.4033      1.00000
      8       3.5384      1.00000
      9       3.7248      1.00000
     10       4.1516      1.00000
     11       4.5105      1.00000
     12       4.6135      1.00000
     13       4.6725      1.00000
     14       4.8105      1.00002
     15       4.8965      1.00024
     16       5.3625      0.86741
     17       5.4117      0.70381
     18       6.6352     -0.00000
     19       8.9615     -0.00000
     20       9.8174     -0.00000
     21      12.8167      0.00000
     22      13.5188      0.00000
     23      14.5858      0.00000
     24      16.0264      0.00000

 k-point    88 :       0.3889    0.2778    0.0556
  band No.  band energies     occupation 
      1      -1.5448      1.00000
      2       0.6953      1.00000
      3       1.9313      1.00000
      4       2.7075      1.00000
      5       2.8180      1.00000
      6       3.2133      1.00000
      7       3.3577      1.00000
      8       3.6080      1.00000
      9       3.6970      1.00000
     10       4.1371      1.00000
     11       4.4066      1.00000
     12       4.5284      1.00000
     13       4.6919      1.00000
     14       4.7361      1.00000
     15       4.8984      1.00025
     16       5.2280      1.03492
     17       5.3674      0.85372
     18       6.8405     -0.00000
     19       8.4336     -0.00000
     20      10.2034     -0.00000
     21      12.6104      0.00000
     22      13.1901      0.00000
     23      14.9302      0.00000
     24      15.7422      0.00000

 k-point    89 :       0.4444    0.2778    0.0556
  band No.  band energies     occupation 
      1      -1.1539      1.00000
      2       0.2335      1.00000
      3       2.0335      1.00000
      4       2.7150      1.00000
      5       2.8319      1.00000
      6       3.2907      1.00000
      7       3.3643      1.00000
      8       3.5582      1.00000
      9       3.8147      1.00000
     10       4.0652      1.00000
     11       4.3416      1.00000
     12       4.4467      1.00000
     13       4.6783      1.00000
     14       4.7301      1.00000
     15       4.9034      1.00029
     16       5.1270      1.01975
     17       5.3415      0.92022
     18       7.1243     -0.00000
     19       7.9311     -0.00000
     20      10.6688     -0.00000
     21      12.0554      0.00000
     22      13.2588      0.00000
     23      15.2157      0.00000
     24      15.4952      0.00000

 k-point    90 :       0.5000    0.2778    0.0556
  band No.  band energies     occupation 
      1      -0.9333      1.00000
      2      -0.0127      1.00000
      3       2.0705      1.00000
      4       2.7159      1.00000
      5       2.8368      1.00000
      6       3.2884      1.00000
      7       3.4434      1.00000
      8       3.4954      1.00000
      9       3.9321      1.00000
     10       3.9657      1.00000
     11       4.3198      1.00000
     12       4.4107      1.00000
     13       4.6755      1.00000
     14       4.7339      1.00000
     15       4.9061      1.00031
     16       5.0878      1.01193
     17       5.3329      0.93856
     18       7.4146     -0.00000
     19       7.5662     -0.00000
     20      10.9764      0.00000
     21      11.7071      0.00000
     22      13.3045      0.00000
     23      15.2904      0.00000
     24      15.4492      0.00000

 k-point    91 :       0.3333    0.3333    0.0556
  band No.  band energies     occupation 
      1      -1.5968      1.00000
      2       1.3580      1.00000
      3       1.4061      1.00000
      4       2.7210      1.00000
      5       2.8039      1.00000
      6       3.1557      1.00000
      7       3.4297      1.00000
      8       3.5417      1.00000
      9       3.6679      1.00000
     10       4.1654      1.00000
     11       4.4797      1.00000
     12       4.5710      1.00000
     13       4.6880      1.00000
     14       4.7405      1.00000
     15       4.8267      1.00003
     16       5.3194      0.96352
     17       5.3274      0.94927
     18       6.5189     -0.00000
     19       8.3766     -0.00000
     20      10.1432     -0.00000
     21      12.9994      0.00000
     22      13.6722      0.00000
     23      14.0425      0.00000
     24      16.1473      0.00000

 k-point    92 :       0.3889    0.3333    0.0556
  band No.  band energies     occupation 
      1      -1.2233      1.00000
      2       0.9329      1.00000
      3       1.5699      1.00000
      4       2.7310      1.00000
      5       2.8120      1.00000
      6       3.2298      1.00000
      7       3.3885      1.00000
      8       3.5554      1.00000
      9       3.7175      1.00000
     10       4.1455      1.00000
     11       4.4190      1.00000
     12       4.5207      1.00000
     13       4.6572      1.00000
     14       4.7157      1.00000
     15       4.8000      1.00002
     16       5.2265      1.03506
     17       5.2656      1.02288
     18       6.5765     -0.00000
     19       7.8302     -0.00000
     20      10.5698     -0.00000
     21      12.9424      0.00000
     22      13.3733      0.00000
     23      14.2697      0.00000
     24      15.9329      0.00000

 k-point    93 :       0.4444    0.3333    0.0556
  band No.  band energies     occupation 
      1      -0.8520      1.00000
      2       0.5066      1.00000
      3       1.7068      1.00000
      4       2.7247      1.00000
      5       2.8149      1.00000
      6       3.3020      1.00000
      7       3.3741      1.00000
      8       3.5193      1.00000
      9       3.8392      1.00000
     10       4.0736      1.00000
     11       4.3695      1.00000
     12       4.4584      1.00000
     13       4.6199      1.00000
     14       4.7376      1.00000
     15       4.7914      1.00001
     16       5.1472      1.02438
     17       5.2254      1.03514
     18       6.7500     -0.00000
     19       7.3764     -0.00000
     20      11.0198      0.00000
     21      12.4292      0.00000
     22      13.4597      0.00000
     23      14.5900      0.00000
     24      15.6321      0.00000

 k-point    94 :       0.5000    0.3333    0.0556
  band No.  band energies     occupation 
      1      -0.6480      1.00000
      2       0.2823      1.00000
      3       1.7583      1.00000
      4       2.7194      1.00000
      5       2.8154      1.00000
      6       3.3180      1.00000
      7       3.3990      1.00000
      8       3.4908      1.00000
      9       3.9537      1.00000
     10       3.9766      1.00000
     11       4.3499      1.00000
     12       4.4247      1.00000
     13       4.6179      1.00000
     14       4.7473      1.00000
     15       4.7880      1.00001
     16       5.1162      1.01740
     17       5.2114      1.03536
     18       6.9874     -0.00000
     19       7.0474     -0.00000
     20      11.3001      0.00000
     21      12.1096      0.00000
     22      13.5165      0.00000
     23      14.7545      0.00000
     24      15.4818      0.00000

 k-point    95 :       0.3889    0.3889    0.0556
  band No.  band energies     occupation 
      1      -0.8689      1.00000
      2       1.1343      1.00000
      3       1.1985      1.00000
      4       2.7085      1.00000
      5       2.8064      1.00000
      6       3.2784      1.00000
      7       3.3943      1.00000
      8       3.5199      1.00000
      9       3.7869      1.00000
     10       4.1262      1.00000
     11       4.4281      1.00000
     12       4.4897      1.00000
     13       4.5931      1.00000
     14       4.7146      1.00000
     15       4.7325      1.00000
     16       5.1746      1.03043
     17       5.1889      1.03302
     18       6.4875     -0.00000
     19       7.3352     -0.00000
     20      10.9856      0.00000
     21      13.2433      0.00000
     22      13.3046      0.00000
     23      13.9597      0.00000
     24      15.9161      0.00000

 k-point    96 :       0.4444    0.3889    0.0556
  band No.  band energies     occupation 
      1      -0.5221      1.00000
      2       0.7809      1.00000
      3       1.3497      1.00000
      4       2.6612      1.00000
      5       2.8000      1.00000
      6       3.3332      1.00000
      7       3.3994      1.00000
      8       3.4937      1.00000
      9       3.8831      1.00000
     10       4.0691      1.00000
     11       4.4142      1.00000
     12       4.4529      1.00000
     13       4.5531      1.00000
     14       4.6694      1.00000
     15       4.7495      1.00000
     16       5.1198      1.01816
     17       5.1367      1.02196
     18       6.5371     -0.00000
     19       6.9589     -0.00000
     20      11.4143      0.00000
     21      12.8086      0.00000
     22      13.5089      0.00000
     23      14.1267      0.00000
     24      15.6468      0.00000

 k-point    97 :       0.5000    0.3889    0.0556
  band No.  band energies     occupation 
      1      -0.3365      1.00000
      2       0.5821      1.00000
      3       1.4208      1.00000
      4       2.6357      1.00000
      5       2.7976      1.00000
      6       3.3516      1.00000
      7       3.4128      1.00000
      8       3.4788      1.00000
      9       3.9765      1.00000
     10       3.9901      1.00000
     11       4.4014      1.00000
     12       4.4257      1.00000
     13       4.5527      1.00000
     14       4.6576      1.00000
     15       4.7564      1.00000
     16       5.1035      1.01480
     17       5.1112      1.01636
     18       6.6888     -0.00000
     19       6.7027     -0.00000
     20      11.6737      0.00000
     21      12.5140      0.00000
     22      13.6015      0.00000
     23      14.2520      0.00000
     24      15.4860      0.00000

 k-point    98 :       0.4444    0.4444    0.0556
  band No.  band energies     occupation 
      1      -0.2031      1.00000
      2       0.9869      1.00000
      3       1.0282      1.00000
      4       2.5602      1.00000
      5       2.7895      1.00000
      6       3.3740      1.00000
      7       3.4270      1.00000
      8       3.4768      1.00000
      9       3.9398      1.00000
     10       4.0435      1.00000
     11       4.4328      1.00000
     12       4.4539      1.00000
     13       4.5009      1.00000
     14       4.5801      1.00000
     15       4.7577      1.00000
     16       5.0534      1.00699
     17       5.1028      1.01467
     18       6.4682     -0.00000
     19       6.6773     -0.00000
     20      11.8236      0.00000
     21      13.0782      0.00000
     22      13.1994      0.00000
     23      14.1281      0.00000
     24      15.3832      0.00000

 k-point    99 :       0.5000    0.4444    0.0556
  band No.  band energies     occupation 
      1      -0.0356      1.00000
      2       0.8314      1.00000
      3       1.1007      1.00000
      4       2.5081      1.00000
      5       2.7858      1.00000
      6       3.3885      1.00000
      7       3.4457      1.00000
      8       3.4681      1.00000
      9       3.9955      1.00000
     10       3.9999      1.00000
     11       4.4158      1.00000
     12       4.4545      1.00000
     13       4.4974      1.00000
     14       4.5518      1.00000
     15       4.7613      1.00000
     16       5.0298      1.00463
     17       5.0856      1.01156
     18       6.5169     -0.00000
     19       6.5181     -0.00000
     20      12.0740      0.00000
     21      12.8549      0.00000
     22      13.2847      0.00000
     23      14.1930      0.00000
     24      15.2237      0.00000

 k-point   100 :       0.5000    0.5000    0.0556
  band No.  band energies     occupation 
      1       0.1223      1.00000
      2       0.9356      1.00000
      3       0.9356      1.00000
      4       2.4426      1.00000
      5       2.7817      1.00000
      6       3.4027      1.00000
      7       3.4639      1.00000
      8       3.4639      1.00000
      9       4.0033      1.00000
     10       4.0033      1.00000
     11       4.4045      1.00000
     12       4.4784      1.00000
     13       4.4784      1.00000
     14       4.5122      1.00000
     15       4.7627      1.00000
     16       5.0042      1.00284
     17       5.0704      1.00920
     18       6.4617     -0.00000
     19       6.4617     -0.00000
     20      12.3344      0.00000
     21      13.0017      0.00000
     22      13.0017      0.00000
     23      14.2376      0.00000
     24      15.0734      0.00000

 k-point   101 :       0.1111    0.1111    0.1111
  band No.  band energies     occupation 
      1      -3.5932      1.00000
      2       1.7668      1.00000
      3       2.3151      1.00000
      4       2.3151      1.00000
      5       2.7315      1.00000
      6       2.9063      1.00000
      7       2.9063      1.00000
      8       4.0206      1.00000
      9       4.3742      1.00000
     10       4.3742      1.00000
     11       4.9395      1.00070
     12       4.9395      1.00070
     13       5.0681      1.00887
     14       5.0681      1.00887
     15       5.3015      0.99016
     16       5.7117     -0.03536
     17       6.2363     -0.00000
     18       6.8104     -0.00000
     19       6.8104     -0.00000
     20      12.6527      0.00000
     21      12.6527      0.00000
     22      13.1812      0.00000
     23      14.8860      0.00000
     24      15.3133      0.00000

 k-point   102 :       0.1667    0.1111    0.1111
  band No.  band energies     occupation 
      1      -3.4190      1.00000
      2       1.7809      1.00000
      3       2.1910      1.00000
      4       2.4188      1.00000
      5       2.7135      1.00000
      6       2.9239      1.00000
      7       2.9708      1.00000
      8       3.9206      1.00000
      9       4.2776      1.00000
     10       4.3876      1.00000
     11       4.7212      1.00000
     12       4.9125      1.00036
     13       4.9748      1.00155
     14       5.0441      1.00597
     15       5.2396      1.03310
     16       5.6938     -0.03478
     17       6.0155     -0.00032
     18       6.9354     -0.00000
     19       7.0820     -0.00000
     20      12.6663      0.00000
     21      12.9927      0.00000
     22      13.8562      0.00000
     23      14.1612      0.00000
     24      14.4527      0.00000

 k-point   103 :       0.2222    0.1111    0.1111
  band No.  band energies     occupation 
      1      -3.1779      1.00000
      2       1.6395      1.00000
      3       2.1296      1.00000
      4       2.5515      1.00000
      5       2.7050      1.00000
      6       2.9514      1.00000
      7       3.0397      1.00000
      8       3.8385      1.00000
      9       4.1708      1.00000
     10       4.3355      1.00000
     11       4.5362      1.00000
     12       4.8518      1.00007
     13       4.8753      1.00014
     14       5.0328      1.00489
     15       5.1786      1.03122
     16       5.6742     -0.03051
     17       5.6785     -0.03185
     18       7.2830     -0.00000
     19       7.4079     -0.00000
     20      12.6033      0.00000
     21      13.1371      0.00000
     22      13.3393      0.00000
     23      13.7388      0.00000
     24      14.8629      0.00000

 k-point   104 :       0.2778    0.1111    0.1111
  band No.  band energies     occupation 
      1      -2.8731      1.00000
      2       1.2717      1.00000
      3       2.1924      1.00000
      4       2.6933      1.00000
      5       2.7022      1.00000
      6       2.9980      1.00000
      7       3.1056      1.00000
      8       3.7831      1.00000
      9       4.0647      1.00000
     10       4.2024      1.00000
     11       4.4591      1.00000
     12       4.7602      1.00000
     13       4.7780      1.00001
     14       5.0193      1.00381
     15       5.1201      1.01822
     16       5.3973      0.75692
     17       5.6561     -0.02209
     18       7.7004     -0.00000
     19       7.7716     -0.00000
     20      12.2676      0.00000
     21      12.5278      0.00000
     22      13.3204      0.00000
     23      13.3813      0.00000
     24      15.6525      0.00000

 k-point   105 :       0.3333    0.1111    0.1111
  band No.  band energies     occupation 
      1      -2.5101      1.00000
      2       0.7802      1.00000
      3       2.2976      1.00000
      4       2.6984      1.00000
      5       2.8065      1.00000
      6       3.0883      1.00000
      7       3.1588      1.00000
      8       3.7606      1.00000
      9       3.9633      1.00000
     10       4.0883      1.00000
     11       4.4167      1.00000
     12       4.6378      1.00000
     13       4.7132      1.00000
     14       4.9675      1.00132
     15       5.0885      1.01205
     16       5.1840      1.03221
     17       5.6418     -0.01161
     18       8.1615     -0.00000
     19       8.1622     -0.00000
     20      11.6878      0.00000
     21      11.7786      0.00000
     22      13.3555      0.00000
     23      13.5084      0.00000
     24      15.9095      0.00000

 k-point   106 :       0.3889    0.1111    0.1111
  band No.  band energies     occupation 
      1      -2.1006      1.00000
      2       0.2416      1.00000
      3       2.4077      1.00000
      4       2.6848      1.00000
      5       2.8660      1.00000
      6       3.1931      1.00000
      7       3.2299      1.00000
      8       3.7750      1.00000
      9       3.8646      1.00000
     10       4.0190      1.00000
     11       4.3804      1.00000
     12       4.5225      1.00000
     13       4.6732      1.00000
     14       4.8795      1.00015
     15       5.0312      1.00475
     16       5.0835      1.01121
     17       5.6319     -0.00215
     18       8.5628     -0.00000
     19       8.6618     -0.00000
     20      11.0739      0.00000
     21      11.0913      0.00000
     22      13.4328      0.00000
     23      13.7192      0.00000
     24      15.6574      0.00000

 k-point   107 :       0.4444    0.1111    0.1111
  band No.  band energies     occupation 
      1      -1.6799      1.00000
      2      -0.2704      1.00000
      3       2.5052      1.00000
      4       2.6538      1.00000
      5       2.8910      1.00000
      6       3.2109      1.00000
      7       3.3793      1.00000
      8       3.7673      1.00000
      9       3.8158      1.00000
     10       3.9751      1.00000
     11       4.3580      1.00000
     12       4.4316      1.00000
     13       4.6695      1.00000
     14       4.7881      1.00001
     15       4.9372      1.00066
     16       5.0845      1.01137
     17       5.6263      0.00414
     18       8.9343     -0.00000
     19       9.1951     -0.00000
     20      10.4179     -0.00000
     21      10.5915     -0.00000
     22      13.5139      0.00000
     23      13.9186      0.00000
     24      15.3452      0.00000

 k-point   108 :       0.5000    0.1111    0.1111
  band No.  band energies     occupation 
      1      -1.4315      1.00000
      2      -0.5515      1.00000
      3       2.5637      1.00000
      4       2.6187      1.00000
      5       2.8980      1.00000
      6       3.2165      1.00000
      7       3.4593      1.00000
      8       3.7092      1.00000
      9       3.8438      1.00000
     10       3.9525      1.00000
     11       4.3582      1.00000
     12       4.3885      1.00000
     13       4.6932      1.00000
     14       4.7293      1.00000
     15       4.9052      1.00030
     16       5.0852      1.01149
     17       5.6245      0.00630
     18       9.1212     -0.00000
     19       9.6624     -0.00000
     20       9.9098     -0.00000
     21      10.3606     -0.00000
     22      13.5477      0.00000
     23      14.0132      0.00000
     24      15.2063      0.00000

 k-point   109 :       0.1667    0.1667    0.1111
  band No.  band energies     occupation 
      1      -3.2465      1.00000
      2       1.8191      1.00000
      3       2.1664      1.00000
      4       2.4055      1.00000
      5       2.6866      1.00000
      6       2.9584      1.00000
      7       3.0246      1.00000
      8       3.8249      1.00000
      9       4.2333      1.00000
     10       4.3231      1.00000
     11       4.6417      1.00000
     12       4.8254      1.00003
     13       4.9393      1.00069
     14       5.0048      1.00288
     15       5.1612      1.02756
     16       5.6743     -0.03053
     17       6.0640     -0.00009
     18       6.7482     -0.00000
     19       7.2723     -0.00000
     20      12.7679      0.00000
     21      13.4790      0.00000
     22      13.6314      0.00000
     23      14.0420      0.00000
     24      14.5441      0.00000

 k-point   110 :       0.2222    0.1667    0.1111
  band No.  band energies     occupation 
      1      -3.0077      1.00000
      2       1.7226      1.00000
      3       2.1020      1.00000
      4       2.5007      1.00000
      5       2.6766      1.00000
      6       2.9863      1.00000
      7       3.0971      1.00000
      8       3.7484      1.00000
      9       4.1436      1.00000
     10       4.2167      1.00000
     11       4.5620      1.00000
     12       4.7765      1.00001
     13       4.8610      1.00009
     14       4.9908      1.00217
     15       5.0888      1.01211
     16       5.6474     -0.01613
     17       5.8225     -0.01425
     18       6.8853     -0.00000
     19       7.5797     -0.00000
     20      12.3405      0.00000
     21      13.0958      0.00000
     22      13.6096      0.00000
     23      14.1099      0.00000
     24      14.6142      0.00000

 k-point   111 :       0.2778    0.1667    0.1111
  band No.  band energies     occupation 
      1      -2.7061      1.00000
      2       1.3748      1.00000
      3       2.1630      1.00000
      4       2.6163      1.00000
      5       2.6926      1.00000
      6       3.0281      1.00000
      7       3.1658      1.00000
      8       3.7008      1.00000
      9       4.0258      1.00000
     10       4.1107      1.00000
     11       4.5146      1.00000
     12       4.7257      1.00000
     13       4.7593      1.00000
     14       4.9788      1.00169
     15       5.0309      1.00472
     16       5.5278      0.23608
     17       5.6221      0.00931
     18       7.1856     -0.00000
     19       7.9347     -0.00000
     20      11.6196      0.00000
     21      12.6352      0.00000
     22      13.4195      0.00000
     23      14.2419      0.00000
     24      14.9680      0.00000

 k-point   112 :       0.3333    0.1667    0.1111
  band No.  band energies     occupation 
      1      -2.3474      1.00000
      2       0.8983      1.00000
      3       2.2633      1.00000
      4       2.6529      1.00000
      5       2.7783      1.00000
      6       3.1036      1.00000
      7       3.2153      1.00000
      8       3.6935      1.00000
      9       3.9035      1.00000
     10       4.0396      1.00000
     11       4.4720      1.00000
     12       4.6427      1.00000
     13       4.6889      1.00000
     14       4.9239      1.00048
     15       5.0153      1.00354
     16       5.2924      1.00082
     17       5.5940      0.05399
     18       7.5396     -0.00000
     19       8.3221     -0.00000
     20      10.9221      0.00000
     21      11.9538      0.00000
     22      13.5215      0.00000
     23      14.4331      0.00000
     24      15.3222      0.00000

 k-point   113 :       0.3889    0.1667    0.1111
  band No.  band energies     occupation 
      1      -1.9438      1.00000
      2       0.3738      1.00000
      3       2.3611      1.00000
      4       2.6523      1.00000
      5       2.8512      1.00000
      6       3.2150      1.00000
      7       3.2529      1.00000
      8       3.7306      1.00000
      9       3.7950      1.00000
     10       3.9846      1.00000
     11       4.4304      1.00000
     12       4.5399      1.00000
     13       4.6664      1.00000
     14       4.8452      1.00006
     15       5.0184      1.00375
     16       5.1193      1.01805
     17       5.5733      0.09942
     18       7.9224     -0.00000
     19       8.7159     -0.00000
     20      10.3144     -0.00000
     21      11.2979      0.00000
     22      13.6738      0.00000
     23      14.6430      0.00000
     24      15.6558      0.00000

 k-point   114 :       0.4444    0.1667    0.1111
  band No.  band energies     occupation 
      1      -1.5315      1.00000
      2      -0.1246      1.00000
      3       2.4373      1.00000
      4       2.6393      1.00000
      5       2.8864      1.00000
      6       3.2409      1.00000
      7       3.3876      1.00000
      8       3.6837      1.00000
      9       3.7963      1.00000
     10       3.9351      1.00000
     11       4.3960      1.00000
     12       4.4654      1.00000
     13       4.6723      1.00000
     14       4.7693      1.00001
     15       5.0052      1.00290
     16       5.0264      1.00435
     17       5.5606      0.13254
     18       8.3084     -0.00000
     19       9.0089     -0.00000
     20       9.9082     -0.00000
     21      10.7266     -0.00000
     22      13.8081      0.00000
     23      14.8386      0.00000
     24      15.7246      0.00000

 k-point   115 :       0.5000    0.1667    0.1111
  band No.  band energies     occupation 
      1      -1.2913      1.00000
      2      -0.3956      1.00000
      3       2.4692      1.00000
      4       2.6292      1.00000
      5       2.8966      1.00000
      6       3.2441      1.00000
      7       3.5006      1.00000
      8       3.5903      1.00000
      9       3.8427      1.00000
     10       3.8992      1.00000
     11       4.3809      1.00000
     12       4.4385      1.00000
     13       4.7060      1.00000
     14       4.7117      1.00000
     15       4.9686      1.00135
     16       5.0257      1.00430
     17       5.5564      0.14447
     18       8.5467     -0.00000
     19       9.0105     -0.00000
     20       9.8787     -0.00000
     21      10.4159     -0.00000
     22      13.8637      0.00000
     23      14.9351      0.00000
     24      15.6220      0.00000

 k-point   116 :       0.2222    0.2222    0.1111
  band No.  band energies     occupation 
      1      -2.7724      1.00000
      2       1.7819      1.00000
      3       1.9556      1.00000
      4       2.5265      1.00000
      5       2.6735      1.00000
      6       3.0115      1.00000
      7       3.1769      1.00000
      8       3.6707      1.00000
      9       4.0658      1.00000
     10       4.1068      1.00000
     11       4.5810      1.00000
     12       4.7192      1.00000
     13       4.8212      1.00003
     14       4.9548      1.00099
     15       4.9973      1.00248
     16       5.6122      0.02285
     17       5.8262     -0.01356
     18       6.6632     -0.00000
     19       7.8575     -0.00000
     20      11.5764      0.00000
     21      13.1611      0.00000
     22      13.8576      0.00000
     23      13.8943      0.00000
     24      14.9575      0.00000

 k-point   117 :       0.2778    0.2222    0.1111
  band No.  band energies     occupation 
      1      -2.4755      1.00000
      2       1.5063      1.00000
      3       1.9923      1.00000
      4       2.6097      1.00000
      5       2.6954      1.00000
      6       3.0457      1.00000
      7       3.2539      1.00000
      8       3.6189      1.00000
      9       3.9269      1.00000
     10       4.0669      1.00000
     11       4.5682      1.00000
     12       4.6796      1.00000
     13       4.7470      1.00000
     14       4.9156      1.00039
     15       4.9421      1.00074
     16       5.5648      0.12119
     17       5.6337     -0.00397
     18       6.7599     -0.00000
     19       8.1727     -0.00000
     20      10.8298     -0.00000
     21      12.8957      0.00000
     22      13.5220      0.00000
     23      14.1765      0.00000
     24      15.3075      0.00000

 k-point   118 :       0.3333    0.2222    0.1111
  band No.  band energies     occupation 
      1      -2.1231      1.00000
      2       1.0533      1.00000
      3       2.1002      1.00000
      4       2.6653      1.00000
      5       2.7634      1.00000
      6       3.1056      1.00000
      7       3.3000      1.00000
      8       3.6180      1.00000
      9       3.8134      1.00000
     10       4.0297      1.00000
     11       4.5137      1.00000
     12       4.6567      1.00000
     13       4.6699      1.00000
     14       4.8458      1.00006
     15       4.9398      1.00070
     16       5.3837      0.80334
     17       5.5416      0.18945
     18       7.0079     -0.00000
     19       8.4884     -0.00000
     20      10.1871     -0.00000
     21      12.2234      0.00000
     22      13.6494      0.00000
     23      14.5185      0.00000
     24      15.5357      0.00000

 k-point   119 :       0.3889    0.2222    0.1111
  band No.  band energies     occupation 
      1      -1.7281      1.00000
      2       0.5505      1.00000
      3       2.1925      1.00000
      4       2.6893      1.00000
      5       2.8352      1.00000
      6       3.2021      1.00000
      7       3.3122      1.00000
      8       3.6593      1.00000
      9       3.7394      1.00000
     10       3.9842      1.00000
     11       4.4502      1.00000
     12       4.5780      1.00000
     13       4.6651      1.00000
     14       4.7854      1.00001
     15       4.9421      1.00074
     16       5.1988      1.03438
     17       5.5069      0.31336
     18       7.3180     -0.00000
     19       8.6786     -0.00000
     20       9.7814     -0.00000
     21      11.5664      0.00000
     22      13.8309      0.00000
     23      14.8866      0.00000
     24      15.7449      0.00000

 k-point   120 :       0.4444    0.2222    0.1111
  band No.  band energies     occupation 
      1      -1.3280      1.00000
      2       0.0725      1.00000
      3       2.2528      1.00000
      4       2.7013      1.00000
      5       2.8756      1.00000
      6       3.2731      1.00000
      7       3.3673      1.00000
      8       3.6070      1.00000
      9       3.7866      1.00000
     10       3.9281      1.00000
     11       4.3983      1.00000
     12       4.5185      1.00000
     13       4.6680      1.00000
     14       4.7453      1.00000
     15       4.9451      1.00080
     16       5.0764      1.01009
     17       5.4850      0.40135
     18       7.6630     -0.00000
     19       8.5111     -0.00000
     20       9.8360     -0.00000
     21      10.9926      0.00000
     22      13.9871      0.00000
     23      15.2387      0.00000
     24      15.8724      0.00000

 k-point   121 :       0.5000    0.2222    0.1111
  band No.  band energies     occupation 
      1      -1.0994      1.00000
      2      -0.1840      1.00000
      3       2.2737      1.00000
      4       2.7046      1.00000
      5       2.8882      1.00000
      6       3.2789      1.00000
      7       3.4647      1.00000
      8       3.5249      1.00000
      9       3.8573      1.00000
     10       3.8691      1.00000
     11       4.3779      1.00000
     12       4.4928      1.00000
     13       4.6755      1.00000
     14       4.7295      1.00000
     15       4.9468      1.00083
     16       5.0315      1.00477
     17       5.4775      0.43258
     18       7.9251     -0.00000
     19       8.2573     -0.00000
     20      10.0304     -0.00000
     21      10.6751     -0.00000
     22      14.0518      0.00000
     23      15.4383      0.00000
     24      15.8154      0.00000

 k-point   122 :       0.2778    0.2778    0.1111
  band No.  band energies     occupation 
      1      -2.1851      1.00000
      2       1.6207      1.00000
      3       1.6992      1.00000
      4       2.6685      1.00000
      5       2.7151      1.00000
      6       3.0675      1.00000
      7       3.3475      1.00000
      8       3.5501      1.00000
      9       3.8196      1.00000
     10       4.0496      1.00000
     11       4.6093      1.00000
     12       4.6218      1.00000
     13       4.7153      1.00000
     14       4.8237      1.00003
     15       4.9020      1.00028
     16       5.5173      0.27394
     17       5.5959      0.05030
     18       6.5771     -0.00000
     19       8.4122     -0.00000
     20      10.1421     -0.00000
     21      13.1243      0.00000
     22      13.3338      0.00000
     23      13.8305      0.00000
     24      16.2724      0.00000

 k-point   123 :       0.3333    0.2778    0.1111
  band No.  band energies     occupation 
      1      -1.8415      1.00000
      2       1.2328      1.00000
      3       1.8057      1.00000
      4       2.7120      1.00000
      5       2.7745      1.00000
      6       3.1089      1.00000
      7       3.3957      1.00000
      8       3.5409      1.00000
      9       3.7406      1.00000
     10       4.0310      1.00000
     11       4.5410      1.00000
     12       4.6334      1.00000
     13       4.6759      1.00000
     14       4.7496      1.00000
     15       4.8829      1.00017
     16       5.4169      0.68378
     17       5.4824      0.41226
     18       6.6451     -0.00000
     19       8.5200     -0.00000
     20       9.7064     -0.00000
     21      12.5423      0.00000
     22      13.5472      0.00000
     23      14.0197      0.00000
     24      16.5477      0.00000

 k-point   124 :       0.3889    0.2778    0.1111
  band No.  band energies     occupation 
      1      -1.4583      1.00000
      2       0.7615      1.00000
      3       1.9260      1.00000
      4       2.7378      1.00000
      5       2.8328      1.00000
      6       3.1816      1.00000
      7       3.3790      1.00000
      8       3.5767      1.00000
      9       3.7261      1.00000
     10       3.9958      1.00000
     11       4.4634      1.00000
     12       4.6026      1.00000
     13       4.6476      1.00000
     14       4.7252      1.00000
     15       4.8712      1.00012
     16       5.2469      1.03116
     17       5.4326      0.62098
     18       6.8484     -0.00000
     19       8.2894     -0.00000
     20       9.7331     -0.00000
     21      11.8870      0.00000
     22      13.8478      0.00000
     23      14.2971      0.00000
     24      16.3252      0.00000

 k-point   125 :       0.4444    0.2778    0.1111
  band No.  band energies     occupation 
      1      -1.0747      1.00000
      2       0.3123      1.00000
      3       2.0055      1.00000
      4       2.7549      1.00000
      5       2.8644      1.00000
      6       3.2657      1.00000
      7       3.3694      1.00000
      8       3.5497      1.00000
      9       3.7982      1.00000
     10       3.9429      1.00000
     11       4.4067      1.00000
     12       4.5376      1.00000
     13       4.6418      1.00000
     14       4.7366      1.00000
     15       4.8610      1.00009
     16       5.1247      1.01924
     17       5.4013      0.74274
     18       7.1237     -0.00000
     19       7.8894     -0.00000
     20      10.0359     -0.00000
     21      11.3181      0.00000
     22      14.0715      0.00000
     23      14.6108      0.00000
     24      15.9345      0.00000

 k-point   126 :       0.5000    0.2778    0.1111
  band No.  band energies     occupation 
      1      -0.8611      1.00000
      2       0.0748      1.00000
      3       2.0330      1.00000
      4       2.7605      1.00000
      5       2.8742      1.00000
      6       3.3001      1.00000
      7       3.3828      1.00000
      8       3.5197      1.00000
      9       3.8767      1.00000
     10       3.8798      1.00000
     11       4.3875      1.00000
     12       4.5019      1.00000
     13       4.6473      1.00000
     14       4.7432      1.00000
     15       4.8563      1.00008
     16       5.0800      1.01065
     17       5.3902      0.78161
     18       7.3816     -0.00000
     19       7.5783     -0.00000
     20      10.2652     -0.00000
     21      11.0119      0.00000
     22      14.1560      0.00000
     23      14.7925      0.00000
     24      15.7221      0.00000

 k-point   127 :       0.3333    0.3333    0.1111
  band No.  band energies     occupation 
      1      -1.5097      1.00000
      2       1.4037      1.00000
      3       1.4369      1.00000
      4       2.7305      1.00000
      5       2.8210      1.00000
      6       3.1320      1.00000
      7       3.4736      1.00000
      8       3.4829      1.00000
      9       3.7084      1.00000
     10       4.0281      1.00000
     11       4.5527      1.00000
     12       4.5719      1.00000
     13       4.6518      1.00000
     14       4.7059      1.00000
     15       4.8453      1.00006
     16       5.3793      0.81754
     17       5.3928      0.77290
     18       6.5050     -0.00000
     19       8.2168     -0.00000
     20       9.6949     -0.00000
     21      12.8970      0.00000
     22      12.9037      0.00000
     23      14.1530      0.00000
     24      16.4766      0.00000

 k-point   128 :       0.3889    0.3333    0.1111
  band No.  band energies     occupation 
      1      -1.1424      1.00000
      2       0.9901      1.00000
      3       1.5885      1.00000
      4       2.7369      1.00000
      5       2.8508      1.00000
      6       3.1889      1.00000
      7       3.4328      1.00000
      8       3.5145      1.00000
      9       3.7459      1.00000
     10       4.0079      1.00000
     11       4.4825      1.00000
     12       4.5627      1.00000
     13       4.5988      1.00000
     14       4.7190      1.00000
     15       4.8164      1.00003
     16       5.2478      1.03087
     17       5.3426      0.91774
     18       6.5570     -0.00000
     19       7.7630     -0.00000
     20       9.9724     -0.00000
     21      12.2484      0.00000
     22      13.2749      0.00000
     23      14.3766      0.00000
     24      15.9744      0.00000

 k-point   129 :       0.4444    0.3333    0.1111
  band No.  band energies     occupation 
      1      -0.7804      1.00000
      2       0.5798      1.00000
      3       1.7081      1.00000
      4       2.7400      1.00000
      5       2.8573      1.00000
      6       3.2575      1.00000
      7       3.4109      1.00000
      8       3.5050      1.00000
      9       3.8302      1.00000
     10       3.9673      1.00000
     11       4.4276      1.00000
     12       4.5014      1.00000
     13       4.6106      1.00000
     14       4.7356      1.00000
     15       4.7877      1.00001
     16       5.1419      1.02314
     17       5.3051      0.98534
     18       6.7291     -0.00000
     19       7.3425     -0.00000
     20      10.3337     -0.00000
     21      11.6872      0.00000
     22      13.6066      0.00000
     23      14.5998      0.00000
     24      15.4929      0.00000

 k-point   130 :       0.5000    0.3333    0.1111
  band No.  band energies     occupation 
      1      -0.5849      1.00000
      2       0.3662      1.00000
      3       1.7519      1.00000
      4       2.7406      1.00000
      5       2.8575      1.00000
      6       3.2903      1.00000
      7       3.4047      1.00000
      8       3.4948      1.00000
      9       3.9084      1.00000
     10       3.9099      1.00000
     11       4.4148      1.00000
     12       4.4624      1.00000
     13       4.6207      1.00000
     14       4.7520      1.00000
     15       4.7665      1.00001
     16       5.1032      1.01474
     17       5.2912      1.00217
     18       6.9506     -0.00000
     19       7.0378     -0.00000
     20      10.5629     -0.00000
     21      11.3937      0.00000
     22      13.7562      0.00000
     23      14.7338      0.00000
     24      15.2448      0.00000

 k-point   131 :       0.3889    0.3889    0.1111
  band No.  band energies     occupation 
      1      -0.7962      1.00000
      2       1.2058      1.00000
      3       1.2145      1.00000
      4       2.6980      1.00000
      5       2.8527      1.00000
      6       3.2428      1.00000
      7       3.4565      1.00000
      8       3.4798      1.00000
      9       3.8013      1.00000
     10       4.0082      1.00000
     11       4.4718      1.00000
     12       4.5209      1.00000
     13       4.5483      1.00000
     14       4.7365      1.00000
     15       4.7662      1.00001
     16       5.1971      1.03417
     17       5.2546      1.02839
     18       6.4536     -0.00000
     19       7.2910     -0.00000
     20      10.3148     -0.00000
     21      12.5758      0.00000
     22      12.6901      0.00000
     23      14.5909      0.00000
     24      15.4372      0.00000

 k-point   132 :       0.4444    0.3889    0.1111
  band No.  band energies     occupation 
      1      -0.4616      1.00000
      2       0.8483      1.00000
      3       1.3799      1.00000
      4       2.6473      1.00000
      5       2.8452      1.00000
      6       3.3079      1.00000
      7       3.4509      1.00000
      8       3.4725      1.00000
      9       3.8765      1.00000
     10       3.9878      1.00000
     11       4.4192      1.00000
     12       4.4829      1.00000
     13       4.5637      1.00000
     14       4.7098      1.00000
     15       4.7518      1.00000
     16       5.1252      1.01935
     17       5.2057      1.03503
     18       6.4997     -0.00000
     19       6.9213     -0.00000
     20      10.6882     -0.00000
     21      12.0749      0.00000
     22      12.9860      0.00000
     23      14.7363      0.00000
     24      15.0183      0.00000

 k-point   133 :       0.5000    0.3889    0.1111
  band No.  band energies     occupation 
      1      -0.2869      1.00000
      2       0.6630      1.00000
      3       1.4462      1.00000
      4       2.6226      1.00000
      5       2.8419      1.00000
      6       3.3365      1.00000
      7       3.4501      1.00000
      8       3.4676      1.00000
      9       3.9406      1.00000
     10       3.9469      1.00000
     11       4.4013      1.00000
     12       4.4584      1.00000
     13       4.5790      1.00000
     14       4.6842      1.00000
     15       4.7558      1.00000
     16       5.0963      1.01344
     17       5.1888      1.03301
     18       6.6465     -0.00000
     19       6.6712     -0.00000
     20      10.9125     -0.00000
     21      11.7921      0.00000
     22      13.1483      0.00000
     23      14.6762      0.00000
     24      14.9539      0.00000

 k-point   134 :       0.4444    0.4444    0.1111
  band No.  band energies     occupation 
      1      -0.1597      1.00000
      2       1.0676      1.00000
      3       1.0688      1.00000
      4       2.5301      1.00000
      5       2.8347      1.00000
      6       3.3759      1.00000
      7       3.4509      1.00000
      8       3.4780      1.00000
      9       3.9286      1.00000
     10       3.9916      1.00000
     11       4.3684      1.00000
     12       4.5172      1.00000
     13       4.5229      1.00000
     14       4.6429      1.00000
     15       4.7541      1.00000
     16       5.0894      1.01221
     17       5.1366      1.02192
     18       6.4234     -0.00000
     19       6.6347     -0.00000
     20      11.0626      0.00000
     21      12.3793      0.00000
     22      12.4884      0.00000
     23      14.4004      0.00000
     24      15.0832      0.00000

 k-point   135 :       0.5000    0.4444    0.1111
  band No.  band energies     occupation 
      1      -0.0070      1.00000
      2       0.9115      1.00000
      3       1.1591      1.00000
      4       2.4735      1.00000
      5       2.8310      1.00000
      6       3.4061      1.00000
      7       3.4483      1.00000
      8       3.4827      1.00000
      9       3.9697      1.00000
     10       3.9732      1.00000
     11       4.3471      1.00000
     12       4.5048      1.00000
     13       4.5386      1.00000
     14       4.6073      1.00000
     15       4.7556      1.00000
     16       5.0705      1.00921
     17       5.1140      1.01692
     18       6.4703     -0.00000
     19       6.4736     -0.00000
     20      11.2864      0.00000
     21      12.1483      0.00000
     22      12.6028      0.00000
     23      14.2010      0.00000
     24      15.1601      0.00000

 k-point   136 :       0.5000    0.5000    0.1111
  band No.  band energies     occupation 
      1       0.1326      1.00000
      2       1.0164      1.00000
      3       1.0164      1.00000
      4       2.4009      1.00000
      5       2.8270      1.00000
      6       3.4415      1.00000
      7       3.4415      1.00000
      8       3.4910      1.00000
      9       3.9825      1.00000
     10       3.9825      1.00000
     11       4.3248      1.00000
     12       4.5265      1.00000
     13       4.5265      1.00000
     14       4.5674      1.00000
     15       4.7546      1.00000
     16       5.0554      1.00723
     17       5.0884      1.01203
     18       6.4135     -0.00000
     19       6.4135     -0.00000
     20      11.5176      0.00000
     21      12.3132      0.00000
     22      12.3132      0.00000
     23      13.9948      0.00000
     24      15.2465      0.00000

 k-point   137 :       0.1667    0.1667    0.1667
  band No.  band energies     occupation 
      1      -3.0757      1.00000
      2       1.8537      1.00000
      3       2.2744      1.00000
      4       2.2744      1.00000
      5       2.6499      1.00000
      6       3.0369      1.00000
      7       3.0369      1.00000
      8       3.7425      1.00000
      9       4.2158      1.00000
     10       4.2158      1.00000
     11       4.6767      1.00000
     12       4.6767      1.00000
     13       4.9435      1.00077
     14       4.9435      1.00077
     15       5.0722      1.00946
     16       5.6714     -0.02952
     17       6.1677     -0.00000
     18       6.9261     -0.00000
     19       6.9261     -0.00000
     20      13.3562      0.00000
     21      13.3562      0.00000
     22      13.3819      0.00000
     23      14.0774      0.00000
     24      14.0774      0.00000

 k-point   138 :       0.2222    0.1667    0.1667
  band No.  band energies     occupation 
      1      -2.8395      1.00000
      2       1.7838      1.00000
      3       2.1482      1.00000
      4       2.4145      1.00000
      5       2.6383      1.00000
      6       3.0561      1.00000
      7       3.1167      1.00000
      8       3.6813      1.00000
      9       4.1062      1.00000
     10       4.1293      1.00000
     11       4.5869      1.00000
     12       4.6888      1.00000
     13       4.8626      1.00010
     14       4.9470      1.00083
     15       4.9904      1.00215
     16       5.6528     -0.01997
     17       5.9731     -0.00089
     18       6.9748     -0.00000
     19       7.1484     -0.00000
     20      12.6162      0.00000
     21      12.6248      0.00000
     22      13.7227      0.00000
     23      14.0853      0.00000
     24      14.3021      0.00000

 k-point   139 :       0.2778    0.1667    0.1667
  band No.  band energies     occupation 
      1      -2.5414      1.00000
      2       1.4657      1.00000
      3       2.1635      1.00000
      4       2.5729      1.00000
      5       2.6454      1.00000
      6       3.0864      1.00000
      7       3.1864      1.00000
      8       3.6511      1.00000
      9       3.9969      1.00000
     10       4.0197      1.00000
     11       4.5433      1.00000
     12       4.6787      1.00000
     13       4.7682      1.00001
     14       4.9241      1.00048
     15       4.9496      1.00088
     16       5.6230      0.00809
     17       5.6587     -0.02357
     18       7.2691     -0.00000
     19       7.4014     -0.00000
     20      11.8375      0.00000
     21      11.8654      0.00000
     22      14.0646      0.00000
     23      14.2282      0.00000
     24      14.4862      0.00000

 k-point   140 :       0.3333    0.1667    0.1667
  band No.  band energies     occupation 
      1      -2.1874      1.00000
      2       1.0081      1.00000
      3       2.2279      1.00000
      4       2.6634      1.00000
      5       2.7256      1.00000
      6       3.1387      1.00000
      7       3.2328      1.00000
      8       3.6612      1.00000
      9       3.8878      1.00000
     10       3.9367      1.00000
     11       4.5097      1.00000
     12       4.6574      1.00000
     13       4.6733      1.00000
     14       4.8688      1.00011
     15       4.9520      1.00093
     16       5.3856      0.79726
     17       5.5892      0.06363
     18       7.6453     -0.00000
     19       7.6726     -0.00000
     20      11.1045      0.00000
     21      11.1795      0.00000
     22      14.4097      0.00000
     23      14.4300      0.00000
     24      14.7015      0.00000

 k-point   141 :       0.3889    0.1667    0.1667
  band No.  band energies     occupation 
      1      -1.7902      1.00000
      2       0.5001      1.00000
      3       2.2875      1.00000
      4       2.6828      1.00000
      5       2.8391      1.00000
      6       3.2312      1.00000
      7       3.2571      1.00000
      8       3.7083      1.00000
      9       3.7755      1.00000
     10       3.8861      1.00000
     11       4.4685      1.00000
     12       4.5989      1.00000
     13       4.6427      1.00000
     14       4.8143      1.00002
     15       4.9549      1.00100
     16       5.1788      1.03125
     17       5.5588      0.13745
     18       7.9445     -0.00000
     19       8.0657     -0.00000
     20      10.4323     -0.00000
     21      10.6024     -0.00000
     22      14.5943      0.00000
     23      14.7947      0.00000
     24      14.9562      0.00000

 k-point   142 :       0.4444    0.1667    0.1667
  band No.  band energies     occupation 
      1      -1.3871      1.00000
      2       0.0170      1.00000
      3       2.3270      1.00000
      4       2.6954      1.00000
      5       2.8974      1.00000
      6       3.2720      1.00000
      7       3.3618      1.00000
      8       3.6556      1.00000
      9       3.7681      1.00000
     10       3.8524      1.00000
     11       4.4259      1.00000
     12       4.5578      1.00000
     13       4.6460      1.00000
     14       4.7611      1.00000
     15       4.9574      1.00105
     16       5.0464      1.00621
     17       5.5383      0.20034
     18       8.1756     -0.00000
     19       8.5014     -0.00000
     20       9.8460     -0.00000
     21      10.1844     -0.00000
     22      14.7398      0.00000
     23      15.0644      0.00000
     24      15.2698      0.00000

 k-point   143 :       0.5000    0.1667    0.1667
  band No.  band energies     occupation 
      1      -1.1560      1.00000
      2      -0.2429      1.00000
      3       2.3407      1.00000
      4       2.6992      1.00000
      5       2.9139      1.00000
      6       3.2784      1.00000
      7       3.4716      1.00000
      8       3.5547      1.00000
      9       3.8117      1.00000
     10       3.8230      1.00000
     11       4.4076      1.00000
     12       4.5450      1.00000
     13       4.6563      1.00000
     14       4.7324      1.00000
     15       4.9583      1.00108
     16       5.0000      1.00262
     17       5.5311      0.22467
     18       8.2759     -0.00000
     19       8.7778     -0.00000
     20       9.5194     -0.00000
     21      10.0213     -0.00000
     22      14.7966      0.00000
     23      15.1646      0.00000
     24      15.4786      0.00000

 k-point   144 :       0.2222    0.2222    0.1667
  band No.  band energies     occupation 
      1      -2.6070      1.00000
      2       1.8044      1.00000
      3       2.0712      1.00000
      4       2.4181      1.00000
      5       2.6408      1.00000
      6       3.0925      1.00000
      7       3.1767      1.00000
      8       3.6281      1.00000
      9       4.0150      1.00000
     10       4.0437      1.00000
     11       4.5953      1.00000
     12       4.6499      1.00000
     13       4.8365      1.00005
     14       4.8938      1.00022
     15       4.9123      1.00036
     16       5.6389     -0.00899
     17       5.9919     -0.00057
     18       6.7612     -0.00000
     19       7.2851     -0.00000
     20      11.8104      0.00000
     21      12.8585      0.00000
     22      12.9614      0.00000
     23      14.3045      0.00000
     24      15.0803      0.00000

 k-point   145 :       0.2778    0.2222    0.1667
  band No.  band energies     occupation 
      1      -2.3141      1.00000
      2       1.5726      1.00000
      3       2.0434      1.00000
      4       2.5401      1.00000
      5       2.6684      1.00000
      6       3.1144      1.00000
      7       3.2468      1.00000
      8       3.6008      1.00000
      9       3.9048      1.00000
     10       3.9732      1.00000
     11       4.5750      1.00000
     12       4.6463      1.00000
     13       4.7690      1.00001
     14       4.8159      1.00002
     15       4.9062      1.00031
     16       5.6079      0.02947
     17       5.7639     -0.02712
     18       6.8405     -0.00000
     19       7.5261     -0.00000
     20      11.0538      0.00000
     21      12.1264      0.00000
     22      13.2376      0.00000
     23      14.4879      0.00000
     24      15.4484      0.00000

 k-point   146 :       0.3333    0.2222    0.1667
  band No.  band energies     occupation 
      1      -1.9671      1.00000
      2       1.1491      1.00000
      3       2.0939      1.00000
      4       2.6853      1.00000
      5       2.7118      1.00000
      6       3.1451      1.00000
      7       3.2913      1.00000
      8       3.6150      1.00000
      9       3.8138      1.00000
     10       3.9107      1.00000
     11       4.5358      1.00000
     12       4.6390      1.00000
     13       4.7006      1.00000
     14       4.7687      1.00001
     15       4.9032      1.00028
     16       5.4770      0.43487
     17       5.5752      0.09472
     18       7.0794     -0.00000
     19       7.7911     -0.00000
     20      10.3896     -0.00000
     21      11.4136      0.00000
     22      13.6014      0.00000
     23      14.6974      0.00000
     24      15.6869      0.00000

 k-point   147 :       0.3889    0.2222    0.1667
  band No.  band energies     occupation 
      1      -1.5794      1.00000
      2       0.6675      1.00000
      3       2.1391      1.00000
      4       2.7469      1.00000
      5       2.8197      1.00000
      6       3.1983      1.00000
      7       3.3120      1.00000
      8       3.6541      1.00000
      9       3.7451      1.00000
     10       3.8631      1.00000
     11       4.4843      1.00000
     12       4.6166      1.00000
     13       4.6576      1.00000
     14       4.7526      1.00000
     15       4.8952      1.00023
     16       5.2483      1.03072
     17       5.5348      0.21189
     18       7.3641     -0.00000
     19       8.0431     -0.00000
     20       9.8608     -0.00000
     21      10.7879     -0.00000
     22      13.9875      0.00000
     23      14.9149      0.00000
     24      15.9017      0.00000

 k-point   148 :       0.4444    0.2222    0.1667
  band No.  band energies     occupation 
      1      -1.1900      1.00000
      2       0.2081      1.00000
      3       2.1669      1.00000
      4       2.7720      1.00000
      5       2.8999      1.00000
      6       3.2733      1.00000
      7       3.3299      1.00000
      8       3.6247      1.00000
      9       3.7465      1.00000
     10       3.8357      1.00000
     11       4.4411      1.00000
     12       4.5885      1.00000
     13       4.6461      1.00000
     14       4.7510      1.00000
     15       4.8851      1.00018
     16       5.0932      1.01288
     17       5.5067      0.31414
     18       7.6443     -0.00000
     19       8.1950     -0.00000
     20       9.5531     -0.00000
     21      10.2907     -0.00000
     22      14.3437      0.00000
     23      15.1058      0.00000
     24      15.9421      0.00000

 k-point   149 :       0.5000    0.2222    0.1667
  band No.  band energies     occupation 
      1      -0.9716      1.00000
      2      -0.0357      1.00000
      3       2.1762      1.00000
      4       2.7798      1.00000
      5       2.9249      1.00000
      6       3.3116      1.00000
      7       3.3477      1.00000
      8       3.5853      1.00000
      9       3.7601      1.00000
     10       3.8290      1.00000
     11       4.4255      1.00000
     12       4.5745      1.00000
     13       4.6477      1.00000
     14       4.7516      1.00000
     15       4.8803      1.00016
     16       5.0364      1.00522
     17       5.4966      0.35439
     18       7.7965     -0.00000
     19       8.2017     -0.00000
     20       9.4965     -0.00000
     21      10.0635     -0.00000
     22      14.5151      0.00000
     23      15.2025      0.00000
     24      15.7711      0.00000

 k-point   150 :       0.2778    0.2778    0.1667
  band No.  band energies     occupation 
      1      -2.0282      1.00000
      2       1.6200      1.00000
      3       1.8221      1.00000
      4       2.5900      1.00000
      5       2.7208      1.00000
      6       3.1236      1.00000
      7       3.3229      1.00000
      8       3.5612      1.00000
      9       3.8155      1.00000
     10       3.9402      1.00000
     11       4.5988      1.00000
     12       4.6188      1.00000
     13       4.7087      1.00000
     14       4.7545      1.00000
     15       4.8806      1.00016
     16       5.5751      0.09489
     17       5.7346     -0.03297
     18       6.6066     -0.00000
     19       7.7189     -0.00000
     20      10.3489     -0.00000
     21      12.4273      0.00000
     22      12.4724      0.00000
     23      14.6875      0.00000
     24      16.4126      0.00000

 k-point   151 :       0.3333    0.2778    0.1667
  band No.  band energies     occupation 
      1      -1.6910      1.00000
      2       1.3047      1.00000
      3       1.8448      1.00000
      4       2.6726      1.00000
      5       2.7913      1.00000
      6       3.1350      1.00000
      7       3.3687      1.00000
      8       3.5593      1.00000
      9       3.7583      1.00000
     10       3.9083      1.00000
     11       4.5552      1.00000
     12       4.6153      1.00000
     13       4.6534      1.00000
     14       4.7256      1.00000
     15       4.8708      1.00012
     16       5.5066      0.31469
     17       5.5582      0.13930
     18       6.6610     -0.00000
     19       7.8794     -0.00000
     20       9.8000     -0.00000
     21      11.7316      0.00000
     22      12.8142      0.00000
     23      14.9075      0.00000
     24      16.4247      0.00000

 k-point   152 :       0.3889    0.2778    0.1667
  band No.  band energies     occupation 
      1      -1.3166      1.00000
      2       0.8647      1.00000
      3       1.9162      1.00000
      4       2.7566      1.00000
      5       2.8583      1.00000
      6       3.1608      1.00000
      7       3.3792      1.00000
      8       3.5765      1.00000
      9       3.7482      1.00000
     10       3.8769      1.00000
     11       4.4918      1.00000
     12       4.5653      1.00000
     13       4.6696      1.00000
     14       4.7206      1.00000
     15       4.8575      1.00008
     16       5.2968      0.99584
     17       5.4960      0.35675
     18       6.8556     -0.00000
     19       7.9077     -0.00000
     20       9.5120     -0.00000
     21      11.0960      0.00000
     22      13.2036      0.00000
     23      15.1227      0.00000
     24      15.8708      0.00000

 k-point   153 :       0.4444    0.2778    0.1667
  band No.  band energies     occupation 
      1      -0.9460      1.00000
      2       0.4396      1.00000
      3       1.9612      1.00000
      4       2.8124      1.00000
      5       2.9075      1.00000
      6       3.1971      1.00000
      7       3.3883      1.00000
      8       3.5638      1.00000
      9       3.7757      1.00000
     10       3.8536      1.00000
     11       4.4520      1.00000
     12       4.5171      1.00000
     13       4.6891      1.00000
     14       4.7419      1.00000
     15       4.8325      1.00004
     16       5.1307      1.02058
     17       5.4611      0.50199
     18       7.1040     -0.00000
     19       7.7413     -0.00000
     20       9.5374     -0.00000
     21      10.5746     -0.00000
     22      13.5687      0.00000
     23      15.2125      0.00000
     24      15.4731      0.00000

 k-point   154 :       0.5000    0.2778    0.1667
  band No.  band energies     occupation 
      1      -0.7443      1.00000
      2       0.2174      1.00000
      3       1.9761      1.00000
      4       2.8289      1.00000
      5       2.9277      1.00000
      6       3.2158      1.00000
      7       3.3957      1.00000
      8       3.5508      1.00000
      9       3.7875      1.00000
     10       3.8486      1.00000
     11       4.4450      1.00000
     12       4.4915      1.00000
     13       4.6995      1.00000
     14       4.7629      1.00000
     15       4.8111      1.00002
     16       5.0675      1.00879
     17       5.4483      0.55608
     18       7.2954     -0.00000
     19       7.5571     -0.00000
     20       9.6508     -0.00000
     21      10.3160     -0.00000
     22      13.7495      0.00000
     23      15.0769      0.00000
     24      15.4592      0.00000

 k-point   155 :       0.3333    0.3333    0.1667
  band No.  band energies     occupation 
      1      -1.3670      1.00000
      2       1.3980      1.00000
      3       1.5643      1.00000
      4       2.6845      1.00000
      5       2.8702      1.00000
      6       3.1354      1.00000
      7       3.4210      1.00000
      8       3.5276      1.00000
      9       3.7437      1.00000
     10       3.9066      1.00000
     11       4.5361      1.00000
     12       4.5809      1.00000
     13       4.5905      1.00000
     14       4.7313      1.00000
     15       4.8577      1.00008
     16       5.4717      0.45702
     17       5.4746      0.44501
     18       6.4807     -0.00000
     19       7.8204     -0.00000
     20       9.4899     -0.00000
     21      12.0801      0.00000
     22      12.1072      0.00000
     23      15.1137      0.00000
     24      15.8353      0.00000

 k-point   156 :       0.3889    0.3333    0.1667
  band No.  band energies     occupation 
      1      -1.0109      1.00000
      2       1.0727      1.00000
      3       1.6276      1.00000
      4       2.7136      1.00000
      5       2.9133      1.00000
      6       3.1651      1.00000
      7       3.4276      1.00000
      8       3.5299      1.00000
      9       3.7728      1.00000
     10       3.8994      1.00000
     11       4.4599      1.00000
     12       4.5333      1.00000
     13       4.6163      1.00000
     14       4.7381      1.00000
     15       4.8463      1.00006
     16       5.2984      0.99399
     17       5.4291      0.63519
     18       6.5218     -0.00000
     19       7.5711     -0.00000
     20       9.5105     -0.00000
     21      11.4519      0.00000
     22      12.4836      0.00000
     23      15.0417      0.00000
     24      15.5281      0.00000

 k-point   157 :       0.4444    0.3333    0.1667
  band No.  band energies     occupation 
      1      -0.6653      1.00000
      2       0.6965      1.00000
      3       1.7124      1.00000
      4       2.7458      1.00000
      5       2.9227      1.00000
      6       3.2015      1.00000
      7       3.4434      1.00000
      8       3.5174      1.00000
      9       3.8225      1.00000
     10       3.8867      1.00000
     11       4.4128      1.00000
     12       4.4920      1.00000
     13       4.6515      1.00000
     14       4.7505      1.00000
     15       4.8208      1.00003
     16       5.1423      1.02323
     17       5.3924      0.77412
     18       6.6860     -0.00000
     19       7.2488     -0.00000
     20       9.7290     -0.00000
     21      10.9213      0.00000
     22      12.8513      0.00000
     23      14.5965      0.00000
     24      15.6611      0.00000

 k-point   158 :       0.5000    0.3333    0.1667
  band No.  band energies     occupation 
      1      -0.4843      1.00000
      2       0.5024      1.00000
      3       1.7428      1.00000
      4       2.7603      1.00000
      5       2.9228      1.00000
      6       3.2143      1.00000
      7       3.4702      1.00000
      8       3.4947      1.00000
      9       3.8485      1.00000
     10       3.8772      1.00000
     11       4.4002      1.00000
     12       4.4747      1.00000
     13       4.6692      1.00000
     14       4.7652      1.00000
     15       4.7960      1.00001
     16       5.0811      1.01082
     17       5.3783      0.82073
     18       6.8732     -0.00000
     19       7.0033     -0.00000
     20       9.8996     -0.00000
     21      10.6551     -0.00000
     22      13.0353      0.00000
     23      14.3724      0.00000
     24      15.7344      0.00000

 k-point   159 :       0.3889    0.3889    0.1667
  band No.  band energies     occupation 
      1      -0.6794      1.00000
      2       1.2187      1.00000
      3       1.3438      1.00000
      4       2.6612      1.00000
      5       2.9232      1.00000
      6       3.2251      1.00000
      7       3.4285      1.00000
      8       3.5370      1.00000
      9       3.8181      1.00000
     10       3.9178      1.00000
     11       4.3868      1.00000
     12       4.5525      1.00000
     13       4.5656      1.00000
     14       4.7488      1.00000
     15       4.8374      1.00005
     16       5.2276      1.03496
     17       5.3497      0.90101
     18       6.3936     -0.00000
     19       7.1785     -0.00000
     20       9.7230     -0.00000
     21      11.7977      0.00000
     22      11.8800      0.00000
     23      14.4711      0.00000
     24      15.7227      0.00000

 k-point   160 :       0.4444    0.3889    0.1667
  band No.  band energies     occupation 
      1      -0.3667      1.00000
      2       0.9526      1.00000
      3       1.4352      1.00000
      4       2.6145      1.00000
      5       2.9169      1.00000
      6       3.2799      1.00000
      7       3.4341      1.00000
      8       3.5476      1.00000
      9       3.8715      1.00000
     10       3.9229      1.00000
     11       4.3339      1.00000
     12       4.5242      1.00000
     13       4.5919      1.00000
     14       4.7549      1.00000
     15       4.8072      1.00002
     16       5.1173      1.01764
     17       5.3043      0.98642
     18       6.4327     -0.00000
     19       6.8402     -0.00000
     20      10.0211     -0.00000
     21      11.3010      0.00000
     22      12.2081      0.00000
     23      13.9637      0.00000
     24      15.9235      0.00000

 k-point   161 :       0.5000    0.3889    0.1667
  band No.  band energies     occupation 
      1      -0.2104      1.00000
      2       0.7937      1.00000
      3       1.4893      1.00000
      4       2.5947      1.00000
      5       2.9137      1.00000
      6       3.2949      1.00000
      7       3.4489      1.00000
      8       3.5468      1.00000
      9       3.9064      1.00000
     10       3.9118      1.00000
     11       4.3158      1.00000
     12       4.5168      1.00000
     13       4.6069      1.00000
     14       4.7599      1.00000
     15       4.7800      1.00001
     16       5.0703      1.00918
     17       5.2892      1.00416
     18       6.5671     -0.00000
     19       6.6100     -0.00000
     20      10.2128     -0.00000
     21      11.0334      0.00000
     22      12.3918      0.00000
     23      13.7309      0.00000
     24      16.0076      0.00000

 k-point   162 :       0.4444    0.4444    0.1667
  band No.  band energies     occupation 
      1      -0.0944      1.00000
      2       1.1382      1.00000
      3       1.1975      1.00000
      4       2.4823      1.00000
      5       2.9087      1.00000
      6       3.3558      1.00000
      7       3.4155      1.00000
      8       3.5906      1.00000
      9       3.9174      1.00000
     10       3.9466      1.00000
     11       4.2749      1.00000
     12       4.5577      1.00000
     13       4.5636      1.00000
     14       4.7522      1.00000
     15       4.7557      1.00000
     16       5.0683      1.00890
     17       5.2375      1.03352
     18       6.3446     -0.00000
     19       6.5544     -0.00000
     20      10.3535     -0.00000
     21      11.6277      0.00000
     22      11.7049      0.00000
     23      13.4469      0.00000
     24      16.1399      0.00000

 k-point   163 :       0.5000    0.4444    0.1667
  band No.  band energies     occupation 
      1       0.0348      1.00000
      2       1.0404      1.00000
      3       1.2560      1.00000
      4       2.4226      1.00000
      5       2.9054      1.00000
      6       3.3767      1.00000
      7       3.4206      1.00000
      8       3.6061      1.00000
      9       3.9454      1.00000
     10       3.9465      1.00000
     11       4.2531      1.00000
     12       4.5626      1.00000
     13       4.5751      1.00000
     14       4.7141      1.00000
     15       4.7493      1.00000
     16       5.0436      1.00592
     17       5.2162      1.03546
     18       6.3873     -0.00000
     19       6.3944     -0.00000
     20      10.5569     -0.00000
     21      11.3927      0.00000
     22      11.8496      0.00000
     23      13.2138      0.00000
     24      16.2281      0.00000

 k-point   164 :       0.5000    0.5000    0.1667
  band No.  band energies     occupation 
      1       0.1480      1.00000
      2       1.1465      1.00000
      3       1.1465      1.00000
      4       2.3423      1.00000
      5       2.9021      1.00000
      6       3.4111      1.00000
      7       3.4111      1.00000
      8       3.6282      1.00000
      9       3.9607      1.00000
     10       3.9607      1.00000
     11       4.2291      1.00000
     12       4.5855      1.00000
     13       4.5855      1.00000
     14       4.6535      1.00000
     15       4.7422      1.00000
     16       5.0287      1.00454
     17       5.1912      1.03337
     18       6.3291     -0.00000
     19       6.3291     -0.00000
     20      10.7695     -0.00000
     21      11.5709      0.00000
     22      11.5709      0.00000
     23      12.9830      0.00000
     24      16.3173      0.00000

 k-point   165 :       0.2222    0.2222    0.2222
  band No.  band energies     occupation 
      1      -2.3788      1.00000
      2       1.7921      1.00000
      3       2.2235      1.00000
      4       2.2235      1.00000
      5       2.6671      1.00000
      6       3.1772      1.00000
      7       3.1772      1.00000
      8       3.5945      1.00000
      9       3.9523      1.00000
     10       3.9523      1.00000
     11       4.6120      1.00000
     12       4.6120      1.00000
     13       4.7913      1.00001
     14       4.8531      1.00007
     15       4.8531      1.00007
     16       5.6425     -0.01218
     17       6.0755     -0.00006
     18       6.8895     -0.00000
     19       6.8895     -0.00000
     20      12.0197      0.00000
     21      12.1223      0.00000
     22      12.1223      0.00000
     23      15.2493      0.00000
     24      15.2493      0.00000

 k-point   166 :       0.2778    0.2222    0.2222
  band No.  band energies     occupation 
      1      -2.0917      1.00000
      2       1.6283      1.00000
      3       2.0768      1.00000
      4       2.4020      1.00000
      5       2.7206      1.00000
      6       3.1786      1.00000
      7       3.2502      1.00000
      8       3.5817      1.00000
      9       3.8714      1.00000
     10       3.8826      1.00000
     11       4.5859      1.00000
     12       4.6254      1.00000
     13       4.7063      1.00000
     14       4.7893      1.00001
     15       4.8658      1.00010
     16       5.6233      0.00771
     17       5.8891     -0.00500
     18       6.8895     -0.00000
     19       7.0385     -0.00000
     20      11.2796      0.00000
     21      11.3696      0.00000
     22      12.4136      0.00000
     23      15.4542      0.00000
     24      15.7336      0.00000

 k-point   167 :       0.3333    0.2222    0.2222
  band No.  band energies     occupation 
      1      -1.7527      1.00000
      2       1.2645      1.00000
      3       2.0448      1.00000
      4       2.5910      1.00000
      5       2.7830      1.00000
      6       3.1804      1.00000
      7       3.2974      1.00000
      8       3.6029      1.00000
      9       3.8101      1.00000
     10       3.8229      1.00000
     11       4.5505      1.00000
     12       4.5978      1.00000
     13       4.6831      1.00000
     14       4.7406      1.00000
     15       4.8696      1.00012
     16       5.5840      0.07468
     17       5.5881      0.06585
     18       7.1346     -0.00000
     19       7.1964     -0.00000
     20      10.5717     -0.00000
     21      10.7259     -0.00000
     22      12.7789      0.00000
     23      15.6792      0.00000
     24      15.9414      0.00000

 k-point   168 :       0.3889    0.2222    0.2222
  band No.  band energies     occupation 
      1      -1.3761      1.00000
      2       0.8198      1.00000
      3       2.0460      1.00000
      4       2.7691      1.00000
      5       2.8344      1.00000
      6       3.1813      1.00000
      7       3.3318      1.00000
      8       3.6402      1.00000
      9       3.7401      1.00000
     10       3.8075      1.00000
     11       4.5044      1.00000
     12       4.5467      1.00000
     13       4.7094      1.00000
     14       4.7221      1.00000
     15       4.8600      1.00009
     16       5.3155      0.97003
     17       5.5478      0.17008
     18       7.3471     -0.00000
     19       7.4523     -0.00000
     20       9.9476     -0.00000
     21      10.2177     -0.00000
     22      13.1722      0.00000
     23      15.7130      0.00000
     24      15.8972      0.00000

 k-point   169 :       0.4444    0.2222    0.2222
  band No.  band energies     occupation 
      1      -1.0027      1.00000
      2       0.3900      1.00000
      3       2.0504      1.00000
      4       2.8629      1.00000
      5       2.9058      1.00000
      6       3.1797      1.00000
      7       3.3694      1.00000
      8       3.6549      1.00000
      9       3.6834      1.00000
     10       3.8176      1.00000
     11       4.4687      1.00000
     12       4.5125      1.00000
     13       4.7311      1.00000
     14       4.7466      1.00000
     15       4.8354      1.00004
     16       5.1219      1.01863
     17       5.5158      0.27966
     18       7.4638     -0.00000
     19       7.7647     -0.00000
     20       9.4548     -0.00000
     21       9.8814     -0.00000
     22      13.5458      0.00000
     23      15.2466      0.00000
     24      16.0647      0.00000

 k-point   170 :       0.5000    0.2222    0.2222
  band No.  band energies     occupation 
      1      -0.7989      1.00000
      2       0.1650      1.00000
      3       2.0523      1.00000
      4       2.8710      1.00000
      5       2.9602      1.00000
      6       3.1775      1.00000
      7       3.3893      1.00000
      8       3.6531      1.00000
      9       3.6600      1.00000
     10       3.8267      1.00000
     11       4.4568      1.00000
     12       4.5008      1.00000
     13       4.7441      1.00000
     14       4.7757      1.00001
     15       4.8106      1.00002
     16       5.0439      1.00595
     17       5.5036      0.32637
     18       7.5096     -0.00000
     19       7.9212     -0.00000
     20       9.2384     -0.00000
     21       9.7616     -0.00000
     22      13.7353      0.00000
     23      15.0177      0.00000
     24      16.1293      0.00000

 k-point   171 :       0.2778    0.2778    0.2222
  band No.  band energies     occupation 
      1      -1.8127      1.00000
      2       1.6045      1.00000
      3       1.9851      1.00000
      4       2.4047      1.00000
      5       2.7948      1.00000
      6       3.1929      1.00000
      7       3.2922      1.00000
      8       3.5703      1.00000
      9       3.8082      1.00000
     10       3.8471      1.00000
     11       4.5916      1.00000
     12       4.6062      1.00000
     13       4.6133      1.00000
     14       4.7833      1.00001
     15       4.8462      1.00006
     16       5.6118      0.02347
     17       5.8838     -0.00549
     18       6.6475     -0.00000
     19       7.1072     -0.00000
     20      10.6020     -0.00000
     21      11.6233      0.00000
     22      11.6713      0.00000
     23      15.7677      0.00000
     24      16.3373      0.00000

 k-point   172 :       0.3333    0.2778    0.2222
  band No.  band energies     occupation 
      1      -1.4851      1.00000
      2       1.3717      1.00000
      3       1.9091      1.00000
      4       2.5372      1.00000
      5       2.8717      1.00000
      6       3.1805      1.00000
      7       3.3335      1.00000
      8       3.5830      1.00000
      9       3.7742      1.00000
     10       3.8205      1.00000
     11       4.5196      1.00000
     12       4.5629      1.00000
     13       4.6319      1.00000
     14       4.7627      1.00000
     15       4.8496      1.00007
     16       5.5770      0.09057
     17       5.6559     -0.02191
     18       6.6808     -0.00000
     19       7.2441     -0.00000
     20       9.9989     -0.00000
     21      10.9656      0.00000
     22      12.0101      0.00000
     23      15.6009      0.00000
     24      16.0936      0.00000

 k-point   173 :       0.3889    0.2778    0.2222
  band No.  band energies     occupation 
      1      -1.1243      1.00000
      2       0.9928      1.00000
      3       1.9002      1.00000
      4       2.6998      1.00000
      5       2.9287      1.00000
      6       3.1570      1.00000
      7       3.3730      1.00000
      8       3.5987      1.00000
      9       3.7599      1.00000
     10       3.8125      1.00000
     11       4.4549      1.00000
     12       4.5204      1.00000
     13       4.6659      1.00000
     14       4.7630      1.00000
     15       4.8457      1.00006
     16       5.3724      0.83886
     17       5.5417      0.18913
     18       6.8509     -0.00000
     19       7.3644     -0.00000
     20       9.5505     -0.00000
     21      10.3924     -0.00000
     22      12.4030      0.00000
     23      14.9943      0.00000
     24      16.3041      0.00000

 k-point   174 :       0.4444    0.2778    0.2222
  band No.  band energies     occupation 
      1      -0.7733      1.00000
      2       0.6085      1.00000
      3       1.9025      1.00000
      4       2.8444      1.00000
      5       2.9606      1.00000
      6       3.1140      1.00000
      7       3.4319      1.00000
      8       3.5837      1.00000
      9       3.7459      1.00000
     10       3.8294      1.00000
     11       4.4152      1.00000
     12       4.4911      1.00000
     13       4.7076      1.00000
     14       4.7862      1.00001
     15       4.8311      1.00004
     16       5.1519      1.02547
     17       5.5060      0.31717
     18       7.0285     -0.00000
     19       7.4254     -0.00000
     20       9.2997     -0.00000
     21       9.9723     -0.00000
     22      12.7809      0.00000
     23      14.4731      0.00000
     24      16.4877      0.00000

 k-point   175 :       0.5000    0.2778    0.2222
  band No.  band energies     occupation 
      1      -0.5888      1.00000
      2       0.4098      1.00000
      3       1.9039      1.00000
      4       2.9066      1.00000
      5       2.9876      1.00000
      6       3.0712      1.00000
      7       3.4746      1.00000
      8       3.5592      1.00000
      9       3.7383      1.00000
     10       3.8401      1.00000
     11       4.4022      1.00000
     12       4.4822      1.00000
     13       4.7351      1.00000
     14       4.7901      1.00001
     15       4.8390      1.00005
     16       5.0511      1.00672
     17       5.4921      0.37223
     18       7.1158     -0.00000
     19       7.4283     -0.00000
     20       9.2341     -0.00000
     21       9.8035     -0.00000
     22      12.9759      0.00000
     23      14.2295      0.00000
     24      16.5613      0.00000

 k-point   176 :       0.3333    0.3333    0.2222
  band No.  band energies     occupation 
      1      -1.1731      1.00000
      2       1.3874      1.00000
      3       1.7332      1.00000
      4       2.5579      1.00000
      5       2.9534      1.00000
      6       3.1719      1.00000
      7       3.3606      1.00000
      8       3.5855      1.00000
      9       3.7728      1.00000
     10       3.8272      1.00000
     11       4.4342      1.00000
     12       4.5690      1.00000
     13       4.5989      1.00000
     14       4.7661      1.00001
     15       4.8535      1.00007
     16       5.5445      0.18026
     17       5.5956      0.05089
     18       6.4451     -0.00000
     19       7.2708     -0.00000
     20       9.5408     -0.00000
     21      11.3124      0.00000
     22      11.3237      0.00000
     23      14.9190      0.00000
     24      16.3335      0.00000

 k-point   177 :       0.3889    0.3333    0.2222
  band No.  band energies     occupation 
      1      -0.8343      1.00000
      2       1.1602      1.00000
      3       1.6994      1.00000
      4       2.6304      1.00000
      5       2.9962      1.00000
      6       3.1717      1.00000
      7       3.3862      1.00000
      8       3.6010      1.00000
      9       3.7950      1.00000
     10       3.8365      1.00000
     11       4.3644      1.00000
     12       4.5380      1.00000
     13       4.6156      1.00000
     14       4.7720      1.00001
     15       4.8612      1.00009
     16       5.3828      0.80632
     17       5.5057      0.31807
     18       6.4678     -0.00000
     19       7.2042     -0.00000
     20       9.3178     -0.00000
     21      10.7204     -0.00000
     22      11.7049      0.00000
     23      14.2752      0.00000
     24      16.5814      0.00000

 k-point   178 :       0.4444    0.3333    0.2222
  band No.  band energies     occupation 
      1      -0.5140      1.00000
      2       0.8480      1.00000
      3       1.7229      1.00000
      4       2.7115      1.00000
      5       3.0042      1.00000
      6       3.1604      1.00000
      7       3.4419      1.00000
      8       3.5950      1.00000
      9       3.8126      1.00000
     10       3.8535      1.00000
     11       4.3200      1.00000
     12       4.5168      1.00000
     13       4.6467      1.00000
     14       4.7851      1.00001
     15       4.8725      1.00013
     16       5.1639      1.02816
     17       5.4687      0.46961
     18       6.6080     -0.00000
     19       7.0475     -0.00000
     20       9.3195     -0.00000
     21      10.2520     -0.00000
     22      12.0814      0.00000
     23      13.7422      0.00000
     24      16.7811      0.00000

 k-point   179 :       0.5000    0.3333    0.2222
  band No.  band energies     occupation 
      1      -0.3538      1.00000
      2       0.6851      1.00000
      3       1.7332      1.00000
      4       2.7488      1.00000
      5       3.0036      1.00000
      6       3.1496      1.00000
      7       3.4818      1.00000
      8       3.5791      1.00000
      9       3.8153      1.00000
     10       3.8640      1.00000
     11       4.3051      1.00000
     12       4.5134      1.00000
     13       4.6632      1.00000
     14       4.7890      1.00001
     15       4.9007      1.00027
     16       5.0497      1.00657
     17       5.4542      0.53130
     18       6.7346     -0.00000
     19       6.9109     -0.00000
     20       9.3859     -0.00000
     21      10.0376     -0.00000
     22      12.2787      0.00000
     23      13.4925      0.00000
     24      16.8614      0.00000

 k-point   180 :       0.3889    0.3889    0.2222
  band No.  band energies     occupation 
      1      -0.5261      1.00000
      2       1.2393      1.00000
      3       1.5149      1.00000
      4       2.5809      1.00000
      5       3.0117      1.00000
      6       3.2313      1.00000
      7       3.3772      1.00000
      8       3.6443      1.00000
      9       3.8346      1.00000
     10       3.8647      1.00000
     11       4.2884      1.00000
     12       4.5580      1.00000
     13       4.5768      1.00000
     14       4.7720      1.00001
     15       4.8786      1.00015
     16       5.2996      0.99251
     17       5.4414      0.58460
     18       6.3045     -0.00000
     19       6.9515     -0.00000
     20       9.3311     -0.00000
     21      11.0807      0.00000
     22      11.1054      0.00000
     23      13.6225      0.00000
     24      16.8447      0.00000

 k-point   181 :       0.4444    0.3889    0.2222
  band No.  band energies     occupation 
      1      -0.2468      1.00000
      2       1.0816      1.00000
      3       1.5227      1.00000
      4       2.5551      1.00000
      5       3.0098      1.00000
      6       3.2589      1.00000
      7       3.4025      1.00000
      8       3.6778      1.00000
      9       3.8694      1.00000
     10       3.8862      1.00000
     11       4.2378      1.00000
     12       4.5515      1.00000
     13       4.5957      1.00000
     14       4.7732      1.00001
     15       4.8912      1.00021
     16       5.1328      1.02106
     17       5.4002      0.74640
     18       6.3309     -0.00000
     19       6.6902     -0.00000
     20       9.4983     -0.00000
     21      10.5991     -0.00000
     22      11.4622      0.00000
     23      13.0857      0.00000
     24      17.0542      0.00000

 k-point   182 :       0.5000    0.3889    0.2222
  band No.  band energies     occupation 
      1      -0.1158      1.00000
      2       0.9673      1.00000
      3       1.5506      1.00000
      4       2.5478      1.00000
      5       3.0083      1.00000
      6       3.2588      1.00000
      7       3.4260      1.00000
      8       3.6879      1.00000
      9       3.8814      1.00000
     10       3.8954      1.00000
     11       4.2202      1.00000
     12       4.5561      1.00000
     13       4.6082      1.00000
     14       4.7737      1.00001
     15       4.9109      1.00035
     16       5.0317      1.00479
     17       5.3861      0.79557
     18       6.4406     -0.00000
     19       6.5060     -0.00000
     20       9.6314     -0.00000
     21      10.3624     -0.00000
     22      11.6583      0.00000
     23      12.8335      0.00000
     24      17.1381      0.00000

 k-point   183 :       0.4444    0.4444    0.2222
  band No.  band energies     occupation 
      1      -0.0175      1.00000
      2       1.2377      1.00000
      3       1.3691      1.00000
      4       2.4207      1.00000
      5       3.0082      1.00000
      6       3.3357      1.00000
      7       3.3808      1.00000
      8       3.7466      1.00000
      9       3.9096      1.00000
     10       3.9173      1.00000
     11       4.1798      1.00000
     12       4.5805      1.00000
     13       4.5933      1.00000
     14       4.7575      1.00000
     15       4.8732      1.00013
     16       5.0507      1.00668
     17       5.3385      0.92668
     18       6.2284     -0.00000
     19       6.4245     -0.00000
     20       9.7554     -0.00000
     21      10.9376      0.00000
     22      10.9706      0.00000
     23      12.5487      0.00000
     24      17.2689      0.00000

 k-point   184 :       0.5000    0.4444    0.2222
  band No.  band energies     occupation 
      1       0.0826      1.00000
      2       1.2103      1.00000
      3       1.3890      1.00000
      4       2.3630      1.00000
      5       3.0068      1.00000
      6       3.3472      1.00000
      7       3.3932      1.00000
      8       3.7713      1.00000
      9       3.9271      1.00000
     10       3.9280      1.00000
     11       4.1584      1.00000
     12       4.6019      1.00000
     13       4.6067      1.00000
     14       4.7475      1.00000
     15       4.8441      1.00006
     16       5.0029      1.00277
     17       5.3186      0.96487
     18       6.2632     -0.00000
     19       6.2750     -0.00000
     20       9.9227     -0.00000
     21      10.7046     -0.00000
     22      11.1455      0.00000
     23      12.2972      0.00000
     24      17.3543      0.00000

 k-point   185 :       0.5000    0.5000    0.2222
  band No.  band energies     occupation 
      1       0.1663      1.00000
      2       1.3181      1.00000
      3       1.3181      1.00000
      4       2.2767      1.00000
      5       3.0054      1.00000
      6       3.3826      1.00000
      7       3.3826      1.00000
      8       3.8013      1.00000
      9       3.9436      1.00000
     10       3.9436      1.00000
     11       4.1344      1.00000
     12       4.6380      1.00000
     13       4.6380      1.00000
     14       4.7271      1.00000
     15       4.7654      1.00000
     16       4.9879      1.00204
     17       5.2945      0.99848
     18       6.2052     -0.00000
     19       6.2052     -0.00000
     20      10.1044     -0.00000
     21      10.8903     -0.00000
     22      10.8903     -0.00000
     23      12.0477      0.00000
     24      17.4400      0.00000

 k-point   186 :       0.2778    0.2778    0.2778
  band No.  band energies     occupation 
      1      -1.5437      1.00000
      2       1.5509      1.00000
      3       2.1781      1.00000
      4       2.1781      1.00000
      5       2.8837      1.00000
      6       3.2563      1.00000
      7       3.2563      1.00000
      8       3.5822      1.00000
      9       3.7976      1.00000
     10       3.7976      1.00000
     11       4.5055      1.00000
     12       4.5961      1.00000
     13       4.5961      1.00000
     14       4.8119      1.00002
     15       4.8119      1.00002
     16       5.6196      0.01244
     17       5.9492     -0.00152
     18       6.6966     -0.00000
     19       6.6966     -0.00000
     20      10.8114     -0.00000
     21      10.9665      0.00000
     22      10.9665      0.00000
     23      15.5777      0.00000
     24      16.8228      0.00000

 k-point   187 :       0.3333    0.2778    0.2778
  band No.  band energies     occupation 
      1      -1.2298      1.00000
      2       1.4034      1.00000
      3       1.9775      1.00000
      4       2.3865      1.00000
      5       2.9679      1.00000
      6       3.2139      1.00000
      7       3.3068      1.00000
      8       3.6090      1.00000
      9       3.7852      1.00000
     10       3.7909      1.00000
     11       4.4220      1.00000
     12       4.5632      1.00000
     13       4.6094      1.00000
     14       4.7944      1.00001
     15       4.8309      1.00004
     16       5.6001      0.04267
     17       5.7539     -0.02932
     18       6.6671     -0.00000
     19       6.7480     -0.00000
     20      10.1824     -0.00000
     21      10.3841     -0.00000
     22      11.2748      0.00000
     23      14.8643      0.00000
     24      17.0637      0.00000

 k-point   188 :       0.3889    0.2778    0.2778
  band No.  band energies     occupation 
      1      -0.8886      1.00000
      2       1.1254      1.00000
      3       1.8707      1.00000
      4       2.5911      1.00000
      5       3.0216      1.00000
      6       3.1609      1.00000
      7       3.3697      1.00000
      8       3.6316      1.00000
      9       3.7732      1.00000
     10       3.8111      1.00000
     11       4.3578      1.00000
     12       4.5282      1.00000
     13       4.6350      1.00000
     14       4.8057      1.00002
     15       4.8345      1.00004
     16       5.4499      0.54913
     17       5.5638      0.12382
     18       6.7939     -0.00000
     19       6.8484     -0.00000
     20       9.6164     -0.00000
     21       9.9469     -0.00000
     22      11.6613      0.00000
     23      14.2122      0.00000
     24      17.2930      0.00000

 k-point   189 :       0.4444    0.2778    0.2778
  band No.  band energies     occupation 
      1      -0.5657      1.00000
      2       0.8080      1.00000
      3       1.8298      1.00000
      4       2.7666      1.00000
      5       3.0411      1.00000
      6       3.0940      1.00000
      7       3.4545      1.00000
      8       3.6190      1.00000
      9       3.7645      1.00000
     10       3.8368      1.00000
     11       4.3171      1.00000
     12       4.5101      1.00000
     13       4.6677      1.00000
     14       4.8225      1.00003
     15       4.8578      1.00008
     16       5.1875      1.03281
     17       5.5290      0.23177
     18       6.8262     -0.00000
     19       7.0425     -0.00000
     20       9.2080     -0.00000
     21       9.6751     -0.00000
     22      12.0410      0.00000
     23      13.6727      0.00000
     24      17.4661      0.00000

 k-point   190 :       0.5000    0.2778    0.2778
  band No.  band energies     occupation 
      1      -0.4040      1.00000
      2       0.6433      1.00000
      3       1.8193      1.00000
      4       2.8560      1.00000
      5       3.0443      1.00000
      6       3.0447      1.00000
      7       3.5147      1.00000
      8       3.5872      1.00000
      9       3.7614      1.00000
     10       3.8471      1.00000
     11       4.3030      1.00000
     12       4.5072      1.00000
     13       4.6860      1.00000
     14       4.8116      1.00002
     15       4.9373      1.00066
     16       5.0320      1.00481
     17       5.5147      0.28372
     18       6.8378     -0.00000
     19       7.1298     -0.00000
     20       9.0505     -0.00000
     21       9.5827     -0.00000
     22      12.2428      0.00000
     23      13.4176      0.00000
     24      17.5321      0.00000

 k-point   191 :       0.3333    0.3333    0.2778
  band No.  band energies     occupation 
      1      -0.9354      1.00000
      2       1.3692      1.00000
      3       1.9324      1.00000
      4       2.3690      1.00000
      5       3.0528      1.00000
      6       3.2153      1.00000
      7       3.3047      1.00000
      8       3.6523      1.00000
      9       3.7967      1.00000
     10       3.8016      1.00000
     11       4.3358      1.00000
     12       4.5612      1.00000
     13       4.5852      1.00000
     14       4.8007      1.00002
     15       4.8385      1.00005
     16       5.5894      0.06306
     17       5.7234     -0.03448
     18       6.4001     -0.00000
     19       6.7321     -0.00000
     20       9.7252     -0.00000
     21      10.5939     -0.00000
     22      10.6703     -0.00000
     23      14.1368      0.00000
     24      17.4754      0.00000

 k-point   192 :       0.3889    0.3333    0.2778
  band No.  band energies     occupation 
      1      -0.6222      1.00000
      2       1.2320      1.00000
      3       1.8097      1.00000
      4       2.4925      1.00000
      5       3.0920      1.00000
      6       3.1918      1.00000
      7       3.3498      1.00000
      8       3.6989      1.00000
      9       3.8091      1.00000
     10       3.8281      1.00000
     11       4.2684      1.00000
     12       4.5388      1.00000
     13       4.5948      1.00000
     14       4.8074      1.00002
     15       4.8534      1.00007
     16       5.4835      0.40786
     17       5.5595      0.13556
     18       6.3944     -0.00000
     19       6.7401     -0.00000
     20       9.3427     -0.00000
     21      10.1128     -0.00000
     22      11.0022      0.00000
     23      13.4788      0.00000
     24      17.7381      0.00000

 k-point   193 :       0.4444    0.3333    0.2778
  band No.  band energies     occupation 
      1      -0.3381      1.00000
      2       1.0211      1.00000
      3       1.7429      1.00000
      4       2.6202      1.00000
      5       3.0943      1.00000
      6       3.1585      1.00000
      7       3.4202      1.00000
      8       3.7212      1.00000
      9       3.8156      1.00000
     10       3.8550      1.00000
     11       4.2250      1.00000
     12       4.5307      1.00000
     13       4.6170      1.00000
     14       4.8165      1.00003
     15       4.8923      1.00021
     16       5.2171      1.03546
     17       5.5240      0.24947
     18       6.4805     -0.00000
     19       6.7323     -0.00000
     20       9.1254     -0.00000
     21       9.7595     -0.00000
     22      11.3741      0.00000
     23      12.9340      0.00000
     24      17.9329      0.00000

 k-point   194 :       0.5000    0.3333    0.2778
  band No.  band energies     occupation 
      1      -0.2050      1.00000
      2       0.9048      1.00000
      3       1.7254      1.00000
      4       2.6750      1.00000
      5       3.0893      1.00000
      6       3.1430      1.00000
      7       3.4545      1.00000
      8       3.7242      1.00000
      9       3.8175      1.00000
     10       3.8645      1.00000
     11       4.2100      1.00000
     12       4.5332      1.00000
     13       4.6292      1.00000
     14       4.8140      1.00002
     15       5.0091      1.00314
     16       5.0137      1.00343
     17       5.5093      0.30436
     18       6.5269     -0.00000
     19       6.7214     -0.00000
     20       9.0597     -0.00000
     21       9.6292     -0.00000
     22      11.5780      0.00000
     23      12.6728      0.00000
     24      18.0080      0.00000

 k-point   195 :       0.3889    0.3889    0.2778
  band No.  band energies     occupation 
      1      -0.3485      1.00000
      2       1.2719      1.00000
      3       1.7154      1.00000
      4       2.4558      1.00000
      5       3.1106      1.00000
      6       3.2540      1.00000
      7       3.3349      1.00000
      8       3.7839      1.00000
      9       3.8483      1.00000
     10       3.8503      1.00000
     11       4.1960      1.00000
     12       4.5528      1.00000
     13       4.5667      1.00000
     14       4.7990      1.00001
     15       4.8753      1.00014
     16       5.4041      0.73221
     17       5.5186      0.26901
     18       6.1875     -0.00000
     19       6.6085     -0.00000
     20       9.1689     -0.00000
     21      10.4164     -0.00000
     22      10.4710     -0.00000
     23      12.8202      0.00000
     24      18.0207      0.00000

 k-point   196 :       0.4444    0.3889    0.2778
  band No.  band energies     occupation 
      1      -0.1156      1.00000
      2       1.2218      1.00000
      3       1.6470      1.00000
      4       2.4688      1.00000
      5       3.1155      1.00000
      6       3.2563      1.00000
      7       3.3785      1.00000
      8       3.8427      1.00000
      9       3.8685      1.00000
     10       3.8793      1.00000
     11       4.1478      1.00000
     12       4.5593      1.00000
     13       4.5802      1.00000
     14       4.7955      1.00001
     15       4.9062      1.00031
     16       5.2023      1.03474
     17       5.4825      0.41187
     18       6.1934     -0.00000
     19       6.4558     -0.00000
     20       9.1586     -0.00000
     21      10.0236     -0.00000
     22      10.7976     -0.00000
     23      12.2755      0.00000
     24      18.2284      0.00000

 k-point   197 :       0.5000    0.3889    0.2778
  band No.  band energies     occupation 
      1      -0.0153      1.00000
      2       1.1729      1.00000
      3       1.6295      1.00000
      4       2.4811      1.00000
      5       3.1176      1.00000
      6       3.2475      1.00000
      7       3.4062      1.00000
      8       3.8633      1.00000
      9       3.8744      1.00000
     10       3.8893      1.00000
     11       4.1308      1.00000
     12       4.5707      1.00000
     13       4.5900      1.00000
     14       4.7932      1.00001
     15       4.9789      1.00169
     16       5.0409      1.00564
     17       5.4685      0.47074
     18       6.2647     -0.00000
     19       6.3451     -0.00000
     20       9.1980     -0.00000
     21       9.8441     -0.00000
     22      10.9979      0.00000
     23      12.0115      0.00000
     24      18.3088      0.00000

 k-point   198 :       0.4444    0.4444    0.2778
  band No.  band energies     occupation 
      1       0.0596      1.00000
      2       1.3666      1.00000
      3       1.5692      1.00000
      4       2.3494      1.00000
      5       3.1267      1.00000
      6       3.3292      1.00000
      7       3.3584      1.00000
      8       3.9018      1.00000
      9       3.9054      1.00000
     10       3.9342      1.00000
     11       4.0934      1.00000
     12       4.5853      1.00000
     13       4.5990      1.00000
     14       4.7683      1.00001
     15       4.9111      1.00035
     16       5.0995      1.01405
     17       5.4298      0.63248
     18       6.0766     -0.00006
     19       6.2387     -0.00000
     20       9.2979     -0.00000
     21      10.3304     -0.00000
     22      10.3568     -0.00000
     23      11.7328      0.00000
     24      18.4422      0.00000

 k-point   199 :       0.5000    0.4444    0.2778
  band No.  band energies     occupation 
      1       0.1293      1.00000
      2       1.4083      1.00000
      3       1.5502      1.00000
      4       2.3014      1.00000
      5       3.1299      1.00000
      6       3.3334      1.00000
      7       3.3776      1.00000
      8       3.9160      1.00000
      9       3.9166      1.00000
     10       3.9618      1.00000
     11       4.0728      1.00000
     12       4.6110      1.00000
     13       4.6223      1.00000
     14       4.7522      1.00000
     15       4.9460      1.00081
     16       4.9823      1.00182
     17       5.4114      0.70484
     18       6.0997     -0.00003
     19       6.1143     -0.00002
     20       9.4033     -0.00000
     21      10.1357     -0.00000
     22      10.5353     -0.00000
     23      11.4683      0.00000
     24      18.5247      0.00000

 k-point   200 :       0.5000    0.5000    0.2778
  band No.  band energies     occupation 
      1       0.1851      1.00000
      2       1.5179      1.00000
      3       1.5179      1.00000
      4       2.2127      1.00000
      5       3.1327      1.00000
      6       3.3685      1.00000
      7       3.3685      1.00000
      8       3.9313      1.00000
      9       3.9313      1.00000
     10       3.9913      1.00000
     11       4.0494      1.00000
     12       4.6675      1.00000
     13       4.6675      1.00000
     14       4.7111      1.00000
     15       4.9001      1.00026
     16       4.9308      1.00057
     17       5.3888      0.78657
     18       6.0450     -0.00015
     19       6.0450     -0.00015
     20       9.5342     -0.00000
     21      10.3196     -0.00000
     22      10.3196     -0.00000
     23      11.2027      0.00000
     24      18.6075      0.00000

 k-point   201 :       0.3333    0.3333    0.3333
  band No.  band energies     occupation 
      1      -0.6666      1.00000
      2       1.3381      1.00000
      3       2.1444      1.00000
      4       2.1444      1.00000
      5       3.1439      1.00000
      6       3.2550      1.00000
      7       3.2550      1.00000
      8       3.7368      1.00000
      9       3.8161      1.00000
     10       3.8161      1.00000
     11       4.2508      1.00000
     12       4.5585      1.00000
     13       4.5585      1.00000
     14       4.8261      1.00003
     15       4.8261      1.00003
     16       5.6012      0.04067
     17       5.7650     -0.02689
     18       6.3525     -0.00000
     19       6.3525     -0.00000
     20       9.8174     -0.00000
     21      10.1463     -0.00000
     22      10.1463     -0.00000
     23      13.4037      0.00000
     24      18.5154      0.00000

 k-point   202 :       0.3889    0.3333    0.3333
  band No.  band energies     occupation 
      1      -0.3903      1.00000
      2       1.2829      1.00000
      3       1.9257      1.00000
      4       2.3431      1.00000
      5       3.1858      1.00000
      6       3.2128      1.00000
      7       3.3211      1.00000
      8       3.8219      1.00000
      9       3.8313      1.00000
     10       3.8456      1.00000
     11       4.1840      1.00000
     12       4.5376      1.00000
     13       4.5642      1.00000
     14       4.8324      1.00004
     15       4.8354      1.00004
     16       5.5577      0.14073
     17       5.5821      0.07885
     18       6.3038     -0.00000
     19       6.3130     -0.00000
     20       9.3832     -0.00000
     21       9.7680     -0.00000
     22      10.4051     -0.00000
     23      12.7451      0.00000
     24      18.7504      0.00000

 k-point   203 :       0.4444    0.3333    0.3333
  band No.  band energies     occupation 
      1      -0.1553      1.00000
      2       1.1991      1.00000
      3       1.7724      1.00000
      4       2.4917      1.00000
      5       3.1809      1.00000
      6       3.1924      1.00000
      7       3.3928      1.00000
      8       3.8417      1.00000
      9       3.8615      1.00000
     10       3.8834      1.00000
     11       4.1401      1.00000
     12       4.5397      1.00000
     13       4.5763      1.00000
     14       4.8295      1.00004
     15       4.8814      1.00016
     16       5.2760      1.01595
     17       5.5514      0.15900
     18       6.2889     -0.00000
     19       6.3905     -0.00000
     20       9.0424     -0.00000
     21       9.5418     -0.00000
     22      10.7538     -0.00000
     23      12.1985      0.00000
     24      18.9248      0.00000

 k-point   204 :       0.5000    0.3333    0.3333
  band No.  band energies     occupation 
      1      -0.0543      1.00000
      2       1.1479      1.00000
      3       1.7211      1.00000
      4       2.5486      1.00000
      5       3.1679      1.00000
      6       3.1926      1.00000
      7       3.4230      1.00000
      8       3.8455      1.00000
      9       3.8698      1.00000
     10       3.8981      1.00000
     11       4.1246      1.00000
     12       4.5474      1.00000
     13       4.5836      1.00000
     14       4.8234      1.00003
     15       4.9610      1.00114
     16       5.1052      1.01514
     17       5.5369      0.20477
     18       6.2812     -0.00000
     19       6.4345     -0.00000
     20       8.9177     -0.00000
     21       9.4668     -0.00000
     22      10.9569      0.00000
     23      11.9308      0.00000
     24      18.9905      0.00000

 k-point   205 :       0.3889    0.3889    0.3333
  band No.  band energies     occupation 
      1      -0.1651      1.00000
      2       1.3241      1.00000
      3       1.9252      1.00000
      4       2.2964      1.00000
      5       3.2115      1.00000
      6       3.2817      1.00000
      7       3.3090      1.00000
      8       3.8587      1.00000
      9       3.8654      1.00000
     10       3.9488      1.00000
     11       4.1162      1.00000
     12       4.5402      1.00000
     13       4.5430      1.00000
     14       4.8170      1.00003
     15       4.8470      1.00006
     16       5.5029      0.32906
     17       5.5711      0.10485
     18       6.0567     -0.00011
     19       6.2272     -0.00000
     20       9.1620     -0.00000
     21       9.8701     -0.00000
     22       9.9932     -0.00000
     23      12.0912      0.00000
     24      19.1888      0.00000

 k-point   206 :       0.4444    0.3889    0.3333
  band No.  band energies     occupation 
      1       0.0096      1.00000
      2       1.3673      1.00000
      3       1.7961      1.00000
      4       2.3616      1.00000
      5       3.2222      1.00000
      6       3.2781      1.00000
      7       3.3697      1.00000
      8       3.8754      1.00000
      9       3.8841      1.00000
     10       4.0338      1.00000
     11       4.0703      1.00000
     12       4.5462      1.00000
     13       4.5547      1.00000
     14       4.8084      1.00002
     15       4.8678      1.00011
     16       5.2917      1.00155
     17       5.5426      0.18628
     18       6.0339     -0.00020
     19       6.1628     -0.00000
     20       8.9809     -0.00000
     21       9.6228     -0.00000
     22      10.2423     -0.00000
     23      11.5495      0.00000
     24      19.4028      0.00000

 k-point   207 :       0.5000    0.3889    0.3333
  band No.  band energies     occupation 
      1       0.0779      1.00000
      2       1.3950      1.00000
      3       1.7210      1.00000
      4       2.3966      1.00000
      5       3.2283      1.00000
      6       3.2715      1.00000
      7       3.3986      1.00000
      8       3.8822      1.00000
      9       3.8893      1.00000
     10       4.0536      1.00000
     11       4.0597      1.00000
     12       4.5513      1.00000
     13       4.5698      1.00000
     14       4.8032      1.00002
     15       4.9107      1.00035
     16       5.1526      1.02563
     17       5.5286      0.23328
     18       6.0600     -0.00010
     19       6.1286     -0.00001
     20       8.9202     -0.00000
     21       9.5188     -0.00000
     22      10.4343     -0.00000
     23      11.2797      0.00000
     24      19.4798      0.00000

 k-point   208 :       0.4444    0.4444    0.3333
  band No.  band energies     occupation 
      1       0.1266      1.00000
      2       1.5185      1.00000
      3       1.7766      1.00000
      4       2.2709      1.00000
      5       3.2525      1.00000
      6       3.3477      1.00000
      7       3.3606      1.00000
      8       3.8998      1.00000
      9       3.9034      1.00000
     10       4.0209      1.00000
     11       4.1323      1.00000
     12       4.5660      1.00000
     13       4.5819      1.00000
     14       4.7696      1.00001
     15       4.8618      1.00009
     16       5.2095      1.03527
     17       5.5050      0.32083
     18       5.9052     -0.00371
     19       6.0119     -0.00035
     20       8.9833     -0.00000
     21       9.8234     -0.00000
     22       9.9080     -0.00000
     23      11.0153      0.00000
     24      19.6403      0.00000

 k-point   209 :       0.5000    0.4444    0.3333
  band No.  band energies     occupation 
      1       0.1693      1.00000
      2       1.6149      1.00000
      3       1.7232      1.00000
      4       2.2425      1.00000
      5       3.2641      1.00000
      6       3.3489      1.00000
      7       3.3861      1.00000
      8       3.9095      1.00000
      9       3.9111      1.00000
     10       4.0015      1.00000
     11       4.1559      1.00000
     12       4.5903      1.00000
     13       4.6103      1.00000
     14       4.7500      1.00000
     15       4.8720      1.00012
     16       5.1193      1.01807
     17       5.4883      0.38791
     18       5.9157     -0.00303
     19       5.9257     -0.00248
     20       9.0078     -0.00000
     21       9.7143     -0.00000
     22      10.0441     -0.00000
     23      10.7453     -0.00000
     24      19.7244      0.00000

 k-point   210 :       0.5000    0.5000    0.3333
  band No.  band energies     occupation 
      1       0.2021      1.00000
      2       1.7245      1.00000
      3       1.7245      1.00000
      4       2.1568      1.00000
      5       3.2753      1.00000
      6       3.3830      1.00000
      7       3.3830      1.00000
      8       3.9217      1.00000
      9       3.9217      1.00000
     10       3.9792      1.00000
     11       4.1723      1.00000
     12       4.6558      1.00000
     13       4.6558      1.00000
     14       4.6961      1.00000
     15       4.8577      1.00008
     16       5.0556      1.00725
     17       5.4676      0.47452
     18       5.8672     -0.00729
     19       5.8672     -0.00729
     20       9.0717     -0.00000
     21       9.8808     -0.00000
     22       9.8808     -0.00000
     23      10.4692     -0.00000
     24      19.8105      0.00000

 k-point   211 :       0.3889    0.3889    0.3889
  band No.  band energies     occupation 
      1      -0.0020      1.00000
      2       1.4057      1.00000
      3       2.1151      1.00000
      4       2.1151      1.00000
      5       3.3041      1.00000
      6       3.3041      1.00000
      7       3.3081      1.00000
      8       3.8797      1.00000
      9       3.8797      1.00000
     10       4.0524      1.00000
     11       4.1108      1.00000
     12       4.5247      1.00000
     13       4.5247      1.00000
     14       4.8163      1.00002
     15       4.8163      1.00002
     16       5.5120      0.29386
     17       5.5874      0.06724
     18       5.9460     -0.00163
     19       5.9460     -0.00163
     20       9.0854     -0.00000
     21       9.6571     -0.00000
     22       9.6571     -0.00000
     23      11.4490      0.00000
     24      20.2348      0.00000

 k-point   212 :       0.4444    0.3889    0.3889
  band No.  band energies     occupation 
      1       0.1115      1.00000
      2       1.5207      1.00000
      3       1.9299      1.00000
      4       2.2490      1.00000
      5       3.3157      1.00000
      6       3.3240      1.00000
      7       3.3788      1.00000
      8       3.8919      1.00000
      9       3.8928      1.00000
     10       4.0085      1.00000
     11       4.2171      1.00000
     12       4.5107      1.00000
     13       4.5434      1.00000
     14       4.8005      1.00002
     15       4.8110      1.00002
     16       5.3448      0.91269
     17       5.5707      0.10572
     18       5.8878     -0.00511
     19       5.8889     -0.00501
     20       8.8718     -0.00000
     21       9.4605     -0.00000
     22       9.8232     -0.00000
     23      10.9210     -0.00000
     24      20.4144      0.00000

 k-point   213 :       0.5000    0.3889    0.3889
  band No.  band energies     occupation 
      1       0.1521      1.00000
      2       1.6134      1.00000
      3       1.8120      1.00000
      4       2.2972      1.00000
      5       3.3242      1.00000
      6       3.3302      1.00000
      7       3.4082      1.00000
      8       3.8948      1.00000
      9       3.8975      1.00000
     10       3.9917      1.00000
     11       4.2460      1.00000
     12       4.5045      1.00000
     13       4.5664      1.00000
     14       4.7906      1.00001
     15       4.8319      1.00004
     16       5.2287      1.03485
     17       5.5575      0.14125
     18       5.8733     -0.00658
     19       5.8975     -0.00429
     20       8.7789     -0.00000
     21       9.3961     -0.00000
     22       9.9881     -0.00000
     23      10.6526     -0.00000
     24      20.4814      0.00000

 k-point   214 :       0.4444    0.4444    0.3889
  band No.  band energies     occupation 
      1       0.1769      1.00000
      2       1.6802      1.00000
      3       1.9613      1.00000
      4       2.1851      1.00000
      5       3.3673      1.00000
      6       3.3953      1.00000
      7       3.3959      1.00000
      8       3.9025      1.00000
      9       3.9027      1.00000
     10       3.9650      1.00000
     11       4.3188      1.00000
     12       4.5226      1.00000
     13       4.5427      1.00000
     14       4.7515      1.00000
     15       4.7901      1.00001
     16       5.3036      0.98735
     17       5.5584      0.13858
     18       5.7507     -0.02999
     19       5.7940     -0.02022
     20       8.7745     -0.00000
     21       9.5043     -0.00000
     22       9.5970     -0.00000
     23      10.4132     -0.00000
     24      20.8255      0.00000

 k-point   215 :       0.5000    0.4444    0.3889
  band No.  band energies     occupation 
      1       0.1993      1.00000
      2       1.8043      1.00000
      3       1.8813      1.00000
      4       2.1879      1.00000
      5       3.3910      1.00000
      6       3.4019      1.00000
      7       3.4277      1.00000
      8       3.9037      1.00000
      9       3.9088      1.00000
     10       3.9474      1.00000
     11       4.3271      1.00000
     12       4.5313      1.00000
     13       4.5743      1.00000
     14       4.7307      1.00000
     15       4.7865      1.00001
     16       5.2428      1.03231
     17       5.5443      0.18102
     18       5.7457     -0.03098
     19       5.7507     -0.03000
     20       8.7339     -0.00000
     21       9.4537     -0.00000
     22       9.6879     -0.00000
     23      10.1514     -0.00000
     24      20.9221      0.00000

 k-point   216 :       0.5000    0.5000    0.3889
  band No.  band energies     occupation 
      1       0.2154      1.00000
      2       1.9075      1.00000
      3       1.9075      1.00000
      4       2.1137      1.00000
      5       3.4165      1.00000
      6       3.4373      1.00000
      7       3.4373      1.00000
      8       3.9113      1.00000
      9       3.9113      1.00000
     10       3.9271      1.00000
     11       4.3167      1.00000
     12       4.5896      1.00000
     13       4.5896      1.00000
     14       4.6840      1.00000
     15       4.7754      1.00001
     16       5.2203      1.03540
     17       5.5268      0.23961
     18       5.7096     -0.03542
     19       5.7096     -0.03542
     20       8.7300     -0.00000
     21       9.5779     -0.00000
     22       9.5779     -0.00000
     23       9.8806     -0.00000
     24      21.0307      0.00000

 k-point   217 :       0.4444    0.4444    0.4444
  band No.  band energies     occupation 
      1       0.2075      1.00000
      2       1.8347      1.00000
      3       2.0887      1.00000
      4       2.0887      1.00000
      5       3.4534      1.00000
      6       3.4538      1.00000
      7       3.4538      1.00000
      8       3.9020      1.00000
      9       3.9020      1.00000
     10       3.9271      1.00000
     11       4.4456      1.00000
     12       4.4860      1.00000
     13       4.4860      1.00000
     14       4.7269      1.00000
     15       4.7269      1.00000
     16       5.3381      0.92760
     17       5.5788      0.08630
     18       5.6600     -0.02430
     19       5.6600     -0.02430
     20       8.6304     -0.00000
     21       9.4170     -0.00000
     22       9.4170     -0.00000
     23       9.9495     -0.00000
     24      21.8772      0.00000

 k-point   218 :       0.5000    0.4444    0.4444
  band No.  band energies     occupation 
      1       0.2177      1.00000
      2       1.9523      1.00000
      3       1.9929      1.00000
      4       2.1339      1.00000
      5       3.4790      1.00000
      6       3.4864      1.00000
      7       3.4910      1.00000
      8       3.8977      1.00000
      9       3.9028      1.00000
     10       3.9112      1.00000
     11       4.4420      1.00000
     12       4.4541      1.00000
     13       4.5198      1.00000
     14       4.7028      1.00000
     15       4.7167      1.00000
     16       5.3295      0.94524
     17       5.5711      0.10475
     18       5.6292      0.00086
     19       5.6440     -0.01345
     20       8.5732     -0.00000
     21       9.3584     -0.00000
     22       9.4742     -0.00000
     23       9.7140     -0.00000
     24      21.9522      0.00000

 k-point   219 :       0.5000    0.5000    0.4444
  band No.  band energies     occupation 
      1       0.2238      1.00000
      2       2.0331      1.00000
      3       2.0331      1.00000
      4       2.0866      1.00000
      5       3.5217      1.00000
      6       3.5217      1.00000
      7       3.5278      1.00000
      8       3.8951      1.00000
      9       3.8961      1.00000
     10       3.8961      1.00000
     11       4.4067      1.00000
     12       4.4898      1.00000
     13       4.4898      1.00000
     14       4.6761      1.00000
     15       4.7035      1.00000
     16       5.3577      0.88043
     17       5.5634      0.12476
     18       5.6088      0.02808
     19       5.6088      0.02808
     20       8.5202     -0.00000
     21       9.4033     -0.00000
     22       9.4033     -0.00000
     23       9.4871     -0.00000
     24      22.2132      0.00000

 k-point   220 :       0.5000    0.5000    0.5000
  band No.  band energies     occupation 
      1       0.2267      1.00000
      2       2.0774      1.00000
      3       2.0774      1.00000
      4       2.0774      1.00000
      5       3.5717      1.00000
      6       3.5717      1.00000
      7       3.5717      1.00000
      8       3.8843      1.00000
      9       3.8843      1.00000
     10       3.8843      1.00000
     11       4.4368      1.00000
     12       4.4368      1.00000
     13       4.4368      1.00000
     14       4.6734      1.00000
     15       4.6734      1.00000
     16       5.4131      0.69843
     17       5.5758      0.09324
     18       5.5758      0.09324
     19       5.5758      0.09324
     20       8.4494     -0.00000
     21       9.3466     -0.00000
     22       9.3466     -0.00000
     23       9.3466     -0.00000
     24      22.9588      0.00000


--------------------------------------------------------------------------------------------------------


 soft charge-density along one line, spin component           1
         0         1         2         3         4         5         6         7         8         9
 total charge-density along one line
 
 soft charge-density along one line, spin component           2
         0         1         2         3         4         5         6         7         8         9
 total charge-density along one line
 
 pseudopotential strength for first ion, spin component:           1
  8.501  -0.004   0.000  -0.000   0.000   0.000  -0.000  -0.000
 -0.004   0.000   0.000  -0.000  -0.000  -0.000   0.000   0.000
  0.000   0.000   1.985   0.000   0.000  -0.022  -0.000  -0.000
 -0.000  -0.000   0.000   1.985   0.000  -0.000  -0.022  -0.000
  0.000  -0.000   0.000   0.000   1.985  -0.000  -0.000  -0.022
  0.000  -0.000  -0.022  -0.000  -0.000  -0.013  -0.000  -0.000
 -0.000   0.000  -0.000  -0.022  -0.000  -0.000  -0.013  -0.000
 -0.000   0.000  -0.000  -0.000  -0.022  -0.000  -0.000  -0.013
 pseudopotential strength for first ion, spin component:           2
  8.502  -0.004   0.000  -0.000   0.000   0.000  -0.000  -0.000
 -0.004   0.000   0.000  -0.000  -0.000  -0.000   0.000   0.000
  0.000   0.000   1.985   0.000   0.000  -0.022  -0.000  -0.000
 -0.000  -0.000   0.000   1.985   0.000  -0.000  -0.022  -0.000
  0.000  -0.000   0.000   0.000   1.985  -0.000  -0.000  -0.022
  0.000  -0.000  -0.022  -0.000  -0.000  -0.013  -0.000  -0.000
 -0.000   0.000  -0.000  -0.022  -0.000  -0.000  -0.013  -0.000
 -0.000   0.000  -0.000  -0.000  -0.022  -0.000  -0.000  -0.013
 total augmentation occupancy for first ion, spin component:           1
  1.208  -0.722   0.000   0.000   0.000   0.000   0.000   0.000
 -0.722   0.562   0.000   0.000   0.000   0.000   0.000   0.000
  0.000   0.000   0.776   0.000   0.000  -0.179   0.000   0.000
  0.000   0.000   0.000   0.776  -0.000  -0.000  -0.179   0.000
  0.000   0.000  -0.000   0.000   0.776   0.000  -0.000  -0.179
  0.000   0.000  -0.179   0.000   0.000   0.043   0.000   0.000
  0.000   0.000   0.000  -0.179  -0.000   0.000   0.043  -0.000
  0.000   0.000   0.000   0.000  -0.179   0.000  -0.000   0.043
 total augmentation occupancy for first ion, spin component:           2
  0.000   0.012   0.000   0.000   0.000   0.000   0.000   0.000
  0.012  -0.011   0.000   0.000   0.000   0.000   0.000   0.000
  0.000   0.000  -0.019   0.000   0.000   0.004  -0.000  -0.000
  0.000   0.000   0.000  -0.019   0.000   0.000   0.004   0.000
  0.000   0.000   0.000   0.000  -0.019  -0.000   0.000   0.004
  0.000   0.000   0.004   0.000   0.000  -0.001  -0.000  -0.000
  0.000   0.000   0.000   0.004   0.000  -0.000  -0.001   0.000
  0.000   0.000   0.000  -0.000   0.004  -0.000   0.000  -0.001


------------------------ aborting loop because EDIFF is reached ----------------------------------------


    CHARGE:  cpu time      0.2050: real time      0.2041
    FORLOC:  cpu time      0.0010: real time      0.0007
    FORNL :  cpu time      0.5869: real time      0.5865
    STRESS:  cpu time      1.4128: real time      1.4125
    FORCOR:  cpu time      0.0150: real time      0.0144
    FORHAR:  cpu time      0.0010: real time      0.0021
    MIXING:  cpu time      0.0020: real time      0.0007
    OFIELD:  cpu time      0.0000: real time      0.0002

  FORCE on cell =-STRESS in cart. coord.  units (eV):
  Direction    XX          YY          ZZ          XY          YZ          ZX
  --------------------------------------------------------------------------------------
  Alpha Z   204.49330   204.49330   204.49330
  Ewald    -875.22581  -875.22581  -875.22581    -0.00000     0.00000    -0.00000
  Hartree   297.22115   297.22115   297.22115    -0.00000    -0.00000    -0.00000
  E(xc)    -173.80062  -173.80062  -173.80062    -0.00000     0.00000    -0.00000
  Local     224.84455   224.84455   224.84455    -0.00000     0.00000    -0.00000
  n-local   -83.03654   -86.58605   -86.80733     0.42091     1.20663     0.61752
  augment   154.63222   154.63222   154.63222     0.00000     0.00000     0.00000
  Kinetic   257.04875   249.69120   243.97076    -1.38865    -0.48738    -0.97712
  Fock        0.00000     0.00000     0.00000     0.00000     0.00000     0.00000
  -------------------------------------------------------------------------------------
  Total      -3.07494    -3.07494    -3.07494     0.00000    -0.00000     0.00000
  in kB    -101.31386  -101.31386  -101.31386     0.00000    -0.00000     0.00000
  external pressure =     -101.31 kB  Pullay stress =        0.00 kB


 VOLUME and BASIS-vectors are now :
 -----------------------------------------------------------------------------
  energy-cutoff  :      600.00
  volume of cell :       48.63
      direct lattice vectors                 reciprocal lattice vectors
     3.650000000  0.000000000  0.000000000     0.273972603  0.000000000  0.000000000
     0.000000000  3.650000000  0.000000000     0.000000000  0.273972603  0.000000000
     0.000000000  0.000000000  3.650000000     0.000000000  0.000000000  0.273972603

  length of vectors
     3.650000000  3.650000000  3.650000000     0.273972603  0.273972603  0.273972603


 FORCES acting on ions
    electron-ion (+dipol)            ewald-force                    non-local-force                 convergence-correction
 -----------------------------------------------------------------------------------------------
   0.131E-14 -.532E-14 -.665E-14   -.341E-14 -.163E-14 -.243E-14   0.000E+00 0.000E+00 0.000E+00   -.402E-14 0.301E-15 -.399E-14
   0.209E-12 0.929E-14 -.517E-12   0.100E-13 0.414E-14 0.152E-14   0.000E+00 0.000E+00 0.000E+00   0.640E-13 0.351E-13 0.672E-13
   0.205E-12 0.324E-11 -.241E-11   0.741E-14 -.311E-14 -.463E-14   0.000E+00 0.000E+00 0.000E+00   0.584E-13 0.323E-13 -.630E-13
   -.291E-13 0.249E-12 0.191E-12   -.115E-13 0.145E-14 0.535E-14   0.000E+00 0.000E+00 0.000E+00   -.287E-13 0.155E-13 0.406E-13
 -----------------------------------------------------------------------------------------------
   0.386E-12 0.349E-11 -.274E-11   0.251E-14 0.855E-15 -.187E-15   0.000E+00 0.000E+00 0.000E+00   0.896E-13 0.833E-13 0.408E-13
 
 
 POSITION                                       TOTAL-FORCE (eV/Angst)
 -----------------------------------------------------------------------------------
      0.00000      0.00000      0.00000         0.000000      0.000000      0.000000
      1.82500      0.00000      1.82500         0.000000      0.000000      0.000000
      1.82500      1.82500      0.00000         0.000000      0.000000      0.000000
      0.00000      1.82500      1.82500         0.000000      0.000000      0.000000
 -----------------------------------------------------------------------------------
    total drift:                                0.000000      0.000000     -0.000000


--------------------------------------------------------------------------------------------------------



  FREE ENERGIE OF THE ION-ELECTRON SYSTEM (eV)
  ---------------------------------------------------
  free  energy   TOTEN  =       -22.11187971 eV

  energy  without entropy=      -22.11671513  energy(sigma->0) =      -22.11349151
 


--------------------------------------------------------------------------------------------------------


    POTLOK:  cpu time      0.5699: real time      0.5697


--------------------------------------------------------------------------------------------------------




--------------------------------------------------------------------------------------------------------


  
 reached required accuracy - stopping structural energy minimisation
     LOOP+:  cpu time     75.4835: real time     76.9838
    4ORBIT:  cpu time      0.0000: real time      0.0000

 total amount of memory used by VASP MPI-rank0    71507. kBytes
=======================================================================

   base      :      30000. kBytes
   nonl-proj :      26257. kBytes
   fftplans  :       1584. kBytes
   grid      :       1470. kBytes
   one-center:         31. kBytes
   wavefun   :      12165. kBytes
 
  
  
 General timing and accounting informations for this job:
 ========================================================
  
                  Total CPU time used (sec):       79.406
                            User time (sec):       71.444
                          System time (sec):        7.962
                         Elapsed time (sec):       81.007
  
                   Maximum memory used (kb):      134568.
                   Average memory used (kb):          N/A
  
                          Minor page faults:       131396
                          Major page faults:            0
                 Voluntary context switches:         1068
