Ni3Al L12                               
   3.57000000000000     
     0.9996931801340829    0.0000000000000000   -0.0000000000000000
    -0.0000000000000000    0.9996931801340829   -0.0000000000000000
     0.0000000000000000    0.0000000000000000    0.9996931801340829
   Al   Ni
     1     3
Direct
  0.0000000000000000  0.0000000000000000  0.0000000000000000
  0.5000000000000000  0.0000000000000000  0.5000000000000000
  0.5000000000000000  0.5000000000000000  0.0000000000000000
  0.0000000000000000  0.5000000000000000  0.5000000000000000
 
  0.00000000E+00  0.00000000E+00  0.00000000E+00
  0.00000000E+00  0.00000000E+00  0.00000000E+00
  0.00000000E+00  0.00000000E+00  0.00000000E+00
  0.00000000E+00  0.00000000E+00  0.00000000E+00
