Al8 Ni24
1.0
   7.1399999999999997    0.0000000000000000    0.0000000000000000
   0.0000000000000000    7.1399999999999997    0.0000000000000000
   0.0000000000000000    0.0000000000000000    7.1399999999999997
Al Ni
8 24
direct
   0.0000000000000000    0.0000000000000000    0.0000000000000000 Al
   0.0000000000000000    0.0000000000000000    0.5000000000000000 Al
   0.0000000000000000    0.5000000000000000    0.0000000000000000 Al
   0.0000000000000000    0.5000000000000000    0.5000000000000000 Al
   0.5000000000000000    0.0000000000000000    0.0000000000000000 Al
   0.5000000000000000    0.0000000000000000    0.5000000000000000 Al
   0.5000000000000000    0.5000000000000000    0.0000000000000000 Al
   0.5000000000000000    0.5000000000000000    0.5000000000000000 Al
   0.2500000000000000    0.0000000000000000    0.2500000000000000 Ni
   0.2500000000000000    0.0000000000000000    0.7500000000000000 Ni
   0.2500000000000000    0.5000000000000000    0.2500000000000000 Ni
   0.2500000000000000    0.5000000000000000    0.7500000000000000 Ni
   0.7500000000000000    0.0000000000000000    0.2500000000000000 Ni
   0.7500000000000000    0.0000000000000000    0.7500000000000000 Ni
   0.7500000000000000    0.5000000000000000    0.2500000000000000 Ni
   0.7500000000000000    0.5000000000000000    0.7500000000000000 Ni
   0.2500000000000000    0.2500000000000000    0.0000000000000000 Ni
   0.2500000000000000    0.2500000000000000    0.5000000000000000 Ni
   0.2500000000000000    0.7500000000000000    0.0000000000000000 Ni
   0.2500000000000000    0.7500000000000000    0.5000000000000000 Ni
   0.7500000000000000    0.2500000000000000    0.0000000000000000 Ni
   0.7500000000000000    0.2500000000000000    0.5000000000000000 Ni
   0.7500000000000000    0.7500000000000000    0.0000000000000000 Ni
   0.7500000000000000    0.7500000000000000    0.5000000000000000 Ni
   0.0000000000000000    0.2500000000000000    0.2500000000000000 Ni
   0.0000000000000000    0.2500000000000000    0.7500000000000000 Ni
   0.0000000000000000    0.7500000000000000    0.2500000000000000 Ni
   0.0000000000000000    0.7500000000000000    0.7500000000000000 Ni
   0.5000000000000000    0.2500000000000000    0.2500000000000000 Ni
   0.5000000000000000    0.2500000000000000    0.7500000000000000 Ni
   0.5000000000000000    0.7500000000000000    0.2500000000000000 Ni
   0.5000000000000000    0.7500000000000000    0.7500000000000000 Ni
