
     Program PWSCF v.6.7MaX starts on  4Aug2026 at  0:35:37 

     This program is part of the open-source Quantum ESPRESSO suite
     for quantum simulation of materials; please cite
         "P. Giannozzi et al., J. Phys.:Condens. Matter 21 395502 (2009);
         "P. Giannozzi et al., J. Phys.:Condens. Matter 29 465901 (2017);
          URL http://www.quantum-espresso.org", 
     in publications or presentations arising from this work. More details at
     http://www.quantum-espresso.org/quote

     Parallel version (MPI), running on     1 processors

     MPI processes distributed on     1 nodes
     Reading input from espresso.pwi
Warning: card &CELL ignored
Warning: card    CELL_DYNAMICS    = 'BFGS' ignored
Warning: card    PRESS_CONV_THR   = 0.1 ignored
Warning: card / ignored
Warning: card &FCP ignored
Warning: card / ignored
Warning: card &RISM ignored
Warning: card / ignored

     Current dimensions of program PWSCF are:
     Max number of different atomic species (ntypx) = 10
     Max number of k-points (npk) =  40000
     Max angular momentum in pseudopotentials (lmaxx) =  3
     file Al.pbe-n-kjpaw_psl.1.0.0.UPF: wavefunction(s)  3S 3P renormalized

     IMPORTANT: XC functional enforced from input :
     Exchange-correlation= PBE
                           (   1   4   3   4   0   0   0)
     Any further DFT definition will be discarded
     Please, verify this is what you really want


     Subspace diagonalization in iterative solution of the eigenvalue problem:
     a serial algorithm will be used

     Found symmetry operation: I + (  0.0000 -0.5000 -0.5000)
     This is a supercell, fractional translations are disabled
     Message from routine setup:
     using ibrav=0 with symmetry is DISCOURAGED, use correct ibrav instead

     G-vector sticks info
     --------------------
     sticks:   dense  smooth     PW     G-vecs:    dense   smooth      PW
     Sum         941     749    233                21367    15419    2601



     bravais-lattice index     =            0
     lattice parameter (alat)  =       7.6534  a.u.
     unit-cell volume          =     448.2927 (a.u.)^3
     number of atoms/cell      =            4
     number of atomic types    =            1
     number of electrons       =        12.00
     number of Kohn-Sham states=           10
     kinetic-energy cutoff     =      40.0000  Ry
     charge density cutoff     =     200.0000  Ry
     scf convergence threshold =      1.0E-08
     mixing beta               =       0.7000
     number of iterations used =            8  local-TF  mixing
     energy convergence thresh.=      1.0E-04
     force convergence thresh. =      1.0E-03
     Exchange-correlation= PBE
                           (   1   4   3   4   0   0   0)
     nstep                     =           50


     celldm(1)=   7.653391  celldm(2)=   0.000000  celldm(3)=   0.000000
     celldm(4)=   0.000000  celldm(5)=   0.000000  celldm(6)=   0.000000

     crystal axes: (cart. coord. in units of alat)
               a(1) = (   1.000000   0.000000   0.000000 )  
               a(2) = (   0.000000   1.000000   0.000000 )  
               a(3) = (   0.000000   0.000000   1.000000 )  

     reciprocal axes: (cart. coord. in units 2 pi/alat)
               b(1) = (  1.000000  0.000000  0.000000 )  
               b(2) = (  0.000000  1.000000  0.000000 )  
               b(3) = (  0.000000  0.000000  1.000000 )  


     PseudoPot. # 1 for Al read from file:
     /content/Al.pbe-n-kjpaw_psl.1.0.0.UPF
     MD5 check sum: 502b6b27b9c6270cab5dd1084b96fa6d
     Pseudo is Projector augmented-wave + core cor, Zval =  3.0
     Generated using &quot;atomic&quot; code by A. Dal Corso  v.6.3
     Shape of augmentation charge: PSQ
     Using radial grid of 1135 points,  6 beta functions with: 
                l(1) =   0
                l(2) =   0
                l(3) =   1
                l(4) =   1
                l(5) =   2
                l(6) =   2
     Q(r) pseudized with 0 coefficients 


     atomic species   valence    mass     pseudopotential
        Al             3.00    26.98154     Al( 1.00)

     48 Sym. Ops., with inversion, found



   Cartesian axes

     site n.     atom                  positions (alat units)
         1           Al  tau(   1) = (   0.0000000   0.0000000   0.0000000  )
         2           Al  tau(   2) = (   0.0000000   0.5000000   0.5000000  )
         3           Al  tau(   3) = (   0.5000000   0.0000000   0.5000000  )
         4           Al  tau(   4) = (   0.5000000   0.5000000   0.0000000  )

     number of k points=    35  Methfessel-Paxton smearing, width (Ry)=  0.0150
                       cart. coord. in units 2pi/alat
        k(    1) = (   0.0000000   0.0000000   0.0000000), wk =   0.0039062
        k(    2) = (   0.0000000   0.0000000   0.1250000), wk =   0.0234375
        k(    3) = (   0.0000000   0.0000000   0.2500000), wk =   0.0234375
        k(    4) = (   0.0000000   0.0000000   0.3750000), wk =   0.0234375
        k(    5) = (   0.0000000   0.0000000  -0.5000000), wk =   0.0117188
        k(    6) = (   0.0000000   0.1250000   0.1250000), wk =   0.0468750
        k(    7) = (   0.0000000   0.1250000   0.2500000), wk =   0.0937500
        k(    8) = (   0.0000000   0.1250000   0.3750000), wk =   0.0937500
        k(    9) = (   0.0000000   0.1250000  -0.5000000), wk =   0.0468750
        k(   10) = (   0.0000000   0.2500000   0.2500000), wk =   0.0468750
        k(   11) = (   0.0000000   0.2500000   0.3750000), wk =   0.0937500
        k(   12) = (   0.0000000   0.2500000  -0.5000000), wk =   0.0468750
        k(   13) = (   0.0000000   0.3750000   0.3750000), wk =   0.0468750
        k(   14) = (   0.0000000   0.3750000  -0.5000000), wk =   0.0468750
        k(   15) = (   0.0000000  -0.5000000  -0.5000000), wk =   0.0117188
        k(   16) = (   0.1250000   0.1250000   0.1250000), wk =   0.0312500
        k(   17) = (   0.1250000   0.1250000   0.2500000), wk =   0.0937500
        k(   18) = (   0.1250000   0.1250000   0.3750000), wk =   0.0937500
        k(   19) = (   0.1250000   0.1250000  -0.5000000), wk =   0.0468750
        k(   20) = (   0.1250000   0.2500000   0.2500000), wk =   0.0937500
        k(   21) = (   0.1250000   0.2500000   0.3750000), wk =   0.1875000
        k(   22) = (   0.1250000   0.2500000  -0.5000000), wk =   0.0937500
        k(   23) = (   0.1250000   0.3750000   0.3750000), wk =   0.0937500
        k(   24) = (   0.1250000   0.3750000  -0.5000000), wk =   0.0937500
        k(   25) = (   0.1250000  -0.5000000  -0.5000000), wk =   0.0234375
        k(   26) = (   0.2500000   0.2500000   0.2500000), wk =   0.0312500
        k(   27) = (   0.2500000   0.2500000   0.3750000), wk =   0.0937500
        k(   28) = (   0.2500000   0.2500000  -0.5000000), wk =   0.0468750
        k(   29) = (   0.2500000   0.3750000   0.3750000), wk =   0.0937500
        k(   30) = (   0.2500000   0.3750000  -0.5000000), wk =   0.0937500
        k(   31) = (   0.2500000  -0.5000000  -0.5000000), wk =   0.0234375
        k(   32) = (   0.3750000   0.3750000   0.3750000), wk =   0.0312500
        k(   33) = (   0.3750000   0.3750000  -0.5000000), wk =   0.0468750
        k(   34) = (   0.3750000  -0.5000000  -0.5000000), wk =   0.0234375
        k(   35) = (  -0.5000000  -0.5000000  -0.5000000), wk =   0.0039062

     Dense  grid:    21367 G-vectors     FFT dimensions: (  36,  36,  36)

     Smooth grid:    15419 G-vectors     FFT dimensions: (  32,  32,  32)

     Estimated max dynamical RAM per process >      91.33 MB

     Initial potential from superposition of free atoms

     starting charge   11.99084, renormalised to   12.00000
     Starting wfcs are   16 randomized atomic wfcs
     Checking if some PAW data can be deallocated... 

     total cpu time spent up to now is        2.1 secs

     Self-consistent Calculation

     iteration #  1     ecut=    40.00 Ry     beta= 0.70
     Davidson diagonalization with overlap
     ethr =  1.00E-02,  avg # of iterations =  3.2

     Threshold (ethr) on eigenvalues was too large:
     Diagonalizing with lowered threshold

     Davidson diagonalization with overlap
     ethr =  1.80E-04,  avg # of iterations =  2.9

     total cpu time spent up to now is        7.8 secs

     total energy              =    -158.01367319 Ry
     estimated scf accuracy    <       0.02143320 Ry

     iteration #  2     ecut=    40.00 Ry     beta= 0.70
     Davidson diagonalization with overlap
     ethr =  1.79E-04,  avg # of iterations =  1.0

     total cpu time spent up to now is       10.3 secs

     total energy              =    -158.01207785 Ry
     estimated scf accuracy    <       0.00557592 Ry

     iteration #  3     ecut=    40.00 Ry     beta= 0.70
     Davidson diagonalization with overlap
     ethr =  4.65E-05,  avg # of iterations =  1.0

     total cpu time spent up to now is       12.7 secs

     total energy              =    -158.01220029 Ry
     estimated scf accuracy    <       0.00001628 Ry

     iteration #  4     ecut=    40.00 Ry     beta= 0.70
     Davidson diagonalization with overlap
     ethr =  1.36E-07,  avg # of iterations =  4.0

     total cpu time spent up to now is       15.7 secs

     total energy              =    -158.01221985 Ry
     estimated scf accuracy    <       0.00000017 Ry

     iteration #  5     ecut=    40.00 Ry     beta= 0.70
     Davidson diagonalization with overlap
     ethr =  1.42E-09,  avg # of iterations =  2.2

     total cpu time spent up to now is       18.6 secs

     total energy              =    -158.01221985 Ry
     estimated scf accuracy    <       0.00000002 Ry

     iteration #  6     ecut=    40.00 Ry     beta= 0.70
     Davidson diagonalization with overlap
     ethr =  1.94E-10,  avg # of iterations =  2.0

     total cpu time spent up to now is       22.0 secs

     End of self-consistent calculation

          k = 0.0000 0.0000 0.0000 (  1935 PWs)   bands (ev):

    -3.2540   4.9305   4.9305   4.9305   6.2393   6.2393   6.2394  13.4093
    13.4101  13.4102

          k = 0.0000 0.0000 0.1250 (  1903 PWs)   bands (ev):

    -3.1130   3.4590   5.0596   5.0596   6.3758   6.3758   7.9554  11.2901
    11.2901  12.5468

          k = 0.0000 0.0000 0.2500 (  1923 PWs)   bands (ev):

    -2.6907   1.7302   5.4473   5.4473   6.7803   6.7803   9.5991   9.5991
    10.4167  11.0968

          k = 0.0000 0.0000 0.3750 (  1920 PWs)   bands (ev):

    -1.9897   0.2293   6.0942   6.0942   7.4271   7.4272   8.1692   8.1692
     9.7474   9.7475

          k = 0.0000 0.0000-0.5000 (  1936 PWs)   bands (ev):

    -1.0142  -1.0142   7.0011   7.0011   7.0011   7.0011   8.0195   8.0195
     8.9137   8.9138

          k = 0.0000 0.1250 0.1250 (  1913 PWs)   bands (ev):

    -2.9721   3.5928   3.5928   5.1888   6.5101   8.0857   8.0857   9.9066
    11.4205  11.4205

          k = 0.0000 0.1250 0.2500 (  1923 PWs)   bands (ev):

    -2.5502   1.8663   3.9936   5.5766   6.8966   8.2755   8.4690   9.7292
    10.5376  11.2346

          k = 0.0000 0.1250 0.3750 (  1917 PWs)   bands (ev):

    -1.8499   0.3669   4.6589   6.2236   6.7279   7.6795   8.2991   9.0136
     9.9708  11.3034

          k = 0.0000 0.1250-0.5000 (  1912 PWs)   bands (ev):

    -0.8754  -0.8754   5.5827   5.5828   7.1308   7.1308   8.5336   8.5337
    10.1918  10.1918

          k = 0.0000 0.2500 0.2500 (  1909 PWs)   bands (ev):

    -2.1296   2.2737   2.2737   5.9647   6.4893   7.4316  10.1195  10.1195
    10.8309  10.8309

          k = 0.0000 0.2500 0.3750 (  1917 PWs)   bands (ev):

    -1.4314   0.7789   2.9501   5.0870   6.6122   8.0591   8.6888  10.1175
    10.7697  11.6940

          k = 0.0000 0.2500-0.5000 (  1926 PWs)   bands (ev):

    -0.4598  -0.4598   3.8910   3.8911   7.5199   7.5199   8.9808   8.9808
    11.6793  11.6793

          k = 0.0000 0.3750 0.3750 (  1925 PWs)   bands (ev):

    -0.7366   1.4630   1.4630   3.6280   7.2604   8.7283   9.3385   9.3385
    10.8150  10.8150

          k = 0.0000 0.3750-0.5000 (  1920 PWs)   bands (ev):

     0.2303   0.2304   2.4151   2.4151   8.1689   8.1689   9.6546   9.6546
    10.2484  10.2484

          k = 0.0000-0.5000-0.5000 (  1924 PWs)   bands (ev):

     1.1908   1.1908   1.1908   1.1908   9.0782   9.0782   9.0782   9.0782
    10.5749  10.5749

          k = 0.1250 0.1250 0.1250 (  1917 PWs)   bands (ev):

    -2.8313   3.7265   3.7265   3.7265   8.2104   8.2104   8.2104  10.0431
    10.0431  10.0431

          k = 0.1250 0.1250 0.2500 (  1918 PWs)   bands (ev):

    -2.4099   2.0022   4.1267   4.1267   8.2598   8.2598   8.7356   8.7356
    10.3316  10.7673

          k = 0.1250 0.1250 0.3750 (  1918 PWs)   bands (ev):

    -1.7103   0.5043   4.7898   4.7898   6.9147   6.9147   9.2903   9.2903
    11.0532  11.4432

          k = 0.1250 0.1250-0.5000 (  1926 PWs)   bands (ev):

    -0.7368  -0.7367   5.6019   5.6019   5.8492   5.8492   9.9453   9.9453
    10.5453  10.5453

          k = 0.1250 0.2500 0.2500 (  1913 PWs)   bands (ev):

    -1.9897   2.4092   2.4093   4.5241   6.6843   8.7444   8.7444   9.0525
    11.0821  11.0821

          k = 0.1250 0.2500 0.3750 (  1912 PWs)   bands (ev):

    -1.2922   0.9160   3.0849   5.0871   5.3426   7.3153   9.4058   9.7023
    11.4881  11.5075

          k = 0.1250 0.2500-0.5000 (  1920 PWs)   bands (ev):

    -0.3215  -0.3215   4.0233   4.0233   6.1337   6.1337  10.3208  10.3209
    10.5988  10.5988

          k = 0.1250 0.3750 0.3750 (  1926 PWs)   bands (ev):

    -0.5980   1.5995   1.5995   3.7607   5.8698   7.9749   7.9749  10.0682
    10.3606  12.4002

          k = 0.1250 0.3750-0.5000 (  1918 PWs)   bands (ev):

     0.3680   0.3680   2.5505   2.5505   6.7925   6.7925   8.8939   8.8940
    11.2667  11.2667

          k = 0.1250-0.5000-0.5000 (  1920 PWs)   bands (ev):

     1.3276   1.3276   1.3276   1.3276   7.7146   7.7146   7.7146   7.7146
    12.1706  12.1706

          k = 0.2500 0.2500 0.2500 (  1914 PWs)   bands (ev):

    -1.5708   2.8150   2.8150   2.8150   7.0870   7.0870   7.0871  11.2670
    11.4812  11.4813

          k = 0.2500 0.2500 0.3750 (  1908 PWs)   bands (ev):

    -0.8753   1.3265   3.4872   3.4872   5.6424   5.6424   7.7490   9.8466
    12.1159  12.1159

          k = 0.2500 0.2500-0.5000 (  1894 PWs)   bands (ev):

     0.0926   0.0927   4.3126   4.3126   4.5576   4.5576   8.6704   8.6704
    12.8006  13.2562

          k = 0.2500 0.3750 0.3750 (  1914 PWs)   bands (ev):

    -0.1831   2.0080   2.0080   4.0523   4.2884   6.3051   6.3051   8.4163
    12.7673  14.5979

          k = 0.2500 0.3750-0.5000 (  1910 PWs)   bands (ev):

     0.7802   0.7802   2.9551   2.9551   5.1114   5.1114   7.2321   7.2321
    13.6431  13.6431

          k = 0.2500-0.5000-0.5000 (  1908 PWs)   bands (ev):

     1.7370   1.7370   1.7370   1.7370   6.0416   6.0416   6.0416   6.0416
    14.5242  14.5242

          k = 0.3750 0.3750 0.3750 (  1896 PWs)   bands (ev):

     0.5058   2.6853   2.6853   2.6853   4.8502   4.8502   4.8503   6.9756
    15.4036  15.4037

          k = 0.3750 0.3750-0.5000 (  1916 PWs)   bands (ev):

     1.4646   1.4646   3.5310   3.5310   3.7436   3.7436   5.7827   5.7827
    16.3350  16.3351

          k = 0.3750-0.5000-0.5000 (  1908 PWs)   bands (ev):

     2.4159   2.4160   2.4160   2.4160   4.5836   4.5836   4.5836   4.5837
    17.0295  17.0295

          k =-0.5000-0.5000-0.5000 (  1904 PWs)   bands (ev):

     3.2699   3.2699   3.2699   3.2699   3.4682   3.4682   3.4682   3.4682
    19.1841  19.1841

     the Fermi energy is     7.9661 ev

!    total energy              =    -158.01221986 Ry

     total all-electron energy =     -1942.583341 Ry
     estimated scf accuracy    <          9.2E-10 Ry
     smearing contrib. (-TS)   =       0.00015065 Ry
     internal energy E=F+TS    =    -158.01237050 Ry

     The total energy is F=E-TS. E is the sum of the following terms:
     one-electron contribution =      12.59661431 Ry
     hartree contribution      =       0.02335971 Ry
     xc contribution           =     -10.34948744 Ry
     ewald contribution        =     -21.56626246 Ry
     one-center paw contrib.   =    -138.71659462 Ry

     convergence has been achieved in   6 iterations

     Forces acting on atoms (cartesian axes, Ry/au):

     atom    1 type  1   force =     0.00000000    0.00000000    0.00000000
     atom    2 type  1   force =     0.00000000    0.00000000    0.00000000
     atom    3 type  1   force =     0.00000000    0.00000000    0.00000000
     atom    4 type  1   force =     0.00000000    0.00000000    0.00000000

     Total force =     0.000000     Total SCF correction =     0.000000


     Computing stress (Cartesian axis) and pressure

          total   stress  (Ry/bohr**3)                   (kbar)     P=       -3.15
  -0.00002143   0.00000000   0.00000000           -3.15        0.00        0.00
   0.00000000  -0.00002143   0.00000000            0.00       -3.15        0.00
   0.00000000   0.00000000  -0.00002143            0.00        0.00       -3.15


     BFGS Geometry Optimization
     Energy error            =      0.0E+00
     Gradient error          =      0.0E+00

     bfgs converged in   1 scf cycles and   0 bfgs steps
     (criteria: energy <  1.0E-04 Ry, force <  1.0E-03 Ry/Bohr)

     End of BFGS Geometry Optimization

     Final energy   =    -158.0122198552 Ry
Begin final coordinates

ATOMIC_POSITIONS (angstrom)
Al            0.0000000000        0.0000000000        0.0000000000
Al            0.0000000000        2.0250000000        2.0250000000
Al            2.0250000000        0.0000000000        2.0250000000
Al            2.0250000000        2.0250000000        0.0000000000
End final coordinates



     Writing output data file ./tmp_Al/Al.save/

     init_run     :      2.01s CPU      1.88s WALL (       1 calls)
     electrons    :     20.96s CPU     19.94s WALL (       1 calls)
     forces       :      0.56s CPU      0.46s WALL (       1 calls)
     stress       :      2.43s CPU      2.18s WALL (       1 calls)

     Called by init_run:
     wfcinit      :      0.77s CPU      0.62s WALL (       1 calls)
     potinit      :      0.78s CPU      0.80s WALL (       1 calls)
     hinit0       :      0.36s CPU      0.35s WALL (       1 calls)

     Called by electrons:
     c_bands      :     12.39s CPU     11.08s WALL (       7 calls)
     sum_band     :      2.50s CPU      2.54s WALL (       7 calls)
     v_of_rho     :      0.24s CPU      0.25s WALL (       7 calls)
     newd         :      0.46s CPU      0.63s WALL (       7 calls)
     PAW_pot      :      6.08s CPU      6.20s WALL (       7 calls)
     mix_rho      :      0.10s CPU      0.09s WALL (       7 calls)

     Called by c_bands:
     init_us_2    :      0.95s CPU      0.87s WALL (     595 calls)
     cegterg      :      8.03s CPU      6.94s WALL (     245 calls)

     Called by *egterg:
     cdiaghg      :      0.31s CPU      0.25s WALL (     781 calls)
     h_psi        :      6.16s CPU      5.44s WALL (     851 calls)
     s_psi        :      0.91s CPU      0.70s WALL (     851 calls)
     g_psi        :      0.11s CPU      0.08s WALL (     571 calls)

     Called by h_psi:
     h_psi:calbec :      0.90s CPU      0.73s WALL (     851 calls)
     vloc_psi     :      4.16s CPU      3.94s WALL (     851 calls)
     add_vuspsi   :      1.03s CPU      0.72s WALL (     851 calls)

     General routines
     calbec       :      1.40s CPU      1.08s WALL (    1271 calls)
     fft          :      0.17s CPU      0.17s WALL (     115 calls)
     ffts         :      0.02s CPU      0.02s WALL (      79 calls)
     fftw         :      3.43s CPU      3.26s WALL (   15824 calls)
     interpolate  :      0.01s CPU      0.01s WALL (       7 calls)

     Parallel routines

     PWSCF        :     26.18s CPU     24.69s WALL


   This run was terminated on:   0:36: 1   4Aug2026            

=------------------------------------------------------------------------------=
   JOB DONE.
=------------------------------------------------------------------------------=
