
     Program PWSCF v.6.7MaX starts on  4Aug2026 at 12:42:55 

     This program is part of the open-source Quantum ESPRESSO suite
     for quantum simulation of materials; please cite
         "P. Giannozzi et al., J. Phys.:Condens. Matter 21 395502 (2009);
         "P. Giannozzi et al., J. Phys.:Condens. Matter 29 465901 (2017);
          URL http://www.quantum-espresso.org", 
     in publications or presentations arising from this work. More details at
     http://www.quantum-espresso.org/quote

     Parallel version (MPI), running on     1 processors

     MPI processes distributed on     1 nodes
     Reading input from espresso.pwi
Warning: card &CELL ignored
Warning: card    CELL_DYNAMICS    = 'BFGS' ignored
Warning: card    PRESS_CONV_THR   = 0.1 ignored
Warning: card / ignored
Warning: card &FCP ignored
Warning: card / ignored
Warning: card &RISM ignored
Warning: card / ignored

     Current dimensions of program PWSCF are:
     Max number of different atomic species (ntypx) = 10
     Max number of k-points (npk) =  40000
     Max angular momentum in pseudopotentials (lmaxx) =  3
     file Ni.pbe-spn-kjpaw_psl.1.0.0.UPF: wavefunction(s)  3P 3D renormalized

     IMPORTANT: XC functional enforced from input :
     Exchange-correlation= PBE
                           (   1   4   3   4   0   0   0)
     Any further DFT definition will be discarded
     Please, verify this is what you really want


     Subspace diagonalization in iterative solution of the eigenvalue problem:
     a serial algorithm will be used

     Found symmetry operation: I + (  0.0000 -0.5000 -0.5000)
     This is a supercell, fractional translations are disabled
     Message from routine setup:
     using ibrav=0 with symmetry is DISCOURAGED, use correct ibrav instead

     G-vector sticks info
     --------------------
     sticks:   dense  smooth     PW     G-vecs:    dense   smooth      PW
     Sum        1757    1117    341                55515    28425    4625



     bravais-lattice index     =            0
     lattice parameter (alat)  =       6.6518  a.u.
     unit-cell volume          =     294.3233 (a.u.)^3
     number of atoms/cell      =            4
     number of atomic types    =            1
     number of electrons       =        72.00
     number of Kohn-Sham states=           43
     kinetic-energy cutoff     =      80.0000  Ry
     charge density cutoff     =     500.0000  Ry
     scf convergence threshold =      1.0E-08
     mixing beta               =       0.7000
     number of iterations used =            8  local-TF  mixing
     energy convergence thresh.=      1.0E-04
     force convergence thresh. =      1.0E-03
     Exchange-correlation= PBE
                           (   1   4   3   4   0   0   0)
     nstep                     =           50


     celldm(1)=   6.651836  celldm(2)=   0.000000  celldm(3)=   0.000000
     celldm(4)=   0.000000  celldm(5)=   0.000000  celldm(6)=   0.000000

     crystal axes: (cart. coord. in units of alat)
               a(1) = (   1.000000   0.000000   0.000000 )  
               a(2) = (   0.000000   1.000000   0.000000 )  
               a(3) = (   0.000000   0.000000   1.000000 )  

     reciprocal axes: (cart. coord. in units 2 pi/alat)
               b(1) = (  1.000000  0.000000  0.000000 )  
               b(2) = (  0.000000  1.000000  0.000000 )  
               b(3) = (  0.000000  0.000000  1.000000 )  


     PseudoPot. # 1 for Ni read from file:
     /content/Ni.pbe-spn-kjpaw_psl.1.0.0.UPF
     MD5 check sum: 6e86b733589c3ad8389697b807d86aa7
     Pseudo is Projector augmented-wave + core cor, Zval = 18.0
     Generated using &quot;atomic&quot; code by A. Dal Corso  v.6.3
     Shape of augmentation charge: PSQ
     Using radial grid of 1195 points,  6 beta functions with: 
                l(1) =   0
                l(2) =   0
                l(3) =   1
                l(4) =   1
                l(5) =   2
                l(6) =   2
     Q(r) pseudized with 0 coefficients 


     atomic species   valence    mass     pseudopotential
        Ni            18.00    58.69340     Ni( 1.00)

     Starting magnetic structure 
     atomic species   magnetization
        Ni           0.600

     48 Sym. Ops., with inversion, found



   Cartesian axes

     site n.     atom                  positions (alat units)
         1           Ni  tau(   1) = (   0.0000000   0.0000000   0.0000000  )
         2           Ni  tau(   2) = (   0.0000000   0.5000000   0.5000000  )
         3           Ni  tau(   3) = (   0.5000000   0.0000000   0.5000000  )
         4           Ni  tau(   4) = (   0.5000000   0.5000000   0.0000000  )

     number of k points=    35  Methfessel-Paxton smearing, width (Ry)=  0.0150
                       cart. coord. in units 2pi/alat
        k(    1) = (   0.0000000   0.0000000   0.0000000), wk =   0.0019531
        k(    2) = (   0.0000000   0.0000000   0.1250000), wk =   0.0117188
        k(    3) = (   0.0000000   0.0000000   0.2500000), wk =   0.0117188
        k(    4) = (   0.0000000   0.0000000   0.3750000), wk =   0.0117188
        k(    5) = (   0.0000000   0.0000000  -0.5000000), wk =   0.0058594
        k(    6) = (   0.0000000   0.1250000   0.1250000), wk =   0.0234375
        k(    7) = (   0.0000000   0.1250000   0.2500000), wk =   0.0468750
        k(    8) = (   0.0000000   0.1250000   0.3750000), wk =   0.0468750
        k(    9) = (   0.0000000   0.1250000  -0.5000000), wk =   0.0234375
        k(   10) = (   0.0000000   0.2500000   0.2500000), wk =   0.0234375
        k(   11) = (   0.0000000   0.2500000   0.3750000), wk =   0.0468750
        k(   12) = (   0.0000000   0.2500000  -0.5000000), wk =   0.0234375
        k(   13) = (   0.0000000   0.3750000   0.3750000), wk =   0.0234375
        k(   14) = (   0.0000000   0.3750000  -0.5000000), wk =   0.0234375
        k(   15) = (   0.0000000  -0.5000000  -0.5000000), wk =   0.0058594
        k(   16) = (   0.1250000   0.1250000   0.1250000), wk =   0.0156250
        k(   17) = (   0.1250000   0.1250000   0.2500000), wk =   0.0468750
        k(   18) = (   0.1250000   0.1250000   0.3750000), wk =   0.0468750
        k(   19) = (   0.1250000   0.1250000  -0.5000000), wk =   0.0234375
        k(   20) = (   0.1250000   0.2500000   0.2500000), wk =   0.0468750
        k(   21) = (   0.1250000   0.2500000   0.3750000), wk =   0.0937500
        k(   22) = (   0.1250000   0.2500000  -0.5000000), wk =   0.0468750
        k(   23) = (   0.1250000   0.3750000   0.3750000), wk =   0.0468750
        k(   24) = (   0.1250000   0.3750000  -0.5000000), wk =   0.0468750
        k(   25) = (   0.1250000  -0.5000000  -0.5000000), wk =   0.0117188
        k(   26) = (   0.2500000   0.2500000   0.2500000), wk =   0.0156250
        k(   27) = (   0.2500000   0.2500000   0.3750000), wk =   0.0468750
        k(   28) = (   0.2500000   0.2500000  -0.5000000), wk =   0.0234375
        k(   29) = (   0.2500000   0.3750000   0.3750000), wk =   0.0468750
        k(   30) = (   0.2500000   0.3750000  -0.5000000), wk =   0.0468750
        k(   31) = (   0.2500000  -0.5000000  -0.5000000), wk =   0.0117188
        k(   32) = (   0.3750000   0.3750000   0.3750000), wk =   0.0156250
        k(   33) = (   0.3750000   0.3750000  -0.5000000), wk =   0.0234375
        k(   34) = (   0.3750000  -0.5000000  -0.5000000), wk =   0.0117188
        k(   35) = (  -0.5000000  -0.5000000  -0.5000000), wk =   0.0019531

     Dense  grid:    55515 G-vectors     FFT dimensions: (  48,  48,  48)

     Smooth grid:    28425 G-vectors     FFT dimensions: (  40,  40,  40)

     Estimated max dynamical RAM per process >     394.52 MB
     Generating pointlists ...
     new r_m :   0.2917 (alat units)  1.9402 (a.u.) for type    1

     Initial potential from superposition of free atoms

     starting charge   71.99900, renormalised to   72.00000
     Starting wfcs are   40 randomized atomic wfcs +    3 random wfcs
     Checking if some PAW data can be deallocated... 

     total cpu time spent up to now is       12.6 secs

     Self-consistent Calculation

     iteration #  1     ecut=    80.00 Ry     beta= 0.70
     Davidson diagonalization with overlap
     ethr =  1.00E-02,  avg # of iterations =  3.9

     total cpu time spent up to now is       38.5 secs

     total energy              =   -1714.76879691 Ry
     estimated scf accuracy    <      10.55147364 Ry

     total magnetization       =     9.45 Bohr mag/cell
     absolute magnetization    =    10.02 Bohr mag/cell

     iteration #  2     ecut=    80.00 Ry     beta= 0.70
     Davidson diagonalization with overlap
     ethr =  1.00E-02,  avg # of iterations =  1.5

     total cpu time spent up to now is       60.1 secs

     total energy              =   -1716.18826659 Ry
     estimated scf accuracy    <       3.17821535 Ry

     total magnetization       =     4.58 Bohr mag/cell
     absolute magnetization    =     5.68 Bohr mag/cell

     iteration #  3     ecut=    80.00 Ry     beta= 0.70
     Davidson diagonalization with overlap
     ethr =  4.41E-03,  avg # of iterations =  1.6

     total cpu time spent up to now is       82.0 secs

     total energy              =   -1716.56063975 Ry
     estimated scf accuracy    <       0.38407122 Ry

     total magnetization       =     4.23 Bohr mag/cell
     absolute magnetization    =     4.95 Bohr mag/cell

     iteration #  4     ecut=    80.00 Ry     beta= 0.70
     Davidson diagonalization with overlap
     ethr =  5.33E-04,  avg # of iterations =  1.6

     total cpu time spent up to now is      103.7 secs

     total energy              =   -1716.61952216 Ry
     estimated scf accuracy    <       0.06904673 Ry

     total magnetization       =     2.79 Bohr mag/cell
     absolute magnetization    =     3.46 Bohr mag/cell

     iteration #  5     ecut=    80.00 Ry     beta= 0.70
     Davidson diagonalization with overlap
     ethr =  9.59E-05,  avg # of iterations =  1.6

     total cpu time spent up to now is      123.6 secs

     total energy              =   -1716.62563530 Ry
     estimated scf accuracy    <       0.05405482 Ry

     total magnetization       =     2.67 Bohr mag/cell
     absolute magnetization    =     3.29 Bohr mag/cell

     iteration #  6     ecut=    80.00 Ry     beta= 0.70
     Davidson diagonalization with overlap
     ethr =  7.51E-05,  avg # of iterations =  1.0

     total cpu time spent up to now is      143.2 secs

     total energy              =   -1716.63001688 Ry
     estimated scf accuracy    <       0.00088826 Ry

     total magnetization       =     2.47 Bohr mag/cell
     absolute magnetization    =     2.94 Bohr mag/cell

     iteration #  7     ecut=    80.00 Ry     beta= 0.70
     Davidson diagonalization with overlap
     ethr =  1.23E-06,  avg # of iterations =  3.4

     total cpu time spent up to now is      169.0 secs

     total energy              =   -1716.63040195 Ry
     estimated scf accuracy    <       0.00001716 Ry

     total magnetization       =     2.48 Bohr mag/cell
     absolute magnetization    =     2.88 Bohr mag/cell

     iteration #  8     ecut=    80.00 Ry     beta= 0.70
     Davidson diagonalization with overlap
     ethr =  2.38E-08,  avg # of iterations =  2.4

     total cpu time spent up to now is      192.7 secs

     total energy              =   -1716.63041089 Ry
     estimated scf accuracy    <       0.00000479 Ry

     total magnetization       =     2.48 Bohr mag/cell
     absolute magnetization    =     2.86 Bohr mag/cell

     iteration #  9     ecut=    80.00 Ry     beta= 0.70
     Davidson diagonalization with overlap
     ethr =  6.65E-09,  avg # of iterations =  2.5

     total cpu time spent up to now is      216.7 secs

     total energy              =   -1716.63041350 Ry
     estimated scf accuracy    <       0.00000066 Ry

     total magnetization       =     2.47 Bohr mag/cell
     absolute magnetization    =     2.84 Bohr mag/cell

     iteration # 10     ecut=    80.00 Ry     beta= 0.70
     Davidson diagonalization with overlap
     ethr =  9.15E-10,  avg # of iterations =  1.9

     Magnetic moment per site:
     atom:    1    charge:   16.7020    magn:    0.6560    constr:    0.0000
     atom:    2    charge:   16.7020    magn:    0.6560    constr:    0.0000
     atom:    3    charge:   16.7020    magn:    0.6560    constr:    0.0000
     atom:    4    charge:   16.7020    magn:    0.6560    constr:    0.0000

     total cpu time spent up to now is      237.8 secs

     End of self-consistent calculation

 ------ SPIN UP ------------


          k = 0.0000 0.0000 0.0000 (  3575 PWs)   bands (ev):

   -85.7553 -85.7112 -85.7112 -85.7112 -46.2067 -46.2067 -46.2067 -46.0829
   -46.0829 -46.0829 -46.0829 -46.0829 -46.0829 -46.0020 -46.0020 -46.0020
     8.8300  13.2615  13.2615  13.2615  13.7172  13.7172  13.7172  15.4912
    15.4912  15.4912  16.6865  16.6865  17.4005  17.4005  17.4005  17.4667
    17.4667  17.4667  17.4667  17.4667  17.4667  20.2976  20.2976  20.2976
    27.0848  27.0848  27.0848

          k = 0.0000 0.0000 0.1250 (  3579 PWs)   bands (ev):

   -85.7536 -85.7128 -85.7112 -85.7112 -46.2021 -46.2021 -46.1988 -46.0878
   -46.0878 -46.0831 -46.0830 -46.0795 -46.0795 -46.0109 -46.0052 -46.0052
     9.0337  13.2700  13.3666  13.3666  13.7796  13.7858  13.7858  15.4180
    15.5481  15.5481  16.6183  16.7129  17.0386  17.0386  17.3124  17.3124
    17.3655  17.3655  17.3728  17.4667  17.4668  19.3268  20.8968  20.8968
    27.1353  27.1353  28.4174

          k = 0.0000 0.0000 0.2500 (  3575 PWs)   bands (ev):

   -85.7488 -85.7176 -85.7112 -85.7112 -46.1886 -46.1886 -46.1773 -46.1012
   -46.1012 -46.0838 -46.0837 -46.0707 -46.0707 -46.0333 -46.0139 -46.0139
     9.6317  13.2017  13.6481  13.6481  13.9592  13.9936  13.9936  15.2125
    15.7166  15.7166  16.2485  16.2485  16.4343  16.7878  17.0709  17.0709
    17.0931  17.0931  17.2933  17.4672  17.4672  17.6288  22.1969  22.1969
    27.2989  27.2989  29.5878

          k = 0.0000 0.0000 0.3750 (  3551 PWs)   bands (ev):

   -85.7416 -85.7247 -85.7112 -85.7111 -46.1684 -46.1684 -46.1440 -46.1212
   -46.1212 -46.0841 -46.0841 -46.0659 -46.0578 -46.0578 -46.0269 -46.0269
    10.5738  12.7424  13.9866  13.9866  14.2338  14.3448  14.3448  14.9116
    15.4849  15.4849  15.9859  15.9859  16.2009  16.4190  16.7234  16.7234
    16.7697  16.7697  16.9017  17.1751  17.4676  17.4676  23.8014  23.8014
    27.5455  27.5918  27.5919

          k = 0.0000 0.0000-0.5000 (  3546 PWs)   bands (ev):

   -85.7332 -85.7332 -85.7112 -85.7111 -46.1448 -46.1448 -46.1448 -46.1448
   -46.1050 -46.1050 -46.0843 -46.0843 -46.0423 -46.0423 -46.0423 -46.0423
    11.7261  11.7261  14.1541  14.1541  14.5673  14.5673  14.8427  14.8427
    14.8427  14.8427  16.0740  16.0741  16.3344  16.3344  16.3344  16.3344
    16.6168  16.6169  17.0376  17.0376  17.4678  17.4678  25.5997  25.5997
    25.5997  25.5997  27.8453

          k = 0.0000 0.1250 0.1250 (  3579 PWs)   bands (ev):

   -85.7520 -85.7128 -85.7128 -85.7112 -46.1973 -46.1953 -46.1953 -46.0965
   -46.0845 -46.0845 -46.0796 -46.0796 -46.0784 -46.0224 -46.0081 -46.0047
     9.2350  13.3797  13.3797  13.4654  13.8454  13.8454  13.8506  15.3794
    15.5745  15.5931  16.6011  16.7009  16.7765  16.8726  16.8726  17.2331
    17.3117  17.3117  17.3651  17.3651  17.4017  19.9239  19.9239  21.3963
    27.1738  28.5084  28.5084

          k = 0.0000 0.1250 0.2500 (  3573 PWs)   bands (ev):

   -85.7474 -85.7174 -85.7126 -85.7114 -46.1845 -46.1842 -46.1763 -46.1114
   -46.0976 -46.0786 -46.0758 -46.0756 -46.0698 -46.0464 -46.0172 -46.0102
     9.8251  13.3251  13.6755  13.7309  14.0168  14.0434  14.0446  15.2009
    15.7187  15.7254  16.0845  16.1376  16.4480  16.4557  16.7815  17.0131
    17.0792  17.0918  17.2330  17.3640  17.3668  18.3517  21.0910  22.5827
    27.0497  27.8630  28.7870

          k = 0.0000 0.1250 0.3750 (  3571 PWs)   bands (ev):

   -85.7405 -85.7242 -85.7123 -85.7117 -46.1688 -46.1645 -46.1473 -46.1301
   -46.1176 -46.0779 -46.0777 -46.0756 -46.0620 -46.0550 -46.0310 -46.0224
    10.7532  12.8826  14.0399  14.0687  14.2784  14.3431  14.3797  14.9201
    15.3555  15.4505  15.8473  15.9558  15.9887  16.3317  16.7223  16.7378
    16.7805  16.9268  16.9645  17.3599  17.3621  17.4139  22.4435  24.1212
    25.5287  27.8081  27.9021

          k = 0.0000 0.1250-0.5000 (  3556 PWs)   bands (ev):

   -85.7324 -85.7323 -85.7120 -85.7120 -46.1500 -46.1500 -46.1409 -46.1408
   -46.1127 -46.1127 -46.0764 -46.0764 -46.0465 -46.0465 -46.0380 -46.0380
    11.8857  11.8857  14.2391  14.2391  14.5951  14.5951  14.7626  14.7626
    14.8515  14.8515  15.8162  15.8163  16.3342  16.3342  16.5354  16.5354
    16.6121  16.6121  17.1136  17.1136  17.3603  17.3603  23.9178  23.9179
    25.8821  25.8821  28.4786

          k = 0.0000 0.2500 0.2500 (  3585 PWs)   bands (ev):

   -85.7433 -85.7167 -85.7167 -85.7121 -46.1735 -46.1735 -46.1715 -46.1281
   -46.0887 -46.0887 -46.0713 -46.0663 -46.0663 -46.0661 -46.0269 -46.0102
    10.3902  13.6618  13.6618  13.9462  14.1901  14.1901  14.1965  15.1176
    15.7153  15.7153  15.7328  15.8043  15.8091  16.4095  16.8465  16.8771
    17.0212  17.0212  17.0884  17.0884  17.2112  19.3718  19.3718  23.5916
    25.1515  27.7940  30.5807

          k = 0.0000 0.2500 0.3750 (  3549 PWs)   bands (ev):

   -85.7372 -85.7227 -85.7156 -85.7131 -46.1667 -46.1538 -46.1521 -46.1441
   -46.1074 -46.0999 -46.0739 -46.0626 -46.0609 -46.0488 -46.0411 -46.0175
    11.2724  13.2674  14.0983  14.2363  14.3970  14.4103  14.4778  14.9255
    15.0995  15.3379  15.4620  15.7044  16.0246  16.3474  16.6310  16.7222
    16.7395  16.8118  17.0872  17.1235  17.1260  18.1378  20.4965  23.3037
    24.9995  28.2330  28.5535

          k = 0.0000 0.2500-0.5000 (  3552 PWs)   bands (ev):

   -85.7300 -85.7299 -85.7144 -85.7143 -46.1573 -46.1573 -46.1300 -46.1299
   -46.1287 -46.1287 -46.0603 -46.0603 -46.0575 -46.0575 -46.0313 -46.0313
    12.3365  12.3365  14.4099  14.4099  14.6115  14.6115  14.6707  14.6707
    14.8703  14.8703  15.5431  15.5431  16.3455  16.3455  16.5104  16.5104
    16.5546  16.5546  17.0942  17.0942  17.4902  17.4902  21.7752  21.7752
    26.6757  26.6758  28.9662

          k = 0.0000 0.3750 0.3750 (  3546 PWs)   bands (ev):

   -85.7322 -85.7205 -85.7205 -85.7153 -46.1595 -46.1595 -46.1545 -46.1344
   -46.1240 -46.0920 -46.0920 -46.0560 -46.0496 -46.0447 -46.0446 -46.0195
    12.0641  13.7691  13.7691  14.2613  14.6183  14.6183  14.6425  14.8803
    15.0971  15.0971  15.1370  15.5863  16.1522  16.2495  16.4644  16.5619
    16.5619  16.7357  16.7357  16.9129  17.5141  19.0018  19.0018  21.4684
    26.2866  28.8140  29.6891

          k = 0.0000 0.3750-0.5000 (  3554 PWs)   bands (ev):

   -85.7264 -85.7264 -85.7179 -85.7179 -46.1604 -46.1604 -46.1451 -46.1451
   -46.1132 -46.1131 -46.0742 -46.0741 -46.0441 -46.0441 -46.0291 -46.0291
    12.9814  12.9814  14.1458  14.1458  14.7672  14.7672  14.8657  14.8657
    14.8771  14.8771  15.3610  15.3610  16.3238  16.3238  16.3958  16.3958
    16.4002  16.4002  16.7878  16.7878  18.0790  18.0790  20.0649  20.0650
    27.8711  27.8712  29.6987

          k = 0.0000-0.5000-0.5000 (  3556 PWs)   bands (ev):

   -85.7222 -85.7221 -85.7221 -85.7221 -46.1562 -46.1562 -46.1562 -46.1562
   -46.0938 -46.0938 -46.0938 -46.0938 -46.0332 -46.0332 -46.0332 -46.0332
    13.6412  13.6412  13.6412  13.6413  14.8452  14.8452  14.8452  14.8452
    15.1721  15.1721  15.1721  15.1721  16.2490  16.2490  16.2490  16.2491
    16.5416  16.5416  16.5416  16.5416  18.8777  18.8777  18.8777  18.8777
    29.3741  29.3742  29.3742

          k = 0.1250 0.1250 0.1250 (  3590 PWs)   bands (ev):

   -85.7505 -85.7128 -85.7128 -85.7128 -46.1920 -46.1920 -46.1920 -46.0921
   -46.0921 -46.0921 -46.0758 -46.0758 -46.0758 -46.0343 -46.0071 -46.0071
     9.4333  13.4807  13.4808  13.4808  13.9084  13.9084  13.9084  15.3471
    15.6120  15.6120  16.6242  16.6242  16.6242  16.6429  16.6429  17.0954
    17.0954  17.0954  17.4258  17.4258  17.4258  20.3785  20.3785  20.3785
    28.5739  28.5739  28.5739

          k = 0.1250 0.1250 0.2500 (  3563 PWs)   bands (ev):

   -85.7460 -85.7172 -85.7128 -85.7127 -46.1821 -46.1821 -46.1762 -46.1049
   -46.1049 -46.0794 -46.0722 -46.0722 -46.0678 -46.0591 -46.0148 -46.0116
    10.0139  13.4323  13.7516  13.7516  14.0760  14.0964  14.0964  15.1952
    15.7169  15.7264  15.9960  15.9960  16.2089  16.5053  16.7584  16.8197
    16.9195  16.9195  17.3696  17.3696  17.3902  18.7329  21.4018  21.4018
    27.6832  27.6832  29.0414

          k = 0.1250 0.1250 0.3750 (  3546 PWs)   bands (ev):

   -85.7394 -85.7238 -85.7128 -85.7127 -46.1693 -46.1693 -46.1517 -46.1197
   -46.1197 -46.0889 -46.0713 -46.0713 -46.0609 -46.0551 -46.0268 -46.0235
    10.9247  13.0021  14.1035  14.1035  14.3307  14.3712  14.3712  14.9384
    15.3618  15.3618  15.7886  15.8029  15.9192  16.4690  16.4971  16.6927
    16.6927  16.9243  17.2754  17.3208  17.3208  17.5208  22.6443  22.6443
    25.9098  25.9098  29.5804

          k = 0.1250 0.1250-0.5000 (  3548 PWs)   bands (ev):

   -85.7316 -85.7315 -85.7128 -85.7127 -46.1612 -46.1612 -46.1287 -46.1287
   -46.1212 -46.1212 -46.0710 -46.0709 -46.0414 -46.0414 -46.0408 -46.0408
    12.0311  12.0311  14.3282  14.3282  14.5674  14.5675  14.6330  14.6330
    14.9869  14.9869  15.7214  15.7214  16.1836  16.1836  16.5637  16.5637
    16.8078  16.8078  17.1084  17.1085  17.3066  17.3066  23.6386  23.6386
    24.7409  24.7409  30.2134

          k = 0.1250 0.2500 0.2500 (  3563 PWs)   bands (ev):

   -85.7421 -85.7167 -85.7166 -85.7133 -46.1769 -46.1756 -46.1756 -46.1149
   -46.0885 -46.0885 -46.0842 -46.0639 -46.0635 -46.0635 -46.0217 -46.0122
    10.5640  13.7119  13.7119  13.9364  14.2573  14.2573  14.2606  15.1354
    15.6709  15.6709  15.7181  15.7290  15.7677  16.5162  16.6751  16.6751
    16.6764  16.8332  17.3063  17.3308  17.3308  19.5790  19.5790  22.1611
    25.5808  28.4532  28.4532

          k = 0.1250 0.2500 0.3750 (  3557 PWs)   bands (ev):

   -85.7362 -85.7225 -85.7158 -85.7140 -46.1739 -46.1724 -46.1616 -46.1188
   -46.1121 -46.1005 -46.0689 -46.0599 -46.0594 -46.0497 -46.0339 -46.0193
    11.4170  13.3125  14.0487  14.1551  14.4752  14.4955  14.5230  14.9773
    15.1990  15.3533  15.4534  15.6993  15.8895  16.3697  16.4851  16.5253
    16.5448  17.0763  17.1760  17.2122  17.2184  18.1857  20.6117  22.7218
    24.3101  26.6242  29.5372

          k = 0.1250 0.2500-0.5000 (  3548 PWs)   bands (ev):

   -85.7294 -85.7293 -85.7149 -85.7149 -46.1720 -46.1720 -46.1397 -46.1397
   -46.1125 -46.1125 -46.0578 -46.0578 -46.0500 -46.0499 -46.0331 -46.0331
    12.4326  12.4326  14.2739  14.2739  14.5834  14.5834  14.7495  14.7495
    15.1017  15.1017  15.5386  15.5386  16.0912  16.0912  16.4102  16.4102
    16.8443  16.8443  17.1720  17.1720  17.4360  17.4360  21.7769  21.7770
    25.1095  25.1095  30.9148

          k = 0.1250 0.3750 0.3750 (  3552 PWs)   bands (ev):

   -85.7316 -85.7205 -85.7205 -85.7159 -46.1753 -46.1707 -46.1706 -46.1375
   -46.1097 -46.0814 -46.0814 -46.0484 -46.0470 -46.0443 -46.0443 -46.0207
    12.1537  13.6723  13.6723  14.0809  14.7327  14.7741  14.7741  14.9910
    15.1826  15.1826  15.2925  15.5993  15.9065  16.2659  16.2659  16.2784
    16.5371  17.0246  17.0246  17.0681  17.4533  19.0138  19.0139  21.3859
    24.8517  27.6728  27.6728

          k = 0.1250 0.3750-0.5000 (  3560 PWs)   bands (ev):

   -85.7260 -85.7260 -85.7182 -85.7182 -46.1758 -46.1758 -46.1578 -46.1578
   -46.0965 -46.0965 -46.0631 -46.0631 -46.0436 -46.0436 -46.0296 -46.0296
    12.9798  12.9798  13.9340  13.9340  14.9192  14.9192  14.9353  14.9353
    15.1559  15.1559  15.3923  15.3923  16.0267  16.0267  16.1908  16.1908
    16.7323  16.7323  16.9748  16.9748  18.0221  18.0221  20.0464  20.0465
    26.1042  26.1042  29.0205

          k = 0.1250-0.5000-0.5000 (  3556 PWs)   bands (ev):

   -85.7222 -85.7221 -85.7221 -85.7221 -46.1706 -46.1706 -46.1706 -46.1706
   -46.0793 -46.0792 -46.0792 -46.0792 -46.0334 -46.0334 -46.0334 -46.0334
    13.5104  13.5104  13.5104  13.5104  15.1027  15.1027  15.1027  15.1027
    15.2276  15.2276  15.2276  15.2276  16.0259  16.0259  16.0259  16.0259
    16.7741  16.7741  16.7741  16.7741  18.8254  18.8254  18.8254  18.8254
    27.4181  27.4181  27.4181

          k = 0.2500 0.2500 0.2500 (  3560 PWs)   bands (ev):

   -85.7387 -85.7166 -85.7166 -85.7166 -46.1813 -46.1813 -46.1813 -46.1100
   -46.0889 -46.0889 -46.0889 -46.0579 -46.0579 -46.0579 -46.0181 -46.0181
    11.0647  13.8118  13.8118  13.8118  14.4671  14.4671  14.4671  15.1633
    15.5314  15.5314  15.5314  15.7228  15.7228  16.3822  16.3822  16.3822
    16.7491  16.7491  17.3890  17.3890  17.3890  20.1293  20.1293  20.1293
    26.3149  26.3149  26.3150

          k = 0.2500 0.2500 0.3750 (  3557 PWs)   bands (ev):

   -85.7336 -85.7217 -85.7166 -85.7166 -46.1866 -46.1866 -46.1765 -46.1378
   -46.0888 -46.0888 -46.0613 -46.0530 -46.0530 -46.0488 -46.0272 -46.0234
    11.8199  13.4058  13.8968  13.8968  14.7230  14.7230  14.7599  15.1352
    15.3970  15.3970  15.4251  15.6732  15.7525  16.0994  16.2160  16.2160
    16.8255  17.0059  17.3077  17.3077  17.3617  18.4657  20.8285  20.8286
    24.6732  24.6732  27.3672

          k = 0.2500 0.2500-0.5000 (  3548 PWs)   bands (ev):

   -85.7277 -85.7276 -85.7166 -85.7166 -46.1883 -46.1883 -46.1613 -46.1613
   -46.0886 -46.0886 -46.0511 -46.0511 -46.0385 -46.0385 -46.0379 -46.0379
    12.6785  12.6785  13.9329  13.9330  14.8115  14.8115  15.0075  15.0075
    15.3935  15.3935  15.5151  15.5151  15.8800  15.8800  16.1438  16.1438
    17.2247  17.2247  17.2491  17.2491  17.3593  17.3593  21.2419  21.2419
    23.9460  23.9460  28.7163

          k = 0.2500 0.3750 0.3750 (  3548 PWs)   bands (ev):

   -85.7297 -85.7205 -85.7205 -85.7177 -46.1949 -46.1899 -46.1899 -46.1627
   -46.0782 -46.0635 -46.0634 -46.0452 -46.0434 -46.0434 -46.0338 -46.0236
    12.3872  13.4969  13.4969  13.7294  14.9736  15.0744  15.0744  15.3560
    15.4522  15.4522  15.5841  15.6187  15.6989  15.9593  15.9593  15.9912
    16.8634  17.2640  17.2838  17.2838  17.2866  19.0548  19.0548  20.6444
    23.8147  25.5984  25.5985

          k = 0.2500 0.3750-0.5000 (  3546 PWs)   bands (ev):

   -85.7251 -85.7251 -85.7191 -85.7191 -46.1965 -46.1965 -46.1811 -46.1811
   -46.0700 -46.0700 -46.0458 -46.0457 -46.0414 -46.0414 -46.0315 -46.0315
    12.9813  12.9813  13.5963  13.5963  15.1154  15.1154  15.4045  15.4045
    15.4860  15.4860  15.6311  15.6311  15.7730  15.7730  15.9050  15.9050
    17.0846  17.0846  17.2042  17.2042  17.8554  17.8554  19.8546  19.8546
    24.3222  24.3222  26.8664

          k = 0.2500-0.5000-0.5000 (  3556 PWs)   bands (ev):

   -85.7221 -85.7221 -85.7221 -85.7221 -46.1941 -46.1941 -46.1941 -46.1941
   -46.0563 -46.0563 -46.0563 -46.0563 -46.0331 -46.0331 -46.0331 -46.0331
    13.2845  13.2845  13.2845  13.2845  15.3511  15.3511  15.3511  15.3511
    15.7255  15.7255  15.7255  15.7255  15.7585  15.7585  15.7585  15.7585
    17.0651  17.0651  17.0651  17.0651  18.6306  18.6306  18.6306  18.6306
    25.3886  25.3886  25.3886

          k = 0.3750 0.3750 0.3750 (  3542 PWs)   bands (ev):

   -85.7269 -85.7205 -85.7205 -85.7205 -46.2041 -46.2041 -46.2041 -46.1859
   -46.0521 -46.0520 -46.0520 -46.0404 -46.0404 -46.0404 -46.0284 -46.0284
    12.6893  13.3605  13.3605  13.3605  15.2675  15.2675  15.2675  15.5976
    15.5976  15.7551  15.7551  15.7551  15.8989  15.8990  15.8990  15.9596
    17.1365  17.1365  17.3550  17.3550  17.3551  19.1232  19.1232  19.1232
    24.1517  24.1517  24.1517

          k = 0.3750 0.3750-0.5000 (  3542 PWs)   bands (ev):

   -85.7237 -85.7237 -85.7205 -85.7204 -46.2093 -46.2093 -46.2010 -46.2010
   -46.0493 -46.0492 -46.0376 -46.0376 -46.0347 -46.0347 -46.0346 -46.0346
    13.0139  13.0139  13.3107  13.3107  15.3281  15.3281  15.4908  15.4908
    15.6171  15.6171  15.6851  15.6851  16.1613  16.1613  16.1754  16.1754
    17.3102  17.3102  17.3129  17.3129  17.7117  17.7117  19.1644  19.1645
    23.6165  23.6166  25.1641

          k = 0.3750-0.5000-0.5000 (  3536 PWs)   bands (ev):

   -85.7221 -85.7221 -85.7221 -85.7221 -46.2112 -46.2112 -46.2112 -46.2111
   -46.0391 -46.0391 -46.0391 -46.0390 -46.0329 -46.0329 -46.0329 -46.0329
    13.1159  13.1159  13.1159  13.1159  15.4687  15.4687  15.4687  15.4687
    15.5785  15.5785  15.5785  15.5785  16.5524  16.5524  16.5524  16.5524
    17.2686  17.2686  17.2686  17.2686  18.1944  18.1945  18.1945  18.1945
    24.0186  24.0186  24.0186

          k =-0.5000-0.5000-0.5000 (  3544 PWs)   bands (ev):

   -85.7221 -85.7221 -85.7221 -85.7221 -46.2174 -46.2174 -46.2174 -46.2174
   -46.0330 -46.0330 -46.0330 -46.0330 -46.0330 -46.0330 -46.0330 -46.0330
    13.0554  13.0554  13.0554  13.0555  15.5154  15.5154  15.5154  15.5154
    15.5154  15.5154  15.5154  15.5154  17.3411  17.3411  17.3411  17.3411
    17.3411  17.3412  17.3412  17.3412  17.5607  17.5607  17.5607  17.5607
    23.5345  23.5345  23.5345

 ------ SPIN DOWN ----------


          k = 0.0000 0.0000 0.0000 (  3575 PWs)   bands (ev):

   -84.9301 -84.8846 -84.8846 -84.8846 -45.4065 -45.4065 -45.4065 -45.2781
   -45.2781 -45.2781 -45.2781 -45.2781 -45.2781 -45.1946 -45.1946 -45.1946
     8.7875  13.5919  13.5920  13.5920  14.3329  14.3329  14.3329  16.2479
    16.2479  16.2479  17.2597  17.2597  17.9997  17.9997  17.9997  18.3384
    18.3384  18.3384  18.3384  18.3384  18.3384  20.2461  20.2461  20.2461
    27.3271  27.3271  27.3271

          k = 0.0000 0.0000 0.1250 (  3579 PWs)   bands (ev):

   -84.9284 -84.8863 -84.8846 -84.8846 -45.4018 -45.4018 -45.3984 -45.2832
   -45.2832 -45.2783 -45.2783 -45.2747 -45.2747 -45.2039 -45.1979 -45.1979
     8.9915  13.5818  13.7014  13.7014  14.3995  14.4002  14.4002  16.1680
    16.3068  16.3068  17.1873  17.2870  17.7779  17.7779  17.9057  17.9057
    17.9710  18.2285  18.2285  18.3385  18.3385  19.3465  20.9759  20.9759
    27.3712  27.3712  28.6064

          k = 0.0000 0.0000 0.2500 (  3575 PWs)   bands (ev):

   -84.9235 -84.8913 -84.8846 -84.8846 -45.3877 -45.3877 -45.3761 -45.2971
   -45.2971 -45.2791 -45.2791 -45.2656 -45.2656 -45.2271 -45.2069 -45.2069
     9.5909  13.4375  13.9949  13.9949  14.5919  14.6048  14.6048  15.9442
    16.4817  16.4817  16.8965  16.8965  16.9901  17.3645  17.6476  17.6476
    17.7864  17.8885  17.9346  17.9346  18.3390  18.3390  22.3616  22.3616
    27.5156  27.5156  29.7024

          k = 0.0000 0.0000 0.3750 (  3551 PWs)   bands (ev):

   -84.9160 -84.8986 -84.8846 -84.8846 -45.3668 -45.3668 -45.3416 -45.3178
   -45.3178 -45.2794 -45.2794 -45.2608 -45.2522 -45.2522 -45.2203 -45.2203
    10.5393  12.8320  14.3482  14.3482  14.8866  14.9525  14.9525  15.6177
    16.1009  16.1009  16.7312  16.7623  16.7623  16.7660  17.3261  17.3261
    17.4825  17.5395  17.5395  17.7659  18.3395  18.3395  23.9875  23.9875
    27.6995  27.6995  27.7776

          k = 0.0000 0.0000-0.5000 (  3546 PWs)   bands (ev):

   -84.9073 -84.9073 -84.8846 -84.8846 -45.3423 -45.3423 -45.3423 -45.3423
   -45.3013 -45.3013 -45.2797 -45.2797 -45.2362 -45.2362 -45.2362 -45.2362
    11.7188  11.7188  14.5230  14.5230  15.2456  15.2456  15.4500  15.4500
    15.4500  15.4500  16.5510  16.5510  17.1279  17.1279  17.1279  17.1279
    17.1634  17.1634  17.6233  17.6233  18.3396  18.3397  25.7783  25.7783
    25.7783  25.7783  28.0036

          k = 0.0000 0.1250 0.1250 (  3579 PWs)   bands (ev):

   -84.9268 -84.8863 -84.8863 -84.8847 -45.3968 -45.3947 -45.3947 -45.2922
   -45.2798 -45.2798 -45.2747 -45.2747 -45.2735 -45.2157 -45.2009 -45.1973
     9.1933  13.6966  13.6966  13.8072  14.4599  14.4640  14.4640  16.1223
    16.3358  16.3497  17.1689  17.2768  17.4652  17.5588  17.5589  17.8213
    17.9108  17.9108  18.2282  18.2282  18.2697  20.1112  20.1112  21.5280
    27.4023  28.6914  28.6915

          k = 0.0000 0.1250 0.2500 (  3573 PWs)   bands (ev):

   -84.9220 -84.8910 -84.8861 -84.8849 -45.3836 -45.3832 -45.3750 -45.3077
   -45.2935 -45.2738 -45.2708 -45.2706 -45.2646 -45.2406 -45.2103 -45.2030
     9.7856  13.5673  14.0067  14.0919  14.6383  14.6477  14.6595  15.9264
    16.4645  16.4930  16.6996  16.7734  17.0113  17.0182  17.3686  17.5873
    17.6566  17.8025  17.9335  18.2272  18.2320  18.8032  21.3462  22.7647
    27.2257  28.0277  28.9529

          k = 0.0000 0.1250 0.3750 (  3571 PWs)   bands (ev):

   -84.9149 -84.8981 -84.8858 -84.8852 -45.3673 -45.3627 -45.3450 -45.3271
   -45.3141 -45.2732 -45.2728 -45.2706 -45.2566 -45.2493 -45.2245 -45.2156
    10.7217  12.9791  14.3906  14.4429  14.9283  14.9287  14.9904  15.6214
    15.9482  16.0645  16.4617  16.5182  16.7671  16.9375  17.2947  17.3398
    17.5335  17.5382  17.5391  18.0784  18.2239  18.2254  22.6996  24.3163
    25.7096  27.9681  28.0834

          k = 0.0000 0.1250-0.5000 (  3556 PWs)   bands (ev):

   -84.9065 -84.9065 -84.8855 -84.8855 -45.3477 -45.3477 -45.3382 -45.3382
   -45.3093 -45.3093 -45.2715 -45.2715 -45.2406 -45.2406 -45.2317 -45.2317
    11.8841  11.8841  14.6053  14.6053  15.2699  15.2699  15.3508  15.3508
    15.4602  15.4602  16.3798  16.3798  17.1290  17.1290  17.1619  17.1619
    17.1821  17.1821  17.7521  17.7521  18.2239  18.2239  24.1439  24.1439
    26.0672  26.0672  28.6256

          k = 0.0000 0.2500 0.2500 (  3585 PWs)   bands (ev):

   -84.9178 -84.8903 -84.8903 -84.8856 -45.3722 -45.3722 -45.3700 -45.3250
   -45.2842 -45.2842 -45.2664 -45.2610 -45.2610 -45.2608 -45.2204 -45.2030
    10.3558  13.9238  13.9238  14.3549  14.7359  14.8161  14.8161  15.8264
    16.2741  16.2741  16.4213  16.4400  16.5839  16.9650  17.4122  17.5018
    17.5816  17.5816  17.9308  17.9308  18.0682  19.8055  19.8055  23.7956
    25.3314  27.9868  30.7171

          k = 0.0000 0.2500 0.3750 (  3549 PWs)   bands (ev):

   -84.9114 -84.8965 -84.8892 -84.8866 -45.3652 -45.3518 -45.3499 -45.3417
   -45.3036 -45.2960 -45.2689 -45.2572 -45.2554 -45.2429 -45.2349 -45.2105
    11.2522  13.3887  14.3935  14.7003  14.8619  15.0534  15.0970  15.6128
    15.6590  15.9483  16.0169  16.3502  16.8094  16.9098  17.1853  17.2912
    17.3537  17.5411  17.7834  17.9309  17.9765  18.7511  20.8831  23.5474
    25.2080  28.4030  28.7254

          k = 0.0000 0.2500-0.5000 (  3552 PWs)   bands (ev):

   -84.9040 -84.9040 -84.8879 -84.8879 -45.3554 -45.3554 -45.3270 -45.3270
   -45.3258 -45.3258 -45.2548 -45.2548 -45.2520 -45.2519 -45.2248 -45.2248
    12.3561  12.3561  14.7522  14.7522  15.1635  15.1635  15.3351  15.3351
    15.4832  15.4832  16.1304  16.1304  17.0696  17.0696  17.1037  17.1037
    17.1446  17.1446  17.9404  17.9404  18.1652  18.1652  22.0941  22.0941
    26.8722  26.8722  29.1053

          k = 0.0000 0.3750 0.3750 (  3546 PWs)   bands (ev):

   -84.9063 -84.8943 -84.8943 -84.8889 -45.3577 -45.3577 -45.3525 -45.3315
   -45.3210 -45.2877 -45.2877 -45.2504 -45.2437 -45.2386 -45.2386 -45.2126
    12.0724  13.9502  13.9502  14.7375  15.0396  15.2507  15.2507  15.5483
    15.6498  15.6498  15.7489  16.1973  16.7934  16.9470  17.0117  17.0983
    17.0983  17.5589  17.5589  17.7524  18.1911  19.5460  19.5461  21.8069
    26.4978  28.9655  29.8678

          k = 0.0000 0.3750-0.5000 (  3554 PWs)   bands (ev):

   -84.9003 -84.9003 -84.8916 -84.8916 -45.3587 -45.3587 -45.3428 -45.3428
   -45.3096 -45.3096 -45.2692 -45.2692 -45.2380 -45.2380 -45.2225 -45.2225
    13.0540  13.0540  14.4561  14.4561  15.3545  15.3545  15.4162  15.4162
    15.4977  15.4977  15.9293  15.9293  16.8634  16.8634  16.9370  16.9370
    17.2072  17.2072  17.6181  17.6181  18.7280  18.7280  20.5141  20.5141
    28.0717  28.0717  29.8271

          k = 0.0000-0.5000-0.5000 (  3556 PWs)   bands (ev):

   -84.8959 -84.8959 -84.8959 -84.8959 -45.3544 -45.3544 -45.3543 -45.3543
   -45.2895 -45.2895 -45.2895 -45.2895 -45.2267 -45.2267 -45.2267 -45.2267
    13.8200  13.8200  13.8200  13.8200  15.4781  15.4781  15.4781  15.4781
    15.6906  15.6906  15.6906  15.6906  16.7890  16.7890  16.7890  16.7890
    17.3593  17.3593  17.3593  17.3593  19.4524  19.4524  19.4524  19.4524
    29.5670  29.5670  29.5670

          k = 0.1250 0.1250 0.1250 (  3590 PWs)   bands (ev):

   -84.9252 -84.8863 -84.8863 -84.8863 -45.3913 -45.3913 -45.3913 -45.2877
   -45.2877 -45.2877 -45.2708 -45.2708 -45.2708 -45.2281 -45.1999 -45.1999
     9.3924  13.8061  13.8061  13.8061  14.5207  14.5207  14.5207  16.0817
    16.3694  16.3694  17.2175  17.2175  17.2725  17.2725  17.2725  17.7338
    17.7338  17.7338  18.2357  18.2357  18.2357  20.6101  20.6101  20.6101
    28.7490  28.7490  28.7490

          k = 0.1250 0.1250 0.2500 (  3563 PWs)   bands (ev):

   -84.9206 -84.8908 -84.8862 -84.8862 -45.3810 -45.3810 -45.3749 -45.3010
   -45.3010 -45.2746 -45.2671 -45.2671 -45.2625 -45.2537 -45.2078 -45.2045
     9.9764  13.6865  14.1026  14.1026  14.6887  14.6887  14.6975  15.9113
    16.4606  16.4745  16.6055  16.6055  16.7612  17.0863  17.3515  17.5060
    17.5233  17.5233  18.1317  18.1986  18.1986  19.1701  21.6650  21.6650
    27.8230  27.8231  29.2013

          k = 0.1250 0.1250 0.3750 (  3546 PWs)   bands (ev):

   -84.9137 -84.8976 -84.8863 -84.8863 -45.3677 -45.3677 -45.3496 -45.3164
   -45.3163 -45.2846 -45.2662 -45.2662 -45.2555 -45.2495 -45.2202 -45.2168
    10.8978  13.1117  14.4807  14.4807  14.9407  14.9407  14.9701  15.6303
    15.9620  15.9620  16.3166  16.4614  16.6562  17.1167  17.2086  17.2630
    17.2630  17.5434  17.9658  18.1442  18.1665  18.1665  22.8976  22.8976
    26.1002  26.1002  29.7216

          k = 0.1250 0.1250-0.5000 (  3548 PWs)   bands (ev):

   -84.9056 -84.9056 -84.8863 -84.8863 -45.3593 -45.3593 -45.3257 -45.3257
   -45.3181 -45.3181 -45.2658 -45.2658 -45.2353 -45.2353 -45.2347 -45.2347
    12.0388  12.0388  14.6957  14.6958  15.1358  15.1358  15.2978  15.2978
    15.5987  15.5987  16.2973  16.2973  16.9093  16.9093  17.1223  17.1223
    17.4950  17.4950  17.7595  17.7595  18.1562  18.1562  23.8521  23.8521
    24.9857  24.9857  30.3351

          k = 0.1250 0.2500 0.2500 (  3563 PWs)   bands (ev):

   -84.9165 -84.8903 -84.8903 -84.8868 -45.3757 -45.3744 -45.3744 -45.3114
   -45.2840 -45.2840 -45.2798 -45.2585 -45.2581 -45.2581 -45.2150 -45.2051
    10.5342  14.0075  14.0075  14.3561  14.7744  14.8446  14.8446  15.8279
    16.2358  16.2358  16.3223  16.4366  16.5011  17.1160  17.2838  17.3175
    17.3175  17.4616  18.0976  18.0976  18.1172  19.9956  19.9956  22.4226
    25.7739  28.6039  28.6039

          k = 0.1250 0.2500 0.3750 (  3557 PWs)   bands (ev):

   -84.9105 -84.8963 -84.8894 -84.8876 -45.3725 -45.3710 -45.3599 -45.3154
   -45.3087 -45.2965 -45.2637 -45.2544 -45.2538 -45.2438 -45.2276 -45.2123
    11.4075  13.4707  14.4189  14.6716  14.8720  15.0387  15.0958  15.6417
    15.7879  15.9635  16.0202  16.3456  16.5894  17.0323  17.0716  17.1216
    17.1949  17.7401  17.8871  18.0176  18.0276  18.7722  20.9805  22.9496
    24.5876  26.8238  29.6958

          k = 0.1250 0.2500-0.5000 (  3548 PWs)   bands (ev):

   -84.9034 -84.9034 -84.8885 -84.8885 -45.3706 -45.3706 -45.3372 -45.3372
   -45.3089 -45.3089 -45.2522 -45.2522 -45.2441 -45.2441 -45.2267 -45.2267
    12.4752  12.4752  14.7456  14.7456  15.0024  15.0025  15.3817  15.3817
    15.7124  15.7124  16.1323  16.1323  16.7693  16.7693  16.9873  16.9873
    17.5213  17.5213  17.9881  17.9881  18.1107  18.1107  22.0728  22.0728
    25.3600  25.3600  31.0700

          k = 0.1250 0.3750 0.3750 (  3552 PWs)   bands (ev):

   -84.9057 -84.8943 -84.8943 -84.8895 -45.3740 -45.3693 -45.3693 -45.3350
   -45.3060 -45.2767 -45.2767 -45.2424 -45.2411 -45.2383 -45.2382 -45.2139
    12.1868  13.9325  13.9325  14.5793  15.1082  15.2891  15.2892  15.6156
    15.7784  15.7784  15.8991  16.2185  16.5539  16.8661  16.8780  16.8781
    17.2307  17.7761  17.7761  17.8662  18.1320  19.5359  19.5359  21.6955
    25.1254  27.8726  27.8726

          k = 0.1250 0.3750-0.5000 (  3560 PWs)   bands (ev):

   -84.8999 -84.8999 -84.8919 -84.8919 -45.3746 -45.3746 -45.3561 -45.3560
   -45.2924 -45.2923 -45.2578 -45.2577 -45.2375 -45.2375 -45.2230 -45.2230
    13.1024  13.1024  14.3256  14.3256  15.3396  15.3396  15.5100  15.5100
    15.7660  15.7660  15.9812  15.9812  16.6492  16.6493  16.7779  16.7779
    17.4572  17.4572  17.7597  17.7597  18.6646  18.6646  20.4706  20.4707
    26.3445  26.3445  29.2088

          k = 0.1250-0.5000-0.5000 (  3556 PWs)   bands (ev):

   -84.8959 -84.8959 -84.8959 -84.8959 -45.3693 -45.3693 -45.3693 -45.3693
   -45.2745 -45.2745 -45.2745 -45.2745 -45.2270 -45.2270 -45.2270 -45.2270
    13.7655  13.7656  13.7656  13.7656  15.5867  15.5867  15.5867  15.5868
    15.8184  15.8184  15.8184  15.8184  16.6197  16.6197  16.6197  16.6197
    17.5391  17.5391  17.5391  17.5391  19.3844  19.3844  19.3844  19.3844
    27.6366  27.6366  27.6366

          k = 0.2500 0.2500 0.2500 (  3560 PWs)   bands (ev):

   -84.9130 -84.8903 -84.8903 -84.8903 -45.3803 -45.3803 -45.3803 -45.3065
   -45.2844 -45.2844 -45.2844 -45.2523 -45.2523 -45.2523 -45.2111 -45.2111
    11.0521  14.2010  14.2010  14.2010  14.9485  14.9486  14.9486  15.8121
    16.1188  16.1188  16.1188  16.4164  16.4164  17.0188  17.0188  17.0188
    17.3970  17.3970  18.1588  18.1588  18.1588  20.5061  20.5061  20.5061
    26.5203  26.5203  26.5203

          k = 0.2500 0.2500 0.3750 (  3557 PWs)   bands (ev):

   -84.9078 -84.8955 -84.8902 -84.8902 -45.3858 -45.3857 -45.3753 -45.3353
   -45.2843 -45.2843 -45.2559 -45.2472 -45.2472 -45.2428 -45.2205 -45.2166
    11.8487  13.6650  14.3690  14.3690  15.1166  15.1166  15.2502  15.7305
    16.0053  16.0053  16.0226  16.3156  16.4238  16.7483  16.8293  16.8293
    17.5044  17.6892  18.0866  18.0866  18.1025  18.9883  21.1418  21.1418
    24.9564  24.9564  27.5743

          k = 0.2500 0.2500-0.5000 (  3548 PWs)   bands (ev):

   -84.9016 -84.9016 -84.8902 -84.8902 -45.3875 -45.3875 -45.3596 -45.3596
   -45.2841 -45.2841 -45.2452 -45.2452 -45.2322 -45.2322 -45.2317 -45.2317
    12.7951  12.7951  14.4294  14.4294  15.1979  15.1980  15.5446  15.5446
    15.9903  15.9903  16.1257  16.1257  16.5383  16.5383  16.7446  16.7446
    17.9379  17.9379  18.0026  18.0026  18.0346  18.0346  21.5008  21.5008
    24.2897  24.2897  28.9125

          k = 0.2500 0.3750 0.3750 (  3548 PWs)   bands (ev):

   -84.9037 -84.8943 -84.8943 -84.8914 -45.3944 -45.3893 -45.3893 -45.3611
   -45.2733 -45.2581 -45.2581 -45.2392 -45.2373 -45.2373 -45.2274 -45.2168
    12.4966  13.8674  13.8674  14.2098  15.3739  15.4854  15.4854  15.8509
    16.0560  16.0560  16.1643  16.2510  16.3351  16.5813  16.5813  16.6015
    17.5747  17.9784  18.0350  18.0350  18.0358  19.5090  19.5090  20.9159
    24.1801  25.8678  25.8678

          k = 0.2500 0.3750-0.5000 (  3546 PWs)   bands (ev):

   -84.8990 -84.8990 -84.8928 -84.8928 -45.3961 -45.3961 -45.3802 -45.3802
   -45.2649 -45.2649 -45.2397 -45.2397 -45.2352 -45.2352 -45.2249 -45.2249
    13.2167  13.2167  14.0401  14.0401  15.5530  15.5530  15.8172  15.8172
    16.1119  16.1119  16.1758  16.1758  16.3983  16.3983  16.5112  16.5112
    17.8081  17.8081  17.9700  17.9700  18.4779  18.4780  20.2067  20.2068
    24.6587  24.6587  27.1107

          k = 0.2500-0.5000-0.5000 (  3556 PWs)   bands (ev):

   -84.8959 -84.8959 -84.8959 -84.8959 -45.3937 -45.3936 -45.3936 -45.3936
   -45.2507 -45.2507 -45.2507 -45.2506 -45.2266 -45.2266 -45.2266 -45.2266
    13.6405  13.6405  13.6405  13.6405  15.8524  15.8524  15.8524  15.8524
    16.1966  16.1966  16.1966  16.1966  16.3673  16.3673  16.3673  16.3674
    17.8177  17.8177  17.8177  17.8177  19.1408  19.1408  19.1408  19.1408
    25.6825  25.6825  25.6825

          k = 0.3750 0.3750 0.3750 (  3542 PWs)   bands (ev):

   -84.9009 -84.8942 -84.8942 -84.8942 -45.4040 -45.4040 -45.4040 -45.3851
   -45.2462 -45.2462 -45.2462 -45.2342 -45.2342 -45.2342 -45.2218 -45.2218
    12.9146  13.7879  13.7879  13.7879  15.7434  15.7434  15.7434  16.2249
    16.2249  16.2609  16.3723  16.3723  16.3723  16.3985  16.3985  16.3985
    17.8661  17.8661  18.1137  18.1137  18.1137  19.4851  19.4851  19.4851
    24.5110  24.5110  24.5110

          k = 0.3750 0.3750-0.5000 (  3542 PWs)   bands (ev):

   -84.8976 -84.8976 -84.8942 -84.8942 -45.4094 -45.4094 -45.4008 -45.4008
   -45.2434 -45.2433 -45.2313 -45.2313 -45.2283 -45.2283 -45.2281 -45.2281
    13.3554  13.3554  13.7538  13.7538  15.8513  15.8513  16.0646  16.0646
    16.2385  16.2385  16.2956  16.2956  16.5120  16.5121  16.6056  16.6056
    18.0558  18.0558  18.0733  18.0733  18.2851  18.2851  19.4799  19.4799
    24.0260  24.0260  25.4794

          k = 0.3750-0.5000-0.5000 (  3536 PWs)   bands (ev):

   -84.8959 -84.8959 -84.8959 -84.8959 -45.4113 -45.4113 -45.4113 -45.4113
   -45.2328 -45.2328 -45.2328 -45.2328 -45.2264 -45.2264 -45.2264 -45.2264
    13.5256  13.5256  13.5256  13.5256  16.0546  16.0546  16.0546  16.0547
    16.1885  16.1885  16.1885  16.1885  16.8738  16.8739  16.8739  16.8739
    18.0228  18.0228  18.0228  18.0228  18.6419  18.6419  18.6419  18.6419
    24.4037  24.4037  24.4037

          k =-0.5000-0.5000-0.5000 (  3544 PWs)   bands (ev):

   -84.8959 -84.8959 -84.8959 -84.8959 -45.4178 -45.4178 -45.4178 -45.4178
   -45.2265 -45.2265 -45.2265 -45.2265 -45.2265 -45.2265 -45.2265 -45.2265
    13.4807  13.4807  13.4807  13.4807  16.1250  16.1250  16.1250  16.1250
    16.1250  16.1250  16.1251  16.1251  17.4947  17.4947  17.4947  17.4947
    18.0968  18.0968  18.0968  18.0968  18.0968  18.0968  18.0968  18.0968
    23.9655  23.9655  23.9655

     the Fermi energy is    17.9484 ev

!    total energy              =   -1716.63041368 Ry

     total all-electron energy =    -12166.358844 Ry
     estimated scf accuracy    <          4.0E-09 Ry
     smearing contrib. (-TS)   =      -0.00069076 Ry
     internal energy E=F+TS    =   -1716.62972292 Ry

     The total energy is F=E-TS. E is the sum of the following terms:
     one-electron contribution =    -740.82538934 Ry
     hartree contribution      =     419.17334206 Ry
     xc contribution           =    -137.33304004 Ry
     ewald contribution        =    -893.28439321 Ry
     one-center paw contrib.   =    -364.36024239 Ry

     total magnetization       =     2.47 Bohr mag/cell
     absolute magnetization    =     2.84 Bohr mag/cell

     convergence has been achieved in  10 iterations

     Forces acting on atoms (cartesian axes, Ry/au):

     atom    1 type  1   force =     0.00000000    0.00000000    0.00000000
     atom    2 type  1   force =     0.00000000    0.00000000    0.00000000
     atom    3 type  1   force =     0.00000000    0.00000000    0.00000000
     atom    4 type  1   force =     0.00000000    0.00000000    0.00000000

     Total force =     0.000000     Total SCF correction =     0.000000


     Computing stress (Cartesian axis) and pressure

          total   stress  (Ry/bohr**3)                   (kbar)     P=      -57.91
  -0.00039368   0.00000000   0.00000000          -57.91        0.00        0.00
   0.00000000  -0.00039368   0.00000000            0.00      -57.91        0.00
   0.00000000   0.00000000  -0.00039368            0.00        0.00      -57.91


     BFGS Geometry Optimization
     Energy error            =      0.0E+00
     Gradient error          =      0.0E+00

     bfgs converged in   1 scf cycles and   0 bfgs steps
     (criteria: energy <  1.0E-04 Ry, force <  1.0E-03 Ry/Bohr)

     End of BFGS Geometry Optimization

     Final energy   =   -1716.6304136787 Ry
Begin final coordinates

ATOMIC_POSITIONS (angstrom)
Ni            0.0000000000        0.0000000000        0.0000000000
Ni            0.0000000000        1.7600000000        1.7600000000
Ni            1.7600000000        0.0000000000        1.7600000000
Ni            1.7600000000        1.7600000000        0.0000000000
End final coordinates



     Writing output data file ./tmp_Ni/Ni.save/

     init_run     :      9.58s CPU     12.47s WALL (       1 calls)
     electrons    :    264.78s CPU    225.28s WALL (       1 calls)
     forces       :      2.01s CPU      1.89s WALL (       1 calls)
     stress       :     11.28s CPU      9.62s WALL (       1 calls)

     Called by init_run:
     wfcinit      :      7.44s CPU     10.29s WALL (       1 calls)
     potinit      :      1.47s CPU      1.49s WALL (       1 calls)
     hinit0       :      0.44s CPU      0.43s WALL (       1 calls)

     Called by electrons:
     c_bands      :    205.15s CPU    170.48s WALL (      10 calls)
     sum_band     :     44.40s CPU     39.51s WALL (      10 calls)
     v_of_rho     :      1.38s CPU      1.34s WALL (      11 calls)
     newd         :      1.39s CPU      1.51s WALL (      11 calls)
     PAW_pot      :     13.36s CPU     13.42s WALL (      11 calls)
     mix_rho      :      0.61s CPU      0.58s WALL (      10 calls)

     Called by c_bands:
     init_us_2    :      3.27s CPU      2.98s WALL (    1610 calls)
     cegterg      :    188.94s CPU    156.02s WALL (     700 calls)

     Called by *egterg:
     cdiaghg      :      7.49s CPU      7.20s WALL (    2215 calls)
     h_psi        :    150.76s CPU    132.70s WALL (    2285 calls)
     s_psi        :      7.30s CPU      4.55s WALL (    2285 calls)
     g_psi        :      1.33s CPU      1.14s WALL (    1515 calls)

     Called by h_psi:
     h_psi:calbec :      7.97s CPU      5.36s WALL (    2285 calls)
     vloc_psi     :    133.84s CPU    120.57s WALL (    2285 calls)
     add_vuspsi   :      7.70s CPU      4.68s WALL (    2285 calls)

     General routines
     calbec       :     12.62s CPU      8.56s WALL (    3335 calls)
     fft          :      0.46s CPU      0.46s WALL (     313 calls)
     ffts         :      0.35s CPU      0.32s WALL (     249 calls)
     fftw         :    142.16s CPU    130.07s WALL (  173316 calls)
     interpolate  :      0.06s CPU      0.06s WALL (      22 calls)

     Parallel routines

     PWSCF        :   4m47.84s CPU   4m 9.56s WALL


   This run was terminated on:  12:47: 5   4Aug2026            

=------------------------------------------------------------------------------=
   JOB DONE.
=------------------------------------------------------------------------------=
