
     Program PWSCF v.6.7MaX starts on  4Aug2026 at 12:51:20 

     This program is part of the open-source Quantum ESPRESSO suite
     for quantum simulation of materials; please cite
         "P. Giannozzi et al., J. Phys.:Condens. Matter 21 395502 (2009);
         "P. Giannozzi et al., J. Phys.:Condens. Matter 29 465901 (2017);
          URL http://www.quantum-espresso.org", 
     in publications or presentations arising from this work. More details at
     http://www.quantum-espresso.org/quote

     Parallel version (MPI), running on     1 processors

     MPI processes distributed on     1 nodes
     Waiting for input...
     Reading input from standard input
Warning: card &IONS ignored
Warning: card / ignored
Warning: card &CELL ignored
Warning: card / ignored
Warning: card &FCP ignored
Warning: card / ignored
Warning: card &RISM ignored
Warning: card / ignored

     Current dimensions of program PWSCF are:
     Max number of different atomic species (ntypx) = 10
     Max number of k-points (npk) =  40000
     Max angular momentum in pseudopotentials (lmaxx) =  3

     Atomic positions and unit cell read from directory:
     ./tmp_Ni/Ni.save/
     Atomic positions from file used, from input discarded

     file Ni.pbe-spn-kjpaw_psl.1.0.0.UPF: wavefunction(s)  3P 3D renormalized

     IMPORTANT: XC functional enforced from input :
     Exchange-correlation= PBE
                           (   1   4   3   4   0   0   0)
     Any further DFT definition will be discarded
     Please, verify this is what you really want


     Subspace diagonalization in iterative solution of the eigenvalue problem:
     a serial algorithm will be used

     Found symmetry operation: I + (  0.0000 -0.5000 -0.5000)
     This is a supercell, fractional translations are disabled
     Message from routine setup:
     using ibrav=0 with symmetry is DISCOURAGED, use correct ibrav instead

     G-vector sticks info
     --------------------
     sticks:   dense  smooth     PW     G-vecs:    dense   smooth      PW
     Sum        1757    1117    341                55515    28425    4625



     bravais-lattice index     =            0
     lattice parameter (alat)  =       6.6518  a.u.
     unit-cell volume          =     294.3233 (a.u.)^3
     number of atoms/cell      =            4
     number of atomic types    =            1
     number of electrons       =        72.00
     number of Kohn-Sham states=           43
     kinetic-energy cutoff     =      80.0000  Ry
     charge density cutoff     =     500.0000  Ry
     Exchange-correlation= PBE
                           (   1   4   3   4   0   0   0)

     celldm(1)=   6.651836  celldm(2)=   0.000000  celldm(3)=   0.000000
     celldm(4)=   0.000000  celldm(5)=   0.000000  celldm(6)=   0.000000

     crystal axes: (cart. coord. in units of alat)
               a(1) = (   1.000000   0.000000   0.000000 )  
               a(2) = (   0.000000   1.000000   0.000000 )  
               a(3) = (   0.000000   0.000000   1.000000 )  

     reciprocal axes: (cart. coord. in units 2 pi/alat)
               b(1) = (  1.000000  0.000000  0.000000 )  
               b(2) = (  0.000000  1.000000  0.000000 )  
               b(3) = (  0.000000  0.000000  1.000000 )  


     PseudoPot. # 1 for Ni read from file:
     /content/Ni.pbe-spn-kjpaw_psl.1.0.0.UPF
     MD5 check sum: 6e86b733589c3ad8389697b807d86aa7
     Pseudo is Projector augmented-wave + core cor, Zval = 18.0
     Generated using &quot;atomic&quot; code by A. Dal Corso  v.6.3
     Shape of augmentation charge: PSQ
     Using radial grid of 1195 points,  6 beta functions with: 
                l(1) =   0
                l(2) =   0
                l(3) =   1
                l(4) =   1
                l(5) =   2
                l(6) =   2
     Q(r) pseudized with 0 coefficients 


     atomic species   valence    mass     pseudopotential
        Ni            18.00    58.69340     Ni( 1.00)

     Starting magnetic structure 
     atomic species   magnetization
        Ni           0.600

     48 Sym. Ops., with inversion, found



   Cartesian axes

     site n.     atom                  positions (alat units)
         1           Ni  tau(   1) = (   0.0000000   0.0000000   0.0000000  )
         2           Ni  tau(   2) = (   0.0000000   0.5000000   0.5000000  )
         3           Ni  tau(   3) = (   0.5000000   0.0000000   0.5000000  )
         4           Ni  tau(   4) = (   0.5000000   0.5000000   0.0000000  )

     number of k points=   220  Methfessel-Paxton smearing, width (Ry)=  0.0200

     Number of k-points >= 100: set verbosity='high' to print them.

     Dense  grid:    55515 G-vectors     FFT dimensions: (  48,  48,  48)

     Smooth grid:    28425 G-vectors     FFT dimensions: (  40,  40,  40)

     Estimated max dynamical RAM per process >     190.97 MB
     Generating pointlists ...
     new r_m :   0.2917 (alat units)  1.9402 (a.u.) for type    1

     The potential is recalculated from file :
     ./tmp_Ni/Ni.save/charge-density

     Starting wfcs are   40 randomized atomic wfcs +    3 random wfcs
     Checking if some PAW data can be deallocated... 

     Band Structure Calculation
     Davidson diagonalization with overlap

     ethr =  1.39E-11,  avg # of iterations =  7.4

     total cpu time spent up to now is      400.9 secs

     End of band structure calculation

     Number of k-points >= 100: set verbosity='high' to print the bands.

     the Fermi energy is    17.9316 ev
     (compare with:    17.9484 eV, computed in scf)

     Writing output data file ./tmp_Ni/Ni.save/

     init_run     :      1.99s CPU      2.20s WALL (       1 calls)
     electrons    :    496.75s CPU    398.42s WALL (       1 calls)

     Called by init_run:
     wfcinit      :      0.00s CPU      0.00s WALL (       1 calls)
     potinit      :      1.22s CPU      1.27s WALL (       1 calls)
     hinit0       :      0.40s CPU      0.41s WALL (       1 calls)

     Called by electrons:
     c_bands      :    496.70s CPU    398.38s WALL (       1 calls)
     v_of_rho     :      0.08s CPU      0.12s WALL (       1 calls)
     newd         :      0.14s CPU      0.29s WALL (       1 calls)
     PAW_pot      :      1.13s CPU      1.13s WALL (       1 calls)

     Called by c_bands:
     init_us_2    :      0.81s CPU      0.80s WALL (     440 calls)
     cegterg      :    439.72s CPU    350.12s WALL (     444 calls)

     Called by *egterg:
     cdiaghg      :     33.80s CPU     27.86s WALL (    3708 calls)
     h_psi        :    313.59s CPU    272.29s WALL (    4152 calls)
     s_psi        :     14.93s CPU      9.03s WALL (    4152 calls)
     g_psi        :      3.82s CPU      3.32s WALL (    3268 calls)

     Called by h_psi:
     h_psi:calbec :     15.95s CPU      9.77s WALL (    4152 calls)
     vloc_psi     :    279.97s CPU    249.31s WALL (    4152 calls)
     add_vuspsi   :     15.43s CPU      9.36s WALL (    4152 calls)

     General routines
     calbec       :     15.92s CPU      9.75s WALL (    4152 calls)
     fft          :      0.03s CPU      0.03s WALL (      23 calls)
     ffts         :      0.00s CPU      0.00s WALL (       2 calls)
     fftw         :    235.99s CPU    213.98s WALL (  296680 calls)
     interpolate  :      0.01s CPU      0.01s WALL (       2 calls)
     davcio       :      0.18s CPU      1.13s WALL (     880 calls)

     Parallel routines

     PWSCF        :   8m19.47s CPU   6m44.93s WALL


   This run was terminated on:  12:58: 5   4Aug2026            

=------------------------------------------------------------------------------=
   JOB DONE.
=------------------------------------------------------------------------------=
