       N       E                     dE             d eps       ncg     rms          rms(c)
DAV:   1     0.158618936704E+03    0.15862E+03   -0.16716E+04 21456   0.203E+03
DAV:   2    -0.215052429394E+02   -0.18012E+03   -0.17401E+03 21192   0.299E+02
DAV:   3    -0.260183925048E+02   -0.45131E+01   -0.44674E+01 27492   0.665E+01
DAV:   4    -0.260597346227E+02   -0.41342E-01   -0.41334E-01 24888   0.511E+00
DAV:   5    -0.260607363100E+02   -0.10017E-02   -0.10017E-02 28236   0.790E-01    0.177E+01
DAV:   6    -0.260621355666E+02   -0.13993E-02   -0.47817E+01 23844   0.115E+02    0.153E+01
DAV:   7    -0.219610576803E+02    0.41011E+01   -0.19354E+01 24468   0.604E+01    0.236E+00
DAV:   8    -0.218842100817E+02    0.76848E-01   -0.18624E-01 24840   0.376E+00    0.115E+00
DAV:   9    -0.218581138865E+02    0.26096E-01   -0.27645E-02 29448   0.219E+00    0.506E-01
DAV:  10    -0.218585639003E+02   -0.45001E-03   -0.12576E-03 24444   0.407E-01    0.322E-01
DAV:  11    -0.218604464498E+02   -0.18825E-02   -0.36483E-03 26208   0.842E-01    0.265E-01
DAV:  12    -0.218617290611E+02   -0.12826E-02   -0.14220E-03 28704   0.544E-01    0.165E-01
DAV:  13    -0.218622730463E+02   -0.54399E-03   -0.14368E-03 26400   0.542E-01    0.432E-02
DAV:  14    -0.218624256187E+02   -0.15257E-03   -0.15832E-04 30336   0.178E-01    0.121E-02
DAV:  15    -0.218624356927E+02   -0.10074E-04   -0.83076E-06 28500   0.433E-02    0.652E-03
DAV:  16    -0.218624375311E+02   -0.18385E-05   -0.35580E-06 17340   0.270E-02    0.678E-03
DAV:  17    -0.218624377816E+02   -0.25046E-06   -0.15529E-06 11280   0.204E-02
   1 F= -.21862438E+02 E0= -.21862702E+02  d E =-.218624E+02  mag=     0.6697
