<?xml version="1.0" encoding="ISO-8859-1"?>
<modeling>
 <generator>
  <i name="program" type="string">vasp </i>
  <i name="version" type="string">6.3.0  </i>
  <i name="subversion" type="string">20Jan22 (build Jun 30 2026 15:27:26) complex                          parallel </i>
  <i name="platform" type="string">LinuxIFC </i>
  <i name="date" type="string">2026 07 21 </i>
  <i name="time" type="string">06:04:45 </i>
 </generator>
 <incar>
  <i type="string" name="SYSTEM">Ni3Al EOS</i>
  <i type="int" name="ISTART">     0</i>
  <i type="string" name="PREC">Accurate</i>
  <i type="logical" name="ADDGRID"> T  </i>
  <i type="int" name="ISPIN">     2</i>
  <i type="int" name="ICHARG">     2</i>
  <i type="int" name="IBRION">     2</i>
  <i name="EDIFF">      0.00000100</i>
  <i name="EDIFFG">     -0.01000000</i>
  <i type="int" name="NSW">   100</i>
  <i type="int" name="ISIF">     2</i>
  <i type="int" name="ISYM">     2</i>
  <i name="SYMPREC">      0.00001000</i>
  <i name="ENCUT">    600.00000000</i>
  <i type="int" name="NEDOS">  2000</i>
  <v name="MAGMOM">      0.00000000      0.60000000      0.60000000      0.60000000</v>
  <i type="logical" name="LREAL"> F  </i>
  <i type="int" name="ISMEAR">     1</i>
  <i name="SIGMA">      0.20000000</i>
  <i type="logical" name="LWAVE"> F  </i>
  <i type="logical" name="LASPH"> T  </i>
 </incar>
 <primitive_cell>
  <structure name="primitive_cell" >
   <crystal>
    <varray name="basis" >
     <v>       3.44000000       0.00000000       0.00000000 </v>
     <v>       0.00000000       3.44000000       0.00000000 </v>
     <v>       0.00000000       0.00000000       3.44000000 </v>
    </varray>
    <i name="volume">     40.70758400 </i>
    <varray name="rec_basis" >
     <v>       0.29069767       0.00000000       0.00000000 </v>
     <v>       0.00000000       0.29069767       0.00000000 </v>
     <v>       0.00000000       0.00000000       0.29069767 </v>
    </varray>
   </crystal>
   <varray name="positions" >
    <v>       0.00000000       0.00000000       0.00000000 </v>
    <v>       0.50000000       0.00000000       0.50000000 </v>
    <v>       0.50000000       0.50000000       0.00000000 </v>
    <v>       0.00000000       0.50000000       0.50000000 </v>
   </varray>
  </structure>
  <varray name="primitive_index" >
   <v type="int" >        1 </v>
   <v type="int" >        2 </v>
   <v type="int" >        3 </v>
   <v type="int" >        4 </v>
  </varray>
 </primitive_cell>
 <kpoints>
  <generation param="Gamma">
   <v type="int" name="divisions">      18       18       18 </v>
   <v name="usershift">      0.00000000       0.00000000       0.00000000 </v>
   <v name="genvec1">      0.05555556       0.00000000       0.00000000 </v>
   <v name="genvec2">      0.00000000       0.05555556       0.00000000 </v>
   <v name="genvec3">      0.00000000       0.00000000       0.05555556 </v>
   <v name="shift">      0.00000000       0.00000000       0.00000000 </v>
  </generation>
  <varray name="kpointlist" >
   <v>       0.00000000       0.00000000       0.00000000 </v>
   <v>       0.05555556       0.00000000       0.00000000 </v>
   <v>       0.11111111       0.00000000       0.00000000 </v>
   <v>       0.16666667       0.00000000       0.00000000 </v>
   <v>       0.22222222       0.00000000       0.00000000 </v>
   <v>       0.27777778       0.00000000       0.00000000 </v>
   <v>       0.33333333       0.00000000       0.00000000 </v>
   <v>       0.38888889       0.00000000       0.00000000 </v>
   <v>       0.44444444       0.00000000       0.00000000 </v>
   <v>       0.50000000       0.00000000       0.00000000 </v>
   <v>       0.05555556       0.05555556       0.00000000 </v>
   <v>       0.11111111       0.05555556       0.00000000 </v>
   <v>       0.16666667       0.05555556       0.00000000 </v>
   <v>       0.22222222       0.05555556       0.00000000 </v>
   <v>       0.27777778       0.05555556       0.00000000 </v>
   <v>       0.33333333       0.05555556       0.00000000 </v>
   <v>       0.38888889       0.05555556       0.00000000 </v>
   <v>       0.44444444       0.05555556       0.00000000 </v>
   <v>       0.50000000       0.05555556       0.00000000 </v>
   <v>       0.11111111       0.11111111       0.00000000 </v>
   <v>       0.16666667       0.11111111       0.00000000 </v>
   <v>       0.22222222       0.11111111       0.00000000 </v>
   <v>       0.27777778       0.11111111       0.00000000 </v>
   <v>       0.33333333       0.11111111       0.00000000 </v>
   <v>       0.38888889       0.11111111       0.00000000 </v>
   <v>       0.44444444       0.11111111       0.00000000 </v>
   <v>       0.50000000       0.11111111       0.00000000 </v>
   <v>       0.16666667       0.16666667       0.00000000 </v>
   <v>       0.22222222       0.16666667       0.00000000 </v>
   <v>       0.27777778       0.16666667       0.00000000 </v>
   <v>       0.33333333       0.16666667       0.00000000 </v>
   <v>       0.38888889       0.16666667       0.00000000 </v>
   <v>       0.44444444       0.16666667       0.00000000 </v>
   <v>       0.50000000       0.16666667       0.00000000 </v>
   <v>       0.22222222       0.22222222       0.00000000 </v>
   <v>       0.27777778       0.22222222       0.00000000 </v>
   <v>       0.33333333       0.22222222       0.00000000 </v>
   <v>       0.38888889       0.22222222       0.00000000 </v>
   <v>       0.44444444       0.22222222       0.00000000 </v>
   <v>       0.50000000       0.22222222       0.00000000 </v>
   <v>       0.27777778       0.27777778       0.00000000 </v>
   <v>       0.33333333       0.27777778       0.00000000 </v>
   <v>       0.38888889       0.27777778       0.00000000 </v>
   <v>       0.44444444       0.27777778       0.00000000 </v>
   <v>       0.50000000       0.27777778       0.00000000 </v>
   <v>       0.33333333       0.33333333       0.00000000 </v>
   <v>       0.38888889       0.33333333       0.00000000 </v>
   <v>       0.44444444       0.33333333       0.00000000 </v>
   <v>       0.50000000       0.33333333       0.00000000 </v>
   <v>       0.38888889       0.38888889       0.00000000 </v>
   <v>       0.44444444       0.38888889       0.00000000 </v>
   <v>       0.50000000       0.38888889       0.00000000 </v>
   <v>       0.44444444       0.44444444       0.00000000 </v>
   <v>       0.50000000       0.44444444       0.00000000 </v>
   <v>       0.50000000       0.50000000       0.00000000 </v>
   <v>       0.05555556       0.05555556       0.05555556 </v>
   <v>       0.11111111       0.05555556       0.05555556 </v>
   <v>       0.16666667       0.05555556       0.05555556 </v>
   <v>       0.22222222       0.05555556       0.05555556 </v>
   <v>       0.27777778       0.05555556       0.05555556 </v>
   <v>       0.33333333       0.05555556       0.05555556 </v>
   <v>       0.38888889       0.05555556       0.05555556 </v>
   <v>       0.44444444       0.05555556       0.05555556 </v>
   <v>       0.50000000       0.05555556       0.05555556 </v>
   <v>       0.11111111       0.11111111       0.05555556 </v>
   <v>       0.16666667       0.11111111       0.05555556 </v>
   <v>       0.22222222       0.11111111       0.05555556 </v>
   <v>       0.27777778       0.11111111       0.05555556 </v>
   <v>       0.33333333       0.11111111       0.05555556 </v>
   <v>       0.38888889       0.11111111       0.05555556 </v>
   <v>       0.44444444       0.11111111       0.05555556 </v>
   <v>       0.50000000       0.11111111       0.05555556 </v>
   <v>       0.16666667       0.16666667       0.05555556 </v>
   <v>       0.22222222       0.16666667       0.05555556 </v>
   <v>       0.27777778       0.16666667       0.05555556 </v>
   <v>       0.33333333       0.16666667       0.05555556 </v>
   <v>       0.38888889       0.16666667       0.05555556 </v>
   <v>       0.44444444       0.16666667       0.05555556 </v>
   <v>       0.50000000       0.16666667       0.05555556 </v>
   <v>       0.22222222       0.22222222       0.05555556 </v>
   <v>       0.27777778       0.22222222       0.05555556 </v>
   <v>       0.33333333       0.22222222       0.05555556 </v>
   <v>       0.38888889       0.22222222       0.05555556 </v>
   <v>       0.44444444       0.22222222       0.05555556 </v>
   <v>       0.50000000       0.22222222       0.05555556 </v>
   <v>       0.27777778       0.27777778       0.05555556 </v>
   <v>       0.33333333       0.27777778       0.05555556 </v>
   <v>       0.38888889       0.27777778       0.05555556 </v>
   <v>       0.44444444       0.27777778       0.05555556 </v>
   <v>       0.50000000       0.27777778       0.05555556 </v>
   <v>       0.33333333       0.33333333       0.05555556 </v>
   <v>       0.38888889       0.33333333       0.05555556 </v>
   <v>       0.44444444       0.33333333       0.05555556 </v>
   <v>       0.50000000       0.33333333       0.05555556 </v>
   <v>       0.38888889       0.38888889       0.05555556 </v>
   <v>       0.44444444       0.38888889       0.05555556 </v>
   <v>       0.50000000       0.38888889       0.05555556 </v>
   <v>       0.44444444       0.44444444       0.05555556 </v>
   <v>       0.50000000       0.44444444       0.05555556 </v>
   <v>       0.50000000       0.50000000       0.05555556 </v>
   <v>       0.11111111       0.11111111       0.11111111 </v>
   <v>       0.16666667       0.11111111       0.11111111 </v>
   <v>       0.22222222       0.11111111       0.11111111 </v>
   <v>       0.27777778       0.11111111       0.11111111 </v>
   <v>       0.33333333       0.11111111       0.11111111 </v>
   <v>       0.38888889       0.11111111       0.11111111 </v>
   <v>       0.44444444       0.11111111       0.11111111 </v>
   <v>       0.50000000       0.11111111       0.11111111 </v>
   <v>       0.16666667       0.16666667       0.11111111 </v>
   <v>       0.22222222       0.16666667       0.11111111 </v>
   <v>       0.27777778       0.16666667       0.11111111 </v>
   <v>       0.33333333       0.16666667       0.11111111 </v>
   <v>       0.38888889       0.16666667       0.11111111 </v>
   <v>       0.44444444       0.16666667       0.11111111 </v>
   <v>       0.50000000       0.16666667       0.11111111 </v>
   <v>       0.22222222       0.22222222       0.11111111 </v>
   <v>       0.27777778       0.22222222       0.11111111 </v>
   <v>       0.33333333       0.22222222       0.11111111 </v>
   <v>       0.38888889       0.22222222       0.11111111 </v>
   <v>       0.44444444       0.22222222       0.11111111 </v>
   <v>       0.50000000       0.22222222       0.11111111 </v>
   <v>       0.27777778       0.27777778       0.11111111 </v>
   <v>       0.33333333       0.27777778       0.11111111 </v>
   <v>       0.38888889       0.27777778       0.11111111 </v>
   <v>       0.44444444       0.27777778       0.11111111 </v>
   <v>       0.50000000       0.27777778       0.11111111 </v>
   <v>       0.33333333       0.33333333       0.11111111 </v>
   <v>       0.38888889       0.33333333       0.11111111 </v>
   <v>       0.44444444       0.33333333       0.11111111 </v>
   <v>       0.50000000       0.33333333       0.11111111 </v>
   <v>       0.38888889       0.38888889       0.11111111 </v>
   <v>       0.44444444       0.38888889       0.11111111 </v>
   <v>       0.50000000       0.38888889       0.11111111 </v>
   <v>       0.44444444       0.44444444       0.11111111 </v>
   <v>       0.50000000       0.44444444       0.11111111 </v>
   <v>       0.50000000       0.50000000       0.11111111 </v>
   <v>       0.16666667       0.16666667       0.16666667 </v>
   <v>       0.22222222       0.16666667       0.16666667 </v>
   <v>       0.27777778       0.16666667       0.16666667 </v>
   <v>       0.33333333       0.16666667       0.16666667 </v>
   <v>       0.38888889       0.16666667       0.16666667 </v>
   <v>       0.44444444       0.16666667       0.16666667 </v>
   <v>       0.50000000       0.16666667       0.16666667 </v>
   <v>       0.22222222       0.22222222       0.16666667 </v>
   <v>       0.27777778       0.22222222       0.16666667 </v>
   <v>       0.33333333       0.22222222       0.16666667 </v>
   <v>       0.38888889       0.22222222       0.16666667 </v>
   <v>       0.44444444       0.22222222       0.16666667 </v>
   <v>       0.50000000       0.22222222       0.16666667 </v>
   <v>       0.27777778       0.27777778       0.16666667 </v>
   <v>       0.33333333       0.27777778       0.16666667 </v>
   <v>       0.38888889       0.27777778       0.16666667 </v>
   <v>       0.44444444       0.27777778       0.16666667 </v>
   <v>       0.50000000       0.27777778       0.16666667 </v>
   <v>       0.33333333       0.33333333       0.16666667 </v>
   <v>       0.38888889       0.33333333       0.16666667 </v>
   <v>       0.44444444       0.33333333       0.16666667 </v>
   <v>       0.50000000       0.33333333       0.16666667 </v>
   <v>       0.38888889       0.38888889       0.16666667 </v>
   <v>       0.44444444       0.38888889       0.16666667 </v>
   <v>       0.50000000       0.38888889       0.16666667 </v>
   <v>       0.44444444       0.44444444       0.16666667 </v>
   <v>       0.50000000       0.44444444       0.16666667 </v>
   <v>       0.50000000       0.50000000       0.16666667 </v>
   <v>       0.22222222       0.22222222       0.22222222 </v>
   <v>       0.27777778       0.22222222       0.22222222 </v>
   <v>       0.33333333       0.22222222       0.22222222 </v>
   <v>       0.38888889       0.22222222       0.22222222 </v>
   <v>       0.44444444       0.22222222       0.22222222 </v>
   <v>       0.50000000       0.22222222       0.22222222 </v>
   <v>       0.27777778       0.27777778       0.22222222 </v>
   <v>       0.33333333       0.27777778       0.22222222 </v>
   <v>       0.38888889       0.27777778       0.22222222 </v>
   <v>       0.44444444       0.27777778       0.22222222 </v>
   <v>       0.50000000       0.27777778       0.22222222 </v>
   <v>       0.33333333       0.33333333       0.22222222 </v>
   <v>       0.38888889       0.33333333       0.22222222 </v>
   <v>       0.44444444       0.33333333       0.22222222 </v>
   <v>       0.50000000       0.33333333       0.22222222 </v>
   <v>       0.38888889       0.38888889       0.22222222 </v>
   <v>       0.44444444       0.38888889       0.22222222 </v>
   <v>       0.50000000       0.38888889       0.22222222 </v>
   <v>       0.44444444       0.44444444       0.22222222 </v>
   <v>       0.50000000       0.44444444       0.22222222 </v>
   <v>       0.50000000       0.50000000       0.22222222 </v>
   <v>       0.27777778       0.27777778       0.27777778 </v>
   <v>       0.33333333       0.27777778       0.27777778 </v>
   <v>       0.38888889       0.27777778       0.27777778 </v>
   <v>       0.44444444       0.27777778       0.27777778 </v>
   <v>       0.50000000       0.27777778       0.27777778 </v>
   <v>       0.33333333       0.33333333       0.27777778 </v>
   <v>       0.38888889       0.33333333       0.27777778 </v>
   <v>       0.44444444       0.33333333       0.27777778 </v>
   <v>       0.50000000       0.33333333       0.27777778 </v>
   <v>       0.38888889       0.38888889       0.27777778 </v>
   <v>       0.44444444       0.38888889       0.27777778 </v>
   <v>       0.50000000       0.38888889       0.27777778 </v>
   <v>       0.44444444       0.44444444       0.27777778 </v>
   <v>       0.50000000       0.44444444       0.27777778 </v>
   <v>       0.50000000       0.50000000       0.27777778 </v>
   <v>       0.33333333       0.33333333       0.33333333 </v>
   <v>       0.38888889       0.33333333       0.33333333 </v>
   <v>       0.44444444       0.33333333       0.33333333 </v>
   <v>       0.50000000       0.33333333       0.33333333 </v>
   <v>       0.38888889       0.38888889       0.33333333 </v>
   <v>       0.44444444       0.38888889       0.33333333 </v>
   <v>       0.50000000       0.38888889       0.33333333 </v>
   <v>       0.44444444       0.44444444       0.33333333 </v>
   <v>       0.50000000       0.44444444       0.33333333 </v>
   <v>       0.50000000       0.50000000       0.33333333 </v>
   <v>       0.38888889       0.38888889       0.38888889 </v>
   <v>       0.44444444       0.38888889       0.38888889 </v>
   <v>       0.50000000       0.38888889       0.38888889 </v>
   <v>       0.44444444       0.44444444       0.38888889 </v>
   <v>       0.50000000       0.44444444       0.38888889 </v>
   <v>       0.50000000       0.50000000       0.38888889 </v>
   <v>       0.44444444       0.44444444       0.44444444 </v>
   <v>       0.50000000       0.44444444       0.44444444 </v>
   <v>       0.50000000       0.50000000       0.44444444 </v>
   <v>       0.50000000       0.50000000       0.50000000 </v>
  </varray>
  <varray name="weights" >
   <v>       0.00017147 </v>
   <v>       0.00102881 </v>
   <v>       0.00102881 </v>
   <v>       0.00102881 </v>
   <v>       0.00102881 </v>
   <v>       0.00102881 </v>
   <v>       0.00102881 </v>
   <v>       0.00102881 </v>
   <v>       0.00102881 </v>
   <v>       0.00051440 </v>
   <v>       0.00205761 </v>
   <v>       0.00411523 </v>
   <v>       0.00411523 </v>
   <v>       0.00411523 </v>
   <v>       0.00411523 </v>
   <v>       0.00411523 </v>
   <v>       0.00411523 </v>
   <v>       0.00411523 </v>
   <v>       0.00205761 </v>
   <v>       0.00205761 </v>
   <v>       0.00411523 </v>
   <v>       0.00411523 </v>
   <v>       0.00411523 </v>
   <v>       0.00411523 </v>
   <v>       0.00411523 </v>
   <v>       0.00411523 </v>
   <v>       0.00205761 </v>
   <v>       0.00205761 </v>
   <v>       0.00411523 </v>
   <v>       0.00411523 </v>
   <v>       0.00411523 </v>
   <v>       0.00411523 </v>
   <v>       0.00411523 </v>
   <v>       0.00205761 </v>
   <v>       0.00205761 </v>
   <v>       0.00411523 </v>
   <v>       0.00411523 </v>
   <v>       0.00411523 </v>
   <v>       0.00411523 </v>
   <v>       0.00205761 </v>
   <v>       0.00205761 </v>
   <v>       0.00411523 </v>
   <v>       0.00411523 </v>
   <v>       0.00411523 </v>
   <v>       0.00205761 </v>
   <v>       0.00205761 </v>
   <v>       0.00411523 </v>
   <v>       0.00411523 </v>
   <v>       0.00205761 </v>
   <v>       0.00205761 </v>
   <v>       0.00411523 </v>
   <v>       0.00205761 </v>
   <v>       0.00205761 </v>
   <v>       0.00205761 </v>
   <v>       0.00051440 </v>
   <v>       0.00137174 </v>
   <v>       0.00411523 </v>
   <v>       0.00411523 </v>
   <v>       0.00411523 </v>
   <v>       0.00411523 </v>
   <v>       0.00411523 </v>
   <v>       0.00411523 </v>
   <v>       0.00411523 </v>
   <v>       0.00205761 </v>
   <v>       0.00411523 </v>
   <v>       0.00823045 </v>
   <v>       0.00823045 </v>
   <v>       0.00823045 </v>
   <v>       0.00823045 </v>
   <v>       0.00823045 </v>
   <v>       0.00823045 </v>
   <v>       0.00411523 </v>
   <v>       0.00411523 </v>
   <v>       0.00823045 </v>
   <v>       0.00823045 </v>
   <v>       0.00823045 </v>
   <v>       0.00823045 </v>
   <v>       0.00823045 </v>
   <v>       0.00411523 </v>
   <v>       0.00411523 </v>
   <v>       0.00823045 </v>
   <v>       0.00823045 </v>
   <v>       0.00823045 </v>
   <v>       0.00823045 </v>
   <v>       0.00411523 </v>
   <v>       0.00411523 </v>
   <v>       0.00823045 </v>
   <v>       0.00823045 </v>
   <v>       0.00823045 </v>
   <v>       0.00411523 </v>
   <v>       0.00411523 </v>
   <v>       0.00823045 </v>
   <v>       0.00823045 </v>
   <v>       0.00411523 </v>
   <v>       0.00411523 </v>
   <v>       0.00823045 </v>
   <v>       0.00411523 </v>
   <v>       0.00411523 </v>
   <v>       0.00411523 </v>
   <v>       0.00102881 </v>
   <v>       0.00137174 </v>
   <v>       0.00411523 </v>
   <v>       0.00411523 </v>
   <v>       0.00411523 </v>
   <v>       0.00411523 </v>
   <v>       0.00411523 </v>
   <v>       0.00411523 </v>
   <v>       0.00205761 </v>
   <v>       0.00411523 </v>
   <v>       0.00823045 </v>
   <v>       0.00823045 </v>
   <v>       0.00823045 </v>
   <v>       0.00823045 </v>
   <v>       0.00823045 </v>
   <v>       0.00411523 </v>
   <v>       0.00411523 </v>
   <v>       0.00823045 </v>
   <v>       0.00823045 </v>
   <v>       0.00823045 </v>
   <v>       0.00823045 </v>
   <v>       0.00411523 </v>
   <v>       0.00411523 </v>
   <v>       0.00823045 </v>
   <v>       0.00823045 </v>
   <v>       0.00823045 </v>
   <v>       0.00411523 </v>
   <v>       0.00411523 </v>
   <v>       0.00823045 </v>
   <v>       0.00823045 </v>
   <v>       0.00411523 </v>
   <v>       0.00411523 </v>
   <v>       0.00823045 </v>
   <v>       0.00411523 </v>
   <v>       0.00411523 </v>
   <v>       0.00411523 </v>
   <v>       0.00102881 </v>
   <v>       0.00137174 </v>
   <v>       0.00411523 </v>
   <v>       0.00411523 </v>
   <v>       0.00411523 </v>
   <v>       0.00411523 </v>
   <v>       0.00411523 </v>
   <v>       0.00205761 </v>
   <v>       0.00411523 </v>
   <v>       0.00823045 </v>
   <v>       0.00823045 </v>
   <v>       0.00823045 </v>
   <v>       0.00823045 </v>
   <v>       0.00411523 </v>
   <v>       0.00411523 </v>
   <v>       0.00823045 </v>
   <v>       0.00823045 </v>
   <v>       0.00823045 </v>
   <v>       0.00411523 </v>
   <v>       0.00411523 </v>
   <v>       0.00823045 </v>
   <v>       0.00823045 </v>
   <v>       0.00411523 </v>
   <v>       0.00411523 </v>
   <v>       0.00823045 </v>
   <v>       0.00411523 </v>
   <v>       0.00411523 </v>
   <v>       0.00411523 </v>
   <v>       0.00102881 </v>
   <v>       0.00137174 </v>
   <v>       0.00411523 </v>
   <v>       0.00411523 </v>
   <v>       0.00411523 </v>
   <v>       0.00411523 </v>
   <v>       0.00205761 </v>
   <v>       0.00411523 </v>
   <v>       0.00823045 </v>
   <v>       0.00823045 </v>
   <v>       0.00823045 </v>
   <v>       0.00411523 </v>
   <v>       0.00411523 </v>
   <v>       0.00823045 </v>
   <v>       0.00823045 </v>
   <v>       0.00411523 </v>
   <v>       0.00411523 </v>
   <v>       0.00823045 </v>
   <v>       0.00411523 </v>
   <v>       0.00411523 </v>
   <v>       0.00411523 </v>
   <v>       0.00102881 </v>
   <v>       0.00137174 </v>
   <v>       0.00411523 </v>
   <v>       0.00411523 </v>
   <v>       0.00411523 </v>
   <v>       0.00205761 </v>
   <v>       0.00411523 </v>
   <v>       0.00823045 </v>
   <v>       0.00823045 </v>
   <v>       0.00411523 </v>
   <v>       0.00411523 </v>
   <v>       0.00823045 </v>
   <v>       0.00411523 </v>
   <v>       0.00411523 </v>
   <v>       0.00411523 </v>
   <v>       0.00102881 </v>
   <v>       0.00137174 </v>
   <v>       0.00411523 </v>
   <v>       0.00411523 </v>
   <v>       0.00205761 </v>
   <v>       0.00411523 </v>
   <v>       0.00823045 </v>
   <v>       0.00411523 </v>
   <v>       0.00411523 </v>
   <v>       0.00411523 </v>
   <v>       0.00102881 </v>
   <v>       0.00137174 </v>
   <v>       0.00411523 </v>
   <v>       0.00205761 </v>
   <v>       0.00411523 </v>
   <v>       0.00411523 </v>
   <v>       0.00102881 </v>
   <v>       0.00137174 </v>
   <v>       0.00205761 </v>
   <v>       0.00102881 </v>
   <v>       0.00017147 </v>
  </varray>
 </kpoints>
 <parameters>
  <separator name="general" >
   <i type="string" name="SYSTEM">Ni3Al EOS</i>
   <i type="logical" name="LCOMPAT"> F  </i>
  </separator>
  <separator name="electronic" >
   <i type="string" name="PREC">accura</i>
   <i name="ENMAX">    600.00000000</i>
   <i name="ENAUG">    544.56500000</i>
   <i name="EDIFF">      0.00000100</i>
   <i type="int" name="IALGO">    38</i>
   <i type="int" name="IWAVPR">    11</i>
   <i type="int" name="NBANDS">    24</i>
   <i type="int" name="NBANDSLOW">    -1</i>
   <i type="int" name="NBANDSHIGH">    -1</i>
   <i name="NELECT">     33.00000000</i>
   <i type="int" name="TURBO">     0</i>
   <i type="int" name="IRESTART">     0</i>
   <i type="int" name="NREBOOT">     0</i>
   <i type="int" name="NMIN">     0</i>
   <i name="EREF">      0.00000000</i>
   <separator name="electronic smearing" >
    <i type="int" name="ISMEAR">     1</i>
    <i name="SIGMA">      0.20000000</i>
    <i name="KSPACING">      0.50000000</i>
    <i type="logical" name="KGAMMA"> T  </i>
    <i type="logical" name="KBLOWUP"> T  </i>
   </separator>
   <separator name="electronic projectors" >
    <i type="logical" name="LREAL"> F  </i>
    <v name="ROPT">      0.00000000      0.00000000</v>
    <i type="int" name="LMAXPAW">  -100</i>
    <i type="int" name="LMAXMIX">     2</i>
    <i type="logical" name="NLSPLINE"> F  </i>
   </separator>
   <separator name="electronic startup" >
    <i type="int" name="ISTART">     0</i>
    <i type="int" name="ICHARG">     2</i>
    <i type="int" name="INIWAV">     1</i>
   </separator>
   <separator name="electronic spin" >
    <i type="int" name="ISPIN">     2</i>
    <i type="logical" name="LNONCOLLINEAR"> F  </i>
    <v name="MAGMOM">      0.00000000      0.60000000      0.60000000      0.60000000</v>
    <i name="NUPDOWN">     -1.00000000</i>
    <i type="logical" name="LSORBIT"> F  </i>
    <v name="SAXIS">      0.00000000      0.00000000      1.00000000</v>
    <i type="logical" name="LSPIRAL"> F  </i>
    <v name="QSPIRAL">      0.00000000      0.00000000      0.00000000</v>
    <i type="logical" name="LZEROZ"> F  </i>
   </separator>
   <separator name="electronic exchange-correlation" >
    <i type="logical" name="LASPH"> T  </i>
    <i type="logical" name="LMETAGGA"> F  </i>
   </separator>
   <separator name="electronic convergence" >
    <i type="int" name="NELM">    60</i>
    <i type="int" name="NELMDL">    -5</i>
    <i type="int" name="NELMIN">     2</i>
    <i name="ENINI">    600.00000000</i>
    <separator name="electronic convergence detail" >
     <i type="logical" name="LDIAG"> T  </i>
     <i type="logical" name="LSUBROT"> F  </i>
     <i name="WEIMIN">      0.00100000</i>
     <i name="EBREAK">      0.00000001</i>
     <i name="DEPER">      0.30000000</i>
     <i type="int" name="NRMM">     4</i>
     <i name="TIME">      0.40000000</i>
    </separator>
   </separator>
   <separator name="electronic mixer" >
    <i name="AMIX">      0.40000000</i>
    <i name="BMIX">      1.00000000</i>
    <i name="AMIN">      0.10000000</i>
    <i name="AMIX_MAG">      1.60000000</i>
    <i name="BMIX_MAG">      1.00000000</i>
    <separator name="electronic mixer details" >
     <i type="int" name="IMIX">     4</i>
     <i type="logical" name="MIXFIRST"> F  </i>
     <i type="int" name="MAXMIX">   -45</i>
     <i name="WC">    100.00000000</i>
     <i type="int" name="INIMIX">     1</i>
     <i type="int" name="MIXPRE">     1</i>
     <i type="int" name="MREMOVE">     5</i>
    </separator>
   </separator>
   <separator name="electronic dipolcorrection" >
    <i type="logical" name="LDIPOL"> F  </i>
    <i type="logical" name="LMONO"> F  </i>
    <i type="int" name="IDIPOL">     0</i>
    <i name="EPSILON">      1.00000000</i>
    <v name="DIPOL">   -100.00000000   -100.00000000   -100.00000000</v>
    <i name="EFIELD">      0.00000000</i>
   </separator>
  </separator>
  <separator name="grids" >
   <i type="int" name="NGX">    28</i>
   <i type="int" name="NGY">    28</i>
   <i type="int" name="NGZ">    28</i>
   <i type="int" name="NGXF">    56</i>
   <i type="int" name="NGYF">    56</i>
   <i type="int" name="NGZF">    56</i>
   <i type="logical" name="ADDGRID"> T  </i>
  </separator>
  <separator name="ionic" >
   <i type="int" name="NSW">   100</i>
   <i type="int" name="IBRION">     2</i>
   <i type="int" name="MDALGO">     0</i>
   <i type="int" name="ISIF">     2</i>
   <i name="PSTRESS">      0.00000000</i>
   <i name="EDIFFG">     -0.01000000</i>
   <i type="int" name="NFREE">     1</i>
   <i name="POTIM">      0.50000000</i>
   <i name="SMASS">     -3.00000000</i>
   <i name="SCALEE">      1.00000000</i>
  </separator>
  <separator name="ionic md" >
   <i name="TEBEG">      0.00010000</i>
   <i name="TEEND">      0.00010000</i>
   <i type="int" name="NBLOCK">     1</i>
   <i type="int" name="KBLOCK">   100</i>
   <i type="int" name="NPACO">   256</i>
   <i name="APACO">     10.00000000</i>
  </separator>
  <separator name="symmetry" >
   <i type="int" name="ISYM">     2</i>
   <i name="SYMPREC">      0.00001000</i>
  </separator>
  <separator name="dos" >
   <i type="int" name="LORBIT">     0</i>
   <v name="RWIGS">     -1.00000000     -1.00000000</v>
   <i type="int" name="NEDOS">  2000</i>
   <i name="EMIN">     10.00000000</i>
   <i name="EMAX">    -10.00000000</i>
   <i name="EFERMI">      0.00000000</i>
  </separator>
  <separator name="writing" >
   <i type="int" name="NWRITE">     2</i>
   <i type="logical" name="LWAVE"> F  </i>
   <i type="logical" name="LDOWNSAMPLE"> F  </i>
   <i type="logical" name="LCHARG"> T  </i>
   <i type="logical" name="LPARD"> F  </i>
   <i type="logical" name="LVTOT"> F  </i>
   <i type="logical" name="LVHAR"> F  </i>
   <i type="logical" name="LELF"> F  </i>
   <i type="logical" name="LOPTICS"> F  </i>
   <v name="STM">      0.00000000      0.00000000      0.00000000      0.00000000      0.00000000      0.00000000      0.00000000</v>
  </separator>
  <separator name="performance" >
   <i type="int" name="NPAR">     6</i>
   <i type="int" name="NSIM">     4</i>
   <i type="int" name="NBLK">    -1</i>
   <i type="logical" name="LPLANE"> T  </i>
   <i type="logical" name="LSCALAPACK"> T  </i>
   <i type="logical" name="LSCAAWARE"> F  </i>
   <i type="logical" name="LSCALU"> F  </i>
   <i type="logical" name="LASYNC"> F  </i>
   <i type="logical" name="LORBITALREAL"> F  </i>
  </separator>
  <separator name="miscellaneous" >
   <i type="int" name="IDIOT">     3</i>
   <i type="int" name="PHON_NSTRUCT">    -1</i>
   <i type="logical" name="LMUSIC"> F  </i>
   <v name="POMASS">     26.98200000     58.69000000</v>
   <v name="DARWINR">      0.00000000      0.00000000</v>
   <v name="DARWINV">      1.00000000      1.00000000</v>
   <i type="logical" name="LCORR"> T  </i>
  </separator>
  <i type="logical" name="GGA_COMPAT"> T  </i>
  <i type="logical" name="LBERRY"> F  </i>
  <i type="int" name="ICORELEVEL">     0</i>
  <i type="logical" name="LDAU"> F  </i>
  <i type="int" name="I_CONSTRAINED_M">     0</i>
  <separator name="electronic exchange-correlation" >
   <i type="string" name="GGA">--</i>
   <i type="int" name="VOSKOWN">     0</i>
   <i type="logical" name="LHFCALC"> F  </i>
   <i type="string" name="PRECFOCK"></i>
   <i type="logical" name="LSYMGRAD"> F  </i>
   <i type="logical" name="LHFONE"> F  </i>
   <i type="logical" name="LRHFCALC"> F  </i>
   <i type="logical" name="LTHOMAS"> F  </i>
   <i type="logical" name="LMODELHF"> F  </i>
   <i type="logical" name="LFOCKACE"> F  </i>
   <i name="ENCUT4O">     -1.00000000</i>
   <i type="int" name="EXXOEP">     0</i>
   <i type="int" name="FOURORBIT">     0</i>
   <i name="AEXX">      0.00000000</i>
   <i name="HFALPHA">      0.00000000</i>
   <i name="MCALPHA">      0.00000000</i>
   <i name="ALDAX">      1.00000000</i>
   <i name="AGGAX">      1.00000000</i>
   <i name="ALDAC">      1.00000000</i>
   <i name="AGGAC">      1.00000000</i>
   <i type="int" name="NKREDX">     1</i>
   <i type="int" name="NKREDY">     1</i>
   <i type="int" name="NKREDZ">     1</i>
   <i type="logical" name="SHIFTRED"> F  </i>
   <i type="logical" name="ODDONLY"> F  </i>
   <i type="logical" name="EVENONLY"> F  </i>
   <i type="int" name="LMAXFOCK">     0</i>
   <i type="int" name="NMAXFOCKAE">     0</i>
   <i type="logical" name="LFOCKAEDFT"> F  </i>
   <i name="HFSCREEN">      0.00000000</i>
   <i name="HFSCREENC">      0.00000000</i>
   <i type="int" name="NBANDSGWLOW">     0</i>
  </separator>
  <separator name="vdW DFT" >
   <i type="logical" name="LUSE_VDW"> F  </i>
   <i name="Zab_VDW">     -0.84910000</i>
   <i name="PARAM1">      0.12340000</i>
   <i name="PARAM2">      1.00000000</i>
   <i name="PARAM3">      0.00000000</i>
  </separator>
  <separator name="model GW" >
   <i type="int" name="MODEL_GW">     0</i>
   <i name="MODEL_EPS0">      6.10613760</i>
   <i name="MODEL_ALPHA">      1.00000000</i>
  </separator>
  <separator name="linear response parameters" >
   <i type="logical" name="LEPSILON"> F  </i>
   <i type="logical" name="LRPA"> F  </i>
   <i type="logical" name="LNABLA"> F  </i>
   <i type="logical" name="LVEL"> F  </i>
   <i name="CSHIFT">      0.10000000</i>
   <i name="OMEGAMAX">     -1.00000000</i>
   <i name="DEG_THRESHOLD">      0.00200000</i>
   <i name="RTIME">     -0.10000000</i>
   <i name="WPLASMAI">      0.00000000</i>
   <v name="DFIELD">      0.00000000      0.00000000      0.00000000</v>
   <v name="WPLASMA">      0.00000000      0.00000000      0.00000000      0.00000000      0.00000000      0.00000000      0.00000000      0.00000000      0.00000000</v>
  </separator>
  <separator name="orbital magnetization" >
   <i type="logical" name="NUCIND"> F  </i>
   <v name="MAGPOS">      0.00000000      0.00000000      0.00000000</v>
   <i type="logical" name="LNICSALL"> T  </i>
   <i type="logical" name="ORBITALMAG"> F  </i>
   <i type="logical" name="LMAGBLOCH"> F  </i>
   <i type="logical" name="LCHIMAG"> F  </i>
   <i type="logical" name="LGAUGE"> T  </i>
   <i type="int" name="MAGATOM">     0</i>
   <v name="MAGDIPOL">      0.00000000      0.00000000      0.00000000</v>
   <v name="AVECCONST">      0.00000000      0.00000000      0.00000000</v>
  </separator>
  <separator name="response functions" >
   <i type="logical" name="LFINITE_TEMPERATURE"> F  </i>
   <i type="logical" name="LADDER"> F  </i>
   <i type="logical" name="LRPAFORCE"> F  </i>
   <i type="logical" name="LFXC"> F  </i>
   <i type="logical" name="LHARTREE"> T  </i>
   <i type="int" name="IBSE">     0</i>
   <v type="int" name="KPOINT">    -1     0     0     0</v>
   <i type="logical" name="LTCTC"> F  </i>
   <i type="logical" name="LTCTE"> F  </i>
   <i type="logical" name="LTETE"> F  </i>
   <i type="logical" name="LTRIPLET"> F  </i>
   <i type="logical" name="LFXCEPS"> F  </i>
   <i type="logical" name="LFXHEG"> F  </i>
   <i type="int" name="NATURALO">     2</i>
   <i type="logical" name="LHOLEGF"> F  </i>
   <i type="logical" name="L2ORDER"> F  </i>
   <i type="logical" name="LDMP1"> F  </i>
   <i type="logical" name="LMP2LT"> F  </i>
   <i type="logical" name="LSMP2LT"> F  </i>
   <i type="logical" name="LGWLF"> F  </i>
   <i name="ENCUTGW">     -2.00000000</i>
   <i name="ENCUTGWSOFT">     -2.00000000</i>
   <i name="ENCUTLF">     -1.00000000</i>
   <i type="logical" name="LESF_SPLINES"> F  </i>
   <i type="int" name="LMAXMP2">    -1</i>
   <i name="SCISSOR">      0.00000000</i>
   <i type="int" name="NOMEGA">     0</i>
   <i type="int" name="NOMEGAR">     0</i>
   <i type="int" name="NBANDSGW">    -1</i>
   <i type="int" name="NBANDSO">    -1</i>
   <i type="int" name="NBANDSV">    -1</i>
   <i type="int" name="NELMGW">     1</i>
   <i type="int" name="NELMHF">     1</i>
   <i type="int" name="DIM">     3</i>
   <i type="int" name="IESPILON">     4</i>
   <i type="int" name="ANTIRES">     0</i>
   <i name="OMEGAMAX">    -30.00000000</i>
   <i name="OMEGAMIN">    -30.00000000</i>
   <i name="OMEGATL">   -200.00000000</i>
   <i type="int" name="OMEGAGRID">     0</i>
   <i name="CSHIFT">     -0.10000000</i>
   <i type="logical" name="LSELFENERGY"> F  </i>
   <i type="logical" name="LSPECTRAL"> F  </i>
   <i type="logical" name="LSPECTRALGW"> F  </i>
   <i type="logical" name="LSINGLES"> F  </i>
   <i type="logical" name="LFERMIGW"> F  </i>
   <i type="logical" name="ODDONLYGW"> F  </i>
   <i type="logical" name="EVENONLYGW"> F  </i>
   <i type="int" name="NKREDLFX">     1</i>
   <i type="int" name="NKREDLFY">     1</i>
   <i type="int" name="NKREDLFZ">     1</i>
   <i type="int" name="MAXMEM">  2800</i>
   <i type="int" name="TELESCOPE">     0</i>
   <i type="int" name="NTAUPAR">    -1</i>
   <i type="int" name="NOMEGAPAR">    -1</i>
   <i name="DAMP_NEWTON">      0.80000001</i>
   <i name="LAMBDA">      1.00000000</i>
  </separator>
  <separator name="External order field" >
   <i name="OFIELD_KAPPA">      0.00000000</i>
   <v name="OFIELD_K">      0.00000000      0.00000000      0.00000000</v>
   <i name="OFIELD_Q6_NEAR">      0.00000000</i>
   <i name="OFIELD_Q6_FAR">      0.00000000</i>
   <i name="OFIELD_A">      0.00000000</i>
  </separator>
  <separator name="optional k-points parameters" >
   <i type="int" name="KPOINTS_OPT_MODE">     1</i>
   <i type="logical" name="LKPOINTS_OPT"> F  </i>
  </separator>
 </parameters>
 <atominfo>
  <atoms>       4 </atoms>
  <types>       2 </types>
  <array name="atoms" >
   <dimension dim="1">ion</dimension>
   <field type="string">element</field>
   <field type="int">atomtype</field>
   <set>
    <rc><c>Al</c><c>   1</c></rc>
    <rc><c>Ni</c><c>   2</c></rc>
    <rc><c>Ni</c><c>   2</c></rc>
    <rc><c>Ni</c><c>   2</c></rc>
   </set>
  </array>
  <array name="atomtypes" >
   <dimension dim="1">type</dimension>
   <field type="int">atomspertype</field>
   <field type="string">element</field>
   <field>mass</field>
   <field>valence</field>
   <field type="string">pseudopotential</field>
   <set>
    <rc><c>   1</c><c>Al</c><c>     26.98200000</c><c>      3.00000000</c><c> PAW_PBE Al 04Jan2001                   </c></rc>
    <rc><c>   3</c><c>Ni</c><c>     58.69000000</c><c>     10.00000000</c><c> PAW_PBE Ni 06Sep2000                   </c></rc>
   </set>
  </array>
 </atominfo>
 <structure name="initialpos" >
  <crystal>
   <varray name="basis" >
    <v>       3.44000000       0.00000000       0.00000000 </v>
    <v>       0.00000000       3.44000000       0.00000000 </v>
    <v>       0.00000000       0.00000000       3.44000000 </v>
   </varray>
   <i name="volume">     40.70758400 </i>
   <varray name="rec_basis" >
    <v>       0.29069767       0.00000000       0.00000000 </v>
    <v>       0.00000000       0.29069767       0.00000000 </v>
    <v>       0.00000000       0.00000000       0.29069767 </v>
   </varray>
  </crystal>
  <varray name="positions" >
   <v>       0.00000000       0.00000000       0.00000000 </v>
   <v>       0.50000000       0.00000000       0.50000000 </v>
   <v>       0.50000000       0.50000000       0.00000000 </v>
   <v>       0.00000000       0.50000000       0.50000000 </v>
  </varray>
 </structure>
 <calculation>
  <scstep>
   <time name="dav">    3.49    3.60</time>
   <time name="total">    4.09    4.20</time>
   <energy>
    <i name="alphaZ">    244.27687032 </i>
    <i name="ewald">  -2785.96476706 </i>
    <i name="hartreedc">   -878.49922089 </i>
    <i name="XCdc">     70.61014199 </i>
    <i name="pawpsdc">   2647.30747865 </i>
    <i name="pawaedc">  -2815.80221064 </i>
    <i name="eentropy">      0.00163805 </i>
    <i name="bandstr">    389.44864571 </i>
    <i name="atom">   3287.24036057 </i>
    <i name="e_fr_energy">    158.61893670 </i>
    <i name="e_wo_entrp">    158.61729866 </i>
    <i name="e_0_energy">    158.61839069 </i>
   </energy>
  </scstep>
  <scstep>
   <time name="dav">    3.45    3.53</time>
   <time name="total">    3.48    3.56</time>
   <energy>
    <i name="e_fr_energy">    -21.50524294 </i>
    <i name="e_wo_entrp">    -21.51149135 </i>
    <i name="e_0_energy">    -21.50732574 </i>
   </energy>
  </scstep>
  <scstep>
   <time name="dav">    4.25    4.33</time>
   <time name="total">    4.29    4.36</time>
   <energy>
    <i name="e_fr_energy">    -26.01839250 </i>
    <i name="e_wo_entrp">    -26.02307219 </i>
    <i name="e_0_energy">    -26.01995240 </i>
   </energy>
  </scstep>
  <scstep>
   <time name="dav">    3.84    4.00</time>
   <time name="total">    3.87    4.03</time>
   <energy>
    <i name="e_fr_energy">    -26.05973462 </i>
    <i name="e_wo_entrp">    -26.06441624 </i>
    <i name="e_0_energy">    -26.06129516 </i>
   </energy>
  </scstep>
  <scstep>
   <time name="dav">    4.29    4.45</time>
   <time name="total">    4.50    4.66</time>
   <energy>
    <i name="e_fr_energy">    -26.06073631 </i>
    <i name="e_wo_entrp">    -26.06541791 </i>
    <i name="e_0_energy">    -26.06229684 </i>
   </energy>
  </scstep>
  <scstep>
   <time name="dav">    3.67    3.84</time>
   <time name="total">    4.44    4.61</time>
   <energy>
    <i name="e_fr_energy">    -26.06213557 </i>
    <i name="e_wo_entrp">    -26.06639395 </i>
    <i name="e_0_energy">    -26.06355503 </i>
   </energy>
  </scstep>
  <scstep>
   <time name="dav">    3.73    3.90</time>
   <time name="total">    4.51    4.67</time>
   <energy>
    <i name="e_fr_energy">    -21.96105768 </i>
    <i name="e_wo_entrp">    -21.95112927 </i>
    <i name="e_0_energy">    -21.95774821 </i>
   </energy>
  </scstep>
  <scstep>
   <time name="dav">    3.79    3.96</time>
   <time name="total">    4.56    4.73</time>
   <energy>
    <i name="e_fr_energy">    -21.88421008 </i>
    <i name="e_wo_entrp">    -21.87455041 </i>
    <i name="e_0_energy">    -21.88099019 </i>
   </energy>
  </scstep>
  <scstep>
   <time name="dav">    4.35    4.51</time>
   <time name="total">    5.12    5.28</time>
   <energy>
    <i name="e_fr_energy">    -21.85811389 </i>
    <i name="e_wo_entrp">    -21.84990275 </i>
    <i name="e_0_energy">    -21.85537684 </i>
   </energy>
  </scstep>
  <scstep>
   <time name="dav">    3.77    3.94</time>
   <time name="total">    4.54    4.71</time>
   <energy>
    <i name="e_fr_energy">    -21.85856390 </i>
    <i name="e_wo_entrp">    -21.85114702 </i>
    <i name="e_0_energy">    -21.85609161 </i>
   </energy>
  </scstep>
  <scstep>
   <time name="dav">    3.98    4.12</time>
   <time name="total">    4.75    4.89</time>
   <energy>
    <i name="e_fr_energy">    -21.86044645 </i>
    <i name="e_wo_entrp">    -21.85677383 </i>
    <i name="e_0_energy">    -21.85922224 </i>
   </energy>
  </scstep>
  <scstep>
   <time name="dav">    4.31    4.43</time>
   <time name="total">    5.08    5.20</time>
   <energy>
    <i name="e_fr_energy">    -21.86172906 </i>
    <i name="e_wo_entrp">    -21.86020883 </i>
    <i name="e_0_energy">    -21.86122232 </i>
   </energy>
  </scstep>
  <scstep>
   <time name="dav">    4.06    4.14</time>
   <time name="total">    4.83    4.91</time>
   <energy>
    <i name="e_fr_energy">    -21.86227305 </i>
    <i name="e_wo_entrp">    -21.86273826 </i>
    <i name="e_0_energy">    -21.86242812 </i>
   </energy>
  </scstep>
  <scstep>
   <time name="dav">    4.54    4.61</time>
   <time name="total">    5.31    5.38</time>
   <energy>
    <i name="e_fr_energy">    -21.86242562 </i>
    <i name="e_wo_entrp">    -21.86320703 </i>
    <i name="e_0_energy">    -21.86268609 </i>
   </energy>
  </scstep>
  <scstep>
   <time name="dav">    4.33    4.40</time>
   <time name="total">    5.12    5.20</time>
   <energy>
    <i name="e_fr_energy">    -21.86243569 </i>
    <i name="e_wo_entrp">    -21.86320697 </i>
    <i name="e_0_energy">    -21.86269278 </i>
   </energy>
  </scstep>
  <scstep>
   <time name="dav">    3.11    3.21</time>
   <time name="total">    3.89    3.99</time>
   <energy>
    <i name="e_fr_energy">    -21.86243753 </i>
    <i name="e_wo_entrp">    -21.86328247 </i>
    <i name="e_0_energy">    -21.86271918 </i>
   </energy>
  </scstep>
  <scstep>
   <time name="dav">    2.45    2.61</time>
   <time name="total">    3.05    3.21</time>
   <energy>
    <i name="alphaZ">    244.27687032 </i>
    <i name="ewald">  -2785.96476706 </i>
    <i name="hartreedc">   -813.92887069 </i>
    <i name="XCdc">     67.57430223 </i>
    <i name="pawpsdc">   2894.02726676 </i>
    <i name="pawaedc">  -3068.62494953 </i>
    <i name="eentropy">      0.00079192 </i>
    <i name="bandstr">    153.53655770 </i>
    <i name="atom">   3287.24036057 </i>
    <i name="e_fr_energy">    -21.86243778 </i>
    <i name="e_wo_entrp">    -21.86322970 </i>
    <i name="e_0_energy">    -21.86270175 </i>
   </energy>
  </scstep>
  <structure>
   <crystal>
    <varray name="basis" >
     <v>       3.44000000       0.00000000       0.00000000 </v>
     <v>       0.00000000       3.44000000       0.00000000 </v>
     <v>       0.00000000       0.00000000       3.44000000 </v>
    </varray>
    <i name="volume">     40.70758400 </i>
    <varray name="rec_basis" >
     <v>       0.29069767       0.00000000       0.00000000 </v>
     <v>       0.00000000       0.29069767       0.00000000 </v>
     <v>       0.00000000       0.00000000       0.29069767 </v>
    </varray>
   </crystal>
   <varray name="positions" >
    <v>       0.00000000       0.00000000       0.00000000 </v>
    <v>       0.50000000       0.00000000       0.50000000 </v>
    <v>       0.50000000       0.50000000       0.00000000 </v>
    <v>       0.00000000       0.50000000       0.50000000 </v>
   </varray>
  </structure>
  <varray name="forces" >
   <v>       0.00000000       0.00000000       0.00000000 </v>
   <v>       0.00000000       0.00000000       0.00000000 </v>
   <v>       0.00000000       0.00000000       0.00000000 </v>
   <v>       0.00000000       0.00000000       0.00000000 </v>
  </varray>
  <varray name="stress" >
   <v>     259.42755604       0.00000000       0.00000000 </v>
   <v>      -0.00000000     259.42755604       0.00000000 </v>
   <v>      -0.00000000      -0.00000000     259.42755604 </v>
  </varray>
  <energy>
   <i name="e_fr_energy">    -21.86243778 </i>
   <i name="e_wo_entrp">    -21.86322970 </i>
   <i name="e_0_energy">    -21.86270175 </i>
  </energy>
  <time name="totalsc">   79.31   81.49</time>
  <eigenvalues>
   <array>
    <dimension dim="1">band</dimension>
    <dimension dim="2">kpoint</dimension>
    <dimension dim="3">spin</dimension>
    <field>eigene</field>
    <field>occ</field>
    <set>
     <set comment="spin 1">
      <set comment="kpoint 1">
       <r>   -3.3698    1.0000 </r>
       <r>    2.3665    1.0000 </r>
       <r>    3.1116    1.0000 </r>
       <r>    3.1116    1.0000 </r>
       <r>    3.5150    1.0000 </r>
       <r>    3.5150    1.0000 </r>
       <r>    3.5150    1.0000 </r>
       <r>    5.7307    1.0000 </r>
       <r>    5.7307    1.0000 </r>
       <r>    5.7307    1.0000 </r>
       <r>    6.6801    1.0001 </r>
       <r>    6.6801    1.0001 </r>
       <r>    7.0370    1.0354 </r>
       <r>    7.2621    0.6047 </r>
       <r>    7.2621    0.6047 </r>
       <r>    7.2621    0.6047 </r>
       <r>    8.2005   -0.0000 </r>
       <r>    8.2005   -0.0000 </r>
       <r>    8.2005   -0.0000 </r>
       <r>   14.4420    0.0000 </r>
       <r>   14.4420    0.0000 </r>
       <r>   15.5954    0.0000 </r>
       <r>   20.4985    0.0000 </r>
       <r>   20.4985    0.0000 </r>
      </set>
      <set comment="kpoint 2">
       <r>   -3.3291    1.0000 </r>
       <r>    2.3819    1.0000 </r>
       <r>    3.0901    1.0000 </r>
       <r>    3.1385    1.0000 </r>
       <r>    3.5228    1.0000 </r>
       <r>    3.5228    1.0000 </r>
       <r>    3.5253    1.0000 </r>
       <r>    5.7073    1.0000 </r>
       <r>    5.7073    1.0000 </r>
       <r>    5.7192    1.0000 </r>
       <r>    6.6554    1.0000 </r>
       <r>    6.6807    1.0001 </r>
       <r>    7.0209    1.0340 </r>
       <r>    7.1341    0.9805 </r>
       <r>    7.1341    0.9805 </r>
       <r>    7.2622    0.6045 </r>
       <r>    8.0302   -0.0000 </r>
       <r>    8.3795   -0.0000 </r>
       <r>    8.3795   -0.0000 </r>
       <r>   14.4340    0.0000 </r>
       <r>   14.5999    0.0000 </r>
       <r>   15.7025    0.0000 </r>
       <r>   20.3105    0.0000 </r>
       <r>   20.3244    0.0000 </r>
      </set>
      <set comment="kpoint 3">
       <r>   -3.2074    1.0000 </r>
       <r>    2.4219    1.0000 </r>
       <r>    3.0244    1.0000 </r>
       <r>    3.2180    1.0000 </r>
       <r>    3.5457    1.0000 </r>
       <r>    3.5457    1.0000 </r>
       <r>    3.5556    1.0000 </r>
       <r>    5.6397    1.0000 </r>
       <r>    5.6397    1.0000 </r>
       <r>    5.6855    1.0000 </r>
       <r>    6.5779    1.0000 </r>
       <r>    6.6821    1.0001 </r>
       <r>    6.8907    1.0085 </r>
       <r>    6.8907    1.0085 </r>
       <r>    6.9733    1.0245 </r>
       <r>    7.2623    0.6041 </r>
       <r>    7.6063   -0.0233 </r>
       <r>    8.7752   -0.0000 </r>
       <r>    8.7752   -0.0000 </r>
       <r>   14.4102    0.0000 </r>
       <r>   14.8961    0.0000 </r>
       <r>   16.1197    0.0000 </r>
       <r>   19.6462    0.0000 </r>
       <r>   19.6462    0.0000 </r>
      </set>
      <set comment="kpoint 4">
       <r>   -3.0059    1.0000 </r>
       <r>    2.4533    1.0000 </r>
       <r>    2.9244    1.0000 </r>
       <r>    3.3461    1.0000 </r>
       <r>    3.5827    1.0000 </r>
       <r>    3.5827    1.0000 </r>
       <r>    3.6039    1.0000 </r>
       <r>    5.5354    1.0000 </r>
       <r>    5.5354    1.0000 </r>
       <r>    5.6319    1.0000 </r>
       <r>    6.4304    1.0000 </r>
       <r>    6.6488    1.0000 </r>
       <r>    6.6488    1.0000 </r>
       <r>    6.6810    1.0001 </r>
       <r>    6.8972    1.0094 </r>
       <r>    7.1092    1.0095 </r>
       <r>    7.2625    0.6033 </r>
       <r>    9.2675   -0.0000 </r>
       <r>    9.2675   -0.0000 </r>
       <r>   14.3714    0.0000 </r>
       <r>   15.1051    0.0000 </r>
       <r>   16.9049    0.0000 </r>
       <r>   18.7205    0.0000 </r>
       <r>   18.7205    0.0000 </r>
      </set>
      <set comment="kpoint 5">
       <r>   -2.7272    1.0000 </r>
       <r>    2.3594    1.0000 </r>
       <r>    2.8742    1.0000 </r>
       <r>    3.5155    1.0000 </r>
       <r>    3.6316    1.0000 </r>
       <r>    3.6316    1.0000 </r>
       <r>    3.6669    1.0000 </r>
       <r>    5.4072    1.0000 </r>
       <r>    5.4072    1.0000 </r>
       <r>    5.5623    1.0000 </r>
       <r>    6.1779    1.0000 </r>
       <r>    6.4372    1.0000 </r>
       <r>    6.4372    1.0000 </r>
       <r>    6.6643    1.0000 </r>
       <r>    6.7134    1.0002 </r>
       <r>    6.8074    1.0018 </r>
       <r>    7.2627    0.6024 </r>
       <r>    9.8220   -0.0000 </r>
       <r>    9.8220   -0.0000 </r>
       <r>   14.3198    0.0000 </r>
       <r>   15.2526    0.0000 </r>
       <r>   17.7470    0.0000 </r>
       <r>   17.7470    0.0000 </r>
       <r>   17.7791    0.0000 </r>
      </set>
      <set comment="kpoint 6">
       <r>   -2.3750    1.0000 </r>
       <r>    2.0416    1.0000 </r>
       <r>    2.9441    1.0000 </r>
       <r>    3.6891    1.0000 </r>
       <r>    3.6891    1.0000 </r>
       <r>    3.7152    1.0000 </r>
       <r>    3.7395    1.0000 </r>
       <r>    5.2707    1.0000 </r>
       <r>    5.2707    1.0000 </r>
       <r>    5.4826    1.0000 </r>
       <r>    5.8684    1.0000 </r>
       <r>    6.2609    1.0000 </r>
       <r>    6.2609    1.0000 </r>
       <r>    6.4610    1.0000 </r>
       <r>    6.5852    1.0000 </r>
       <r>    6.7541    1.0005 </r>
       <r>    7.2629    0.6014 </r>
       <r>   10.4272   -0.0000 </r>
       <r>   10.4272   -0.0000 </r>
       <r>   14.2595    0.0000 </r>
       <r>   15.3947    0.0000 </r>
       <r>   16.7862    0.0000 </r>
       <r>   16.7862    0.0000 </r>
       <r>   18.0043    0.0000 </r>
      </set>
      <set comment="kpoint 7">
       <r>   -1.9554    1.0000 </r>
       <r>    1.5663    1.0000 </r>
       <r>    3.0635    1.0000 </r>
       <r>    3.7497    1.0000 </r>
       <r>    3.7497    1.0000 </r>
       <r>    3.8144    1.0000 </r>
       <r>    3.9283    1.0000 </r>
       <r>    5.1415    1.0000 </r>
       <r>    5.1415    1.0000 </r>
       <r>    5.4011    1.0000 </r>
       <r>    5.6203    1.0000 </r>
       <r>    6.1204    1.0000 </r>
       <r>    6.1204    1.0000 </r>
       <r>    6.2737    1.0000 </r>
       <r>    6.4455    1.0000 </r>
       <r>    6.7442    1.0004 </r>
       <r>    7.2631    0.6005 </r>
       <r>   11.0783   -0.0000 </r>
       <r>   11.0783   -0.0000 </r>
       <r>   14.1972    0.0000 </r>
       <r>   15.5545    0.0000 </r>
       <r>   15.8554    0.0000 </r>
       <r>   15.8554    0.0000 </r>
       <r>   17.6551    0.0000 </r>
      </set>
      <set comment="kpoint 8">
       <r>   -1.4793    1.0000 </r>
       <r>    1.0062    1.0000 </r>
       <r>    3.1810    1.0000 </r>
       <r>    3.8057    1.0000 </r>
       <r>    3.8057    1.0000 </r>
       <r>    3.8818    1.0000 </r>
       <r>    4.1292    1.0000 </r>
       <r>    5.0341    1.0000 </r>
       <r>    5.0341    1.0000 </r>
       <r>    5.3283    1.0000 </r>
       <r>    5.4666    1.0000 </r>
       <r>    6.0171    1.0000 </r>
       <r>    6.0171    1.0000 </r>
       <r>    6.1222    1.0000 </r>
       <r>    6.2959    1.0000 </r>
       <r>    6.7447    1.0004 </r>
       <r>    7.2633    0.5998 </r>
       <r>   11.7725   -0.0000 </r>
       <r>   11.7725   -0.0000 </r>
       <r>   14.1421    0.0000 </r>
       <r>   14.9608    0.0000 </r>
       <r>   14.9608    0.0000 </r>
       <r>   15.7386    0.0000 </r>
       <r>   17.2436    0.0000 </r>
      </set>
      <set comment="kpoint 9">
       <r>   -0.9766    1.0000 </r>
       <r>    0.4352    1.0000 </r>
       <r>    3.2662    1.0000 </r>
       <r>    3.8465    1.0000 </r>
       <r>    3.8465    1.0000 </r>
       <r>    3.9297    1.0000 </r>
       <r>    4.2805    1.0000 </r>
       <r>    4.9619    1.0000 </r>
       <r>    4.9619    1.0000 </r>
       <r>    5.2769    1.0000 </r>
       <r>    5.3903    1.0000 </r>
       <r>    5.9534    1.0000 </r>
       <r>    5.9534    1.0000 </r>
       <r>    6.0169    1.0000 </r>
       <r>    6.1766    1.0000 </r>
       <r>    6.7466    1.0004 </r>
       <r>    7.2634    0.5993 </r>
       <r>   12.5079   -0.0000 </r>
       <r>   12.5079   -0.0000 </r>
       <r>   14.1039    0.0000 </r>
       <r>   14.1051    0.0000 </r>
       <r>   14.1051    0.0000 </r>
       <r>   15.9314    0.0000 </r>
       <r>   16.8958    0.0000 </r>
      </set>
      <set comment="kpoint 10">
       <r>   -0.6462    1.0000 </r>
       <r>    0.0789    1.0000 </r>
       <r>    3.2973    1.0000 </r>
       <r>    3.8617    1.0000 </r>
       <r>    3.8617    1.0000 </r>
       <r>    3.9472    1.0000 </r>
       <r>    4.3384    1.0000 </r>
       <r>    4.9363    1.0000 </r>
       <r>    4.9363    1.0000 </r>
       <r>    5.2581    1.0000 </r>
       <r>    5.3683    1.0000 </r>
       <r>    5.9318    1.0000 </r>
       <r>    5.9318    1.0000 </r>
       <r>    5.9784    1.0000 </r>
       <r>    6.1297    1.0000 </r>
       <r>    6.7474    1.0005 </r>
       <r>    7.2635    0.5990 </r>
       <r>   13.2358    0.0000 </r>
       <r>   13.2358    0.0000 </r>
       <r>   13.3371    0.0000 </r>
       <r>   13.3371    0.0000 </r>
       <r>   14.0902    0.0000 </r>
       <r>   16.0392    0.0000 </r>
       <r>   16.7341    0.0000 </r>
      </set>
      <set comment="kpoint 11">
       <r>   -3.2885    1.0000 </r>
       <r>    2.3976    1.0000 </r>
       <r>    3.0931    1.0000 </r>
       <r>    3.1411    1.0000 </r>
       <r>    3.5189    1.0000 </r>
       <r>    3.5301    1.0000 </r>
       <r>    3.5474    1.0000 </r>
       <r>    5.6493    1.0000 </r>
       <r>    5.6848    1.0000 </r>
       <r>    5.7437    1.0000 </r>
       <r>    6.6425    1.0000 </r>
       <r>    6.6690    1.0001 </r>
       <r>    6.9844    1.0270 </r>
       <r>    7.0236    1.0343 </r>
       <r>    7.0526    1.0350 </r>
       <r>    7.2429    0.6821 </r>
       <r>    8.1162   -0.0000 </r>
       <r>    8.3008   -0.0000 </r>
       <r>    8.5299   -0.0000 </r>
       <r>   14.5047    0.0000 </r>
       <r>   14.6967    0.0000 </r>
       <r>   15.7962    0.0000 </r>
       <r>   19.8272    0.0000 </r>
       <r>   20.2199    0.0000 </r>
      </set>
      <set comment="kpoint 12">
       <r>   -3.1670    1.0000 </r>
       <r>    2.4385    1.0000 </r>
       <r>    3.0369    1.0000 </r>
       <r>    3.2106    1.0000 </r>
       <r>    3.5316    1.0000 </r>
       <r>    3.5519    1.0000 </r>
       <r>    3.5882    1.0000 </r>
       <r>    5.5553    1.0000 </r>
       <r>    5.6199    1.0000 </r>
       <r>    5.7406    1.0000 </r>
       <r>    6.5608    1.0000 </r>
       <r>    6.6643    1.0000 </r>
       <r>    6.7527    1.0005 </r>
       <r>    6.8501    1.0042 </r>
       <r>    6.9632    1.0222 </r>
       <r>    7.2324    0.7222 </r>
       <r>    7.7615   -0.0020 </r>
       <r>    8.6249   -0.0000 </r>
       <r>    8.8905   -0.0000 </r>
       <r>   14.5103    0.0000 </r>
       <r>   15.0118    0.0000 </r>
       <r>   16.1758    0.0000 </r>
       <r>   19.0380    0.0000 </r>
       <r>   19.6766    0.0000 </r>
      </set>
      <set comment="kpoint 13">
       <r>   -2.9659    1.0000 </r>
       <r>    2.4726    1.0000 </r>
       <r>    2.9373    1.0000 </r>
       <r>    3.3362    1.0000 </r>
       <r>    3.5607    1.0000 </r>
       <r>    3.5874    1.0000 </r>
       <r>    3.6449    1.0000 </r>
       <r>    5.4375    1.0000 </r>
       <r>    5.5206    1.0000 </r>
       <r>    5.7069    1.0000 </r>
       <r>    6.3619    1.0000 </r>
       <r>    6.5432    1.0000 </r>
       <r>    6.6254    1.0000 </r>
       <r>    6.6679    1.0001 </r>
       <r>    6.8864    1.0079 </r>
       <r>    7.2298    0.7318 </r>
       <r>    7.2830    0.5171 </r>
       <r>    9.0942   -0.0000 </r>
       <r>    9.3608   -0.0000 </r>
       <r>   14.4791    0.0000 </r>
       <r>   15.2510    0.0000 </r>
       <r>   16.9347    0.0000 </r>
       <r>   18.1445    0.0000 </r>
       <r>   18.7635    0.0000 </r>
      </set>
      <set comment="kpoint 14">
       <r>   -2.6878    1.0000 </r>
       <r>    2.3830    1.0000 </r>
       <r>    2.8852    1.0000 </r>
       <r>    3.5014    1.0000 </r>
       <r>    3.6044    1.0000 </r>
       <r>    3.6367    1.0000 </r>
       <r>    3.7137    1.0000 </r>
       <r>    5.3078    1.0000 </r>
       <r>    5.3983    1.0000 </r>
       <r>    5.6459    1.0000 </r>
       <r>    6.0726    1.0000 </r>
       <r>    6.3787    1.0000 </r>
       <r>    6.4204    1.0000 </r>
       <r>    6.6520    1.0000 </r>
       <r>    6.7888    1.0012 </r>
       <r>    6.8851    1.0077 </r>
       <r>    7.2292    0.7338 </r>
       <r>    9.6226   -0.0000 </r>
       <r>    9.9012   -0.0000 </r>
       <r>   14.4280    0.0000 </r>
       <r>   15.4147    0.0000 </r>
       <r>   17.1975    0.0000 </r>
       <r>   17.7892    0.0000 </r>
       <r>   17.8854    0.0000 </r>
      </set>
      <set comment="kpoint 15">
       <r>   -2.3364    1.0000 </r>
       <r>    2.0677    1.0000 </r>
       <r>    2.9556    1.0000 </r>
       <r>    3.6591    1.0000 </r>
       <r>    3.6595    1.0000 </r>
       <r>    3.7318    1.0000 </r>
       <r>    3.7886    1.0000 </r>
       <r>    5.1802    1.0000 </r>
       <r>    5.2645    1.0000 </r>
       <r>    5.5616    1.0000 </r>
       <r>    5.7903    1.0000 </r>
       <r>    6.2120    1.0000 </r>
       <r>    6.2485    1.0000 </r>
       <r>    6.5503    1.0000 </r>
       <r>    6.6166    1.0000 </r>
       <r>    6.7425    1.0004 </r>
       <r>    7.2293    0.7335 </r>
       <r>   10.1953   -0.0000 </r>
       <r>   10.4968   -0.0000 </r>
       <r>   14.3537    0.0000 </r>
       <r>   15.5698    0.0000 </r>
       <r>   16.3414    0.0000 </r>
       <r>   16.8281    0.0000 </r>
       <r>   18.2409    0.0000 </r>
      </set>
      <set comment="kpoint 16">
       <r>   -1.9178    1.0000 </r>
       <r>    1.5946    1.0000 </r>
       <r>    3.0764    1.0000 </r>
       <r>    3.7219    1.0000 </r>
       <r>    3.7291    1.0000 </r>
       <r>    3.8602    1.0000 </r>
       <r>    3.9306    1.0000 </r>
       <r>    5.0699    1.0000 </r>
       <r>    5.1293    1.0000 </r>
       <r>    5.4617    1.0000 </r>
       <r>    5.5837    1.0000 </r>
       <r>    6.0580    1.0000 </r>
       <r>    6.1147    1.0000 </r>
       <r>    6.3660    1.0000 </r>
       <r>    6.4615    1.0000 </r>
       <r>    6.7302    1.0003 </r>
       <r>    7.2296    0.7325 </r>
       <r>   10.8054   -0.0000 </r>
       <r>   11.1408   -0.0000 </r>
       <r>   14.2347    0.0000 </r>
       <r>   15.5497    0.0000 </r>
       <r>   15.7441    0.0000 </r>
       <r>   15.8979    0.0000 </r>
       <r>   17.9230    0.0000 </r>
      </set>
      <set comment="kpoint 17">
       <r>   -1.4431    1.0000 </r>
       <r>    1.0370    1.0000 </r>
       <r>    3.1961    1.0000 </r>
       <r>    3.7795    1.0000 </r>
       <r>    3.7848    1.0000 </r>
       <r>    3.9165    1.0000 </r>
       <r>    4.1326    1.0000 </r>
       <r>    4.9906    1.0000 </r>
       <r>    5.0090    1.0000 </r>
       <r>    5.3599    1.0000 </r>
       <r>    5.4674    1.0000 </r>
       <r>    5.9319    1.0000 </r>
       <r>    6.0202    1.0000 </r>
       <r>    6.2194    1.0000 </r>
       <r>    6.3104    1.0000 </r>
       <r>    6.7309    1.0003 </r>
       <r>    7.2299    0.7314 </r>
       <r>   11.4477   -0.0000 </r>
       <r>   11.8297   -0.0000 </r>
       <r>   13.9830    0.0000 </r>
       <r>   14.9374    0.0000 </r>
       <r>   15.0047    0.0000 </r>
       <r>   15.9440    0.0000 </r>
       <r>   17.5028    0.0000 </r>
      </set>
      <set comment="kpoint 18">
       <r>   -0.9424    1.0000 </r>
       <r>    0.4687    1.0000 </r>
       <r>    3.2837    1.0000 </r>
       <r>    3.8134    1.0000 </r>
       <r>    3.8368    1.0000 </r>
       <r>    3.9470    1.0000 </r>
       <r>    4.2894    1.0000 </r>
       <r>    4.9235    1.0000 </r>
       <r>    4.9489    1.0000 </r>
       <r>    5.2783    1.0000 </r>
       <r>    5.4163    1.0000 </r>
       <r>    5.8461    1.0000 </r>
       <r>    5.9642    1.0000 </r>
       <r>    6.1295    1.0000 </r>
       <r>    6.1866    1.0000 </r>
       <r>    6.7331    1.0003 </r>
       <r>    7.2301    0.7307 </r>
       <r>   12.1145   -0.0000 </r>
       <r>   12.5611   -0.0000 </r>
       <r>   13.4724    0.0000 </r>
       <r>   14.1507    0.0000 </r>
       <r>   14.6447    0.0000 </r>
       <r>   16.1554    0.0000 </r>
       <r>   17.1382    0.0000 </r>
      </set>
      <set comment="kpoint 19">
       <r>   -0.6143    1.0000 </r>
       <r>    0.1152    1.0000 </r>
       <r>    3.3161    1.0000 </r>
       <r>    3.8254    1.0000 </r>
       <r>    3.8590    1.0000 </r>
       <r>    3.9544    1.0000 </r>
       <r>    4.3514    1.0000 </r>
       <r>    4.8912    1.0000 </r>
       <r>    4.9380    1.0000 </r>
       <r>    5.2457    1.0000 </r>
       <r>    5.4031    1.0000 </r>
       <r>    5.8149    1.0000 </r>
       <r>    5.9456    1.0000 </r>
       <r>    6.1051    1.0000 </r>
       <r>    6.1316    1.0000 </r>
       <r>    6.7340    1.0003 </r>
       <r>    7.2301    0.7305 </r>
       <r>   12.7134   -0.0000 </r>
       <r>   12.8967    0.0000 </r>
       <r>   13.2988    0.0000 </r>
       <r>   13.3722    0.0000 </r>
       <r>   14.5755    0.0000 </r>
       <r>   16.2761    0.0000 </r>
       <r>   16.9639    0.0000 </r>
      </set>
      <set comment="kpoint 20">
       <r>   -3.0462    1.0000 </r>
       <r>    2.4830    1.0000 </r>
       <r>    3.0353    1.0000 </r>
       <r>    3.2235    1.0000 </r>
       <r>    3.5316    1.0000 </r>
       <r>    3.5705    1.0000 </r>
       <r>    3.6427    1.0000 </r>
       <r>    5.4293    1.0000 </r>
       <r>    5.5639    1.0000 </r>
       <r>    5.7816    1.0000 </r>
       <r>    6.4011    1.0000 </r>
       <r>    6.5981    1.0000 </r>
       <r>    6.6364    1.0000 </r>
       <r>    6.7273    1.0003 </r>
       <r>    6.9194    1.0130 </r>
       <r>    7.1855    0.8743 </r>
       <r>    7.9120   -0.0000 </r>
       <r>    8.4176   -0.0000 </r>
       <r>    9.1935   -0.0000 </r>
       <r>   14.5943    0.0000 </r>
       <r>   15.4079    0.0000 </r>
       <r>   16.4182    0.0000 </r>
       <r>   18.1390    0.0000 </r>
       <r>   19.6521    0.0000 </r>
      </set>
      <set comment="kpoint 21">
       <r>   -2.8464    1.0000 </r>
       <r>    2.5266    1.0000 </r>
       <r>    2.9588    1.0000 </r>
       <r>    3.3172    1.0000 </r>
       <r>    3.5493    1.0000 </r>
       <r>    3.6023    1.0000 </r>
       <r>    3.7124    1.0000 </r>
       <r>    5.2894    1.0000 </r>
       <r>    5.4803    1.0000 </r>
       <r>    5.7889    1.0000 </r>
       <r>    6.1145    1.0000 </r>
       <r>    6.4920    1.0000 </r>
       <r>    6.5510    1.0000 </r>
       <r>    6.6265    1.0000 </r>
       <r>    6.8448    1.0038 </r>
       <r>    7.1582    0.9390 </r>
       <r>    7.5655   -0.0321 </r>
       <r>    8.7039   -0.0000 </r>
       <r>    9.6182   -0.0000 </r>
       <r>   14.5862    0.0000 </r>
       <r>   15.7725    0.0000 </r>
       <r>   17.0330    0.0000 </r>
       <r>   17.2457    0.0000 </r>
       <r>   18.8898    0.0000 </r>
      </set>
      <set comment="kpoint 22">
       <r>   -2.5701    1.0000 </r>
       <r>    2.4520    1.0000 </r>
       <r>    2.9066    1.0000 </r>
       <r>    3.4630    1.0000 </r>
       <r>    3.5833    1.0000 </r>
       <r>    3.6524    1.0000 </r>
       <r>    3.7925    1.0000 </r>
       <r>    5.1492    1.0000 </r>
       <r>    5.3763    1.0000 </r>
       <r>    5.7585    1.0000 </r>
       <r>    5.8312    1.0000 </r>
       <r>    6.3517    1.0000 </r>
       <r>    6.3669    1.0000 </r>
       <r>    6.6142    1.0000 </r>
       <r>    6.7490    1.0005 </r>
       <r>    7.1456    0.9625 </r>
       <r>    7.1529    0.9493 </r>
       <r>    9.1575   -0.0000 </r>
       <r>   10.1255   -0.0000 </r>
       <r>   14.5093    0.0000 </r>
       <r>   15.9812    0.0000 </r>
       <r>   16.3825    0.0000 </r>
       <r>   17.9132    0.0000 </r>
       <r>   17.9590    0.0000 </r>
      </set>
      <set comment="kpoint 23">
       <r>   -2.2211    1.0000 </r>
       <r>    2.1442    1.0000 </r>
       <r>    2.9811    1.0000 </r>
       <r>    3.5991    1.0000 </r>
       <r>    3.6316    1.0000 </r>
       <r>    3.7536    1.0000 </r>
       <r>    3.8747    1.0000 </r>
       <r>    5.0244    1.0000 </r>
       <r>    5.2459    1.0000 </r>
       <r>    5.6112    1.0000 </r>
       <r>    5.6839    1.0000 </r>
       <r>    6.1847    1.0000 </r>
       <r>    6.2095    1.0000 </r>
       <r>    6.5371    1.0000 </r>
       <r>    6.6854    1.0001 </r>
       <r>    6.8391    1.0034 </r>
       <r>    7.1398    0.9719 </r>
       <r>    9.6601   -0.0000 </r>
       <r>   10.6966   -0.0000 </r>
       <r>   14.3073    0.0000 </r>
       <r>   15.6853    0.0000 </r>
       <r>   16.1807    0.0000 </r>
       <r>   16.9512    0.0000 </r>
       <r>   18.4988    0.0000 </r>
      </set>
      <set comment="kpoint 24">
       <r>   -1.8056    1.0000 </r>
       <r>    1.6779    1.0000 </r>
       <r>    3.1079    1.0000 </r>
       <r>    3.6698    1.0000 </r>
       <r>    3.6911    1.0000 </r>
       <r>    3.9368    1.0000 </r>
       <r>    3.9447    1.0000 </r>
       <r>    4.9338    1.0000 </r>
       <r>    5.0877    1.0000 </r>
       <r>    5.4973    1.0000 </r>
       <r>    5.5643    1.0000 </r>
       <r>    6.0118    1.0000 </r>
       <r>    6.0978    1.0000 </r>
       <r>    6.3924    1.0000 </r>
       <r>    6.5968    1.0000 </r>
       <r>    6.6931    1.0001 </r>
       <r>    7.1373    0.9759 </r>
       <r>   10.1954   -0.0000 </r>
       <r>   11.3219   -0.0000 </r>
       <r>   13.8825    0.0000 </r>
       <r>   15.2837    0.0000 </r>
       <r>   16.0232    0.0000 </r>
       <r>   16.3723    0.0000 </r>
       <r>   18.2976    0.0000 </r>
      </set>
      <set comment="kpoint 25">
       <r>   -1.3350    1.0000 </r>
       <r>    1.1280    1.0000 </r>
       <r>    3.2355    1.0000 </r>
       <r>    3.7058    1.0000 </r>
       <r>    3.7571    1.0000 </r>
       <r>    3.9846    1.0000 </r>
       <r>    4.1396    1.0000 </r>
       <r>    4.8965    1.0000 </r>
       <r>    4.9409    1.0000 </r>
       <r>    5.4183    1.0000 </r>
       <r>    5.4634    1.0000 </r>
       <r>    5.8568    1.0000 </r>
       <r>    6.0297    1.0000 </r>
       <r>    6.2555    1.0000 </r>
       <r>    6.4281    1.0000 </r>
       <r>    6.6904    1.0001 </r>
       <r>    7.1362    0.9775 </r>
       <r>   10.7579   -0.0000 </r>
       <r>   11.9961   -0.0000 </r>
       <r>   13.2835    0.0000 </r>
       <r>   15.1108    0.0000 </r>
       <r>   15.1343    0.0000 </r>
       <r>   16.5936    0.0000 </r>
       <r>   17.9242    0.0000 </r>
      </set>
      <set comment="kpoint 26">
       <r>   -0.8402    1.0000 </r>
       <r>    0.5681    1.0000 </r>
       <r>    3.3331    1.0000 </r>
       <r>    3.7203    1.0000 </r>
       <r>    3.8196    1.0000 </r>
       <r>    3.9865    1.0000 </r>
       <r>    4.3093    1.0000 </r>
       <r>    4.8331    1.0000 </r>
       <r>    4.9155    1.0000 </r>
       <r>    5.2806    1.0000 </r>
       <r>    5.4680    1.0000 </r>
       <r>    5.7423    1.0000 </r>
       <r>    5.9935    1.0000 </r>
       <r>    6.1649    1.0000 </r>
       <r>    6.3026    1.0000 </r>
       <r>    6.6930    1.0001 </r>
       <r>    7.1357    0.9782 </r>
       <r>   11.3419   -0.0000 </r>
       <r>   12.6412   -0.0000 </r>
       <r>   12.7160   -0.0000 </r>
       <r>   14.2861    0.0000 </r>
       <r>   15.0436    0.0000 </r>
       <r>   16.8367    0.0000 </r>
       <r>   17.5722    0.0000 </r>
      </set>
      <set comment="kpoint 27">
       <r>   -0.5194    1.0000 </r>
       <r>    0.2227    1.0000 </r>
       <r>    3.3709    1.0000 </r>
       <r>    3.7223    1.0000 </r>
       <r>    3.8512    1.0000 </r>
       <r>    3.9755    1.0000 </r>
       <r>    4.3830    1.0000 </r>
       <r>    4.7874    1.0000 </r>
       <r>    4.9430    1.0000 </r>
       <r>    5.2132    1.0000 </r>
       <r>    5.4766    1.0000 </r>
       <r>    5.6972    1.0000 </r>
       <r>    5.9821    1.0000 </r>
       <r>    6.1352    1.0000 </r>
       <r>    6.2529    1.0000 </r>
       <r>    6.6942    1.0001 </r>
       <r>    7.1356    0.9783 </r>
       <r>   11.8282   -0.0000 </r>
       <r>   12.1313   -0.0000 </r>
       <r>   13.4773    0.0000 </r>
       <r>   13.4822    0.0000 </r>
       <r>   15.0255    0.0000 </r>
       <r>   17.0064    0.0000 </r>
       <r>   17.3651    0.0000 </r>
      </set>
      <set comment="kpoint 28">
       <r>   -2.6487    1.0000 </r>
       <r>    2.5947    1.0000 </r>
       <r>    2.9316    1.0000 </r>
       <r>    3.3362    1.0000 </r>
       <r>    3.5561    1.0000 </r>
       <r>    3.6306    1.0000 </r>
       <r>    3.7958    1.0000 </r>
       <r>    5.1333    1.0000 </r>
       <r>    5.4249    1.0000 </r>
       <r>    5.8245    1.0000 </r>
       <r>    5.8410    1.0000 </r>
       <r>    6.4251    1.0000 </r>
       <r>    6.4409    1.0000 </r>
       <r>    6.5838    1.0000 </r>
       <r>    6.7736    1.0009 </r>
       <r>    7.0915    1.0227 </r>
       <r>    7.6704   -0.0104 </r>
       <r>    8.4562   -0.0000 </r>
       <r>    9.9978   -0.0000 </r>
       <r>   14.5499    0.0000 </r>
       <r>   16.3605    0.0000 </r>
       <r>   16.4626    0.0000 </r>
       <r>   17.3617    0.0000 </r>
       <r>   19.0586    0.0000 </r>
      </set>
      <set comment="kpoint 29">
       <r>   -2.3754    1.0000 </r>
       <r>    2.5599    1.0000 </r>
       <r>    2.8908    1.0000 </r>
       <r>    3.4251    1.0000 </r>
       <r>    3.5803    1.0000 </r>
       <r>    3.6816    1.0000 </r>
       <r>    3.8892    1.0000 </r>
       <r>    4.9839    1.0000 </r>
       <r>    5.3538    1.0000 </r>
       <r>    5.5621    1.0000 </r>
       <r>    5.8523    1.0000 </r>
       <r>    6.2706    1.0000 </r>
       <r>    6.3321    1.0000 </r>
       <r>    6.5606    1.0000 </r>
       <r>    6.6792    1.0001 </r>
       <r>    7.0472    1.0354 </r>
       <r>    7.3888    0.1251 </r>
       <r>    8.6712   -0.0000 </r>
       <r>   10.4672   -0.0000 </r>
       <r>   14.3094    0.0000 </r>
       <r>   15.7089    0.0000 </r>
       <r>   16.8758    0.0000 </r>
       <r>   18.0731    0.0000 </r>
       <r>   18.1090    0.0000 </r>
      </set>
      <set comment="kpoint 30">
       <r>   -2.0305    1.0000 </r>
       <r>    2.2655    1.0000 </r>
       <r>    2.9829    1.0000 </r>
       <r>    3.5286    1.0000 </r>
       <r>    3.6206    1.0000 </r>
       <r>    3.7813    1.0000 </r>
       <r>    3.9812    1.0000 </r>
       <r>    4.8590    1.0000 </r>
       <r>    5.1993    1.0000 </r>
       <r>    5.4341    1.0000 </r>
       <r>    5.7961    1.0000 </r>
       <r>    6.1389    1.0000 </r>
       <r>    6.1787    1.0000 </r>
       <r>    6.4940    1.0000 </r>
       <r>    6.6156    1.0000 </r>
       <r>    7.0215    1.0340 </r>
       <r>    7.0555    1.0347 </r>
       <r>    9.0669   -0.0000 </r>
       <r>   11.0072   -0.0000 </r>
       <r>   13.7787    0.0000 </r>
       <r>   15.3981    0.0000 </r>
       <r>   17.1042    0.0000 </r>
       <r>   17.1464    0.0000 </r>
       <r>   18.6794    0.0000 </r>
      </set>
      <set comment="kpoint 31">
       <r>   -1.6205    1.0000 </r>
       <r>    1.8112    1.0000 </r>
       <r>    3.1239    1.0000 </r>
       <r>    3.5906    1.0000 </r>
       <r>    3.6748    1.0000 </r>
       <r>    3.9472    1.0000 </r>
       <r>    4.0494    1.0000 </r>
       <r>    4.7852    1.0000 </r>
       <r>    5.0040    1.0000 </r>
       <r>    5.4239    1.0000 </r>
       <r>    5.6529    1.0000 </r>
       <r>    6.0042    1.0000 </r>
       <r>    6.0719    1.0000 </r>
       <r>    6.3619    1.0000 </r>
       <r>    6.6089    1.0000 </r>
       <r>    6.7932    1.0013 </r>
       <r>    7.0071    1.0318 </r>
       <r>    9.5189   -0.0000 </r>
       <r>   11.6068   -0.0000 </r>
       <r>   13.0942    0.0000 </r>
       <r>   15.3062    0.0000 </r>
       <r>   16.2239    0.0000 </r>
       <r>   17.2990    0.0000 </r>
       <r>   18.6208    0.0000 </r>
      </set>
      <set comment="kpoint 32">
       <r>   -1.1570    1.0000 </r>
       <r>    1.2750    1.0000 </r>
       <r>    3.2671    1.0000 </r>
       <r>    3.6092    1.0000 </r>
       <r>    3.7390    1.0000 </r>
       <r>    4.0667    1.0000 </r>
       <r>    4.1443    1.0000 </r>
       <r>    4.7914    1.0000 </r>
       <r>    4.8457    1.0000 </r>
       <r>    5.4547    1.0000 </r>
       <r>    5.4655    1.0000 </r>
       <r>    5.8335    1.0000 </r>
       <r>    6.0455    1.0000 </r>
       <r>    6.2375    1.0000 </r>
       <r>    6.5737    1.0000 </r>
       <r>    6.6344    1.0000 </r>
       <r>    6.9993    1.0303 </r>
       <r>   10.0073   -0.0000 </r>
       <r>   12.2594   -0.0000 </r>
       <r>   12.3981   -0.0000 </r>
       <r>   15.2921    0.0000 </r>
       <r>   15.3436    0.0000 </r>
       <r>   17.4786    0.0000 </r>
       <r>   18.3579    0.0000 </r>
      </set>
      <set comment="kpoint 33">
       <r>   -0.6724    1.0000 </r>
       <r>    0.7299    1.0000 </r>
       <r>    3.3910    1.0000 </r>
       <r>    3.5907    1.0000 </r>
       <r>    3.8040    1.0000 </r>
       <r>    4.0362    1.0000 </r>
       <r>    4.3262    1.0000 </r>
       <r>    4.7267    1.0000 </r>
       <r>    4.8742    1.0000 </r>
       <r>    5.2800    1.0000 </r>
       <r>    5.5046    1.0000 </r>
       <r>    5.6909    1.0000 </r>
       <r>    6.0341    1.0000 </r>
       <r>    6.1583    1.0000 </r>
       <r>    6.4459    1.0000 </r>
       <r>    6.6281    1.0000 </r>
       <r>    6.9954    1.0295 </r>
       <r>   10.5278   -0.0000 </r>
       <r>   11.7427   -0.0000 </r>
       <r>   12.9603    0.0000 </r>
       <r>   14.5072    0.0000 </r>
       <r>   15.2992    0.0000 </r>
       <r>   17.6221    0.0000 </r>
       <r>   18.1488    0.0000 </r>
      </set>
      <set comment="kpoint 34">
       <r>   -0.3635    1.0000 </r>
       <r>    0.3981    1.0000 </r>
       <r>    3.4568    1.0000 </r>
       <r>    3.5614    1.0000 </r>
       <r>    3.8388    1.0000 </r>
       <r>    4.0093    1.0000 </r>
       <r>    4.4192    1.0000 </r>
       <r>    4.6639    1.0000 </r>
       <r>    4.9513    1.0000 </r>
       <r>    5.1712    1.0000 </r>
       <r>    5.5520    1.0000 </r>
       <r>    5.6098    1.0000 </r>
       <r>    6.0307    1.0000 </r>
       <r>    6.1343    1.0000 </r>
       <r>    6.3928    1.0000 </r>
       <r>    6.6292    1.0000 </r>
       <r>    6.9942    1.0292 </r>
       <r>   10.9780   -0.0000 </r>
       <r>   11.2463   -0.0000 </r>
       <r>   13.6519    0.0000 </r>
       <r>   13.7706    0.0000 </r>
       <r>   15.3040    0.0000 </r>
       <r>   17.6834    0.0000 </r>
       <r>   18.0669    0.0000 </r>
      </set>
      <set comment="kpoint 35">
       <r>   -2.1066    1.0000 </r>
       <r>    2.6724    1.0000 </r>
       <r>    2.7733    1.0000 </r>
       <r>    3.4399    1.0000 </r>
       <r>    3.5952    1.0000 </r>
       <r>    3.7332    1.0000 </r>
       <r>    3.9980    1.0000 </r>
       <r>    4.8269    1.0000 </r>
       <r>    5.2977    1.0000 </r>
       <r>    5.3499    1.0000 </r>
       <r>    5.9165    1.0000 </r>
       <r>    6.1349    1.0000 </r>
       <r>    6.2771    1.0000 </r>
       <r>    6.5134    1.0000 </r>
       <r>    6.5829    1.0000 </r>
       <r>    6.9632    1.0222 </r>
       <r>    7.4318    0.0322 </r>
       <r>    8.4406   -0.0000 </r>
       <r>   10.9006   -0.0000 </r>
       <r>   13.7367    0.0000 </r>
       <r>   15.4268    0.0000 </r>
       <r>   17.7530    0.0000 </r>
       <r>   18.2315    0.0000 </r>
       <r>   18.3007    0.0000 </r>
      </set>
      <set comment="kpoint 36">
       <r>   -1.7677    1.0000 </r>
       <r>    2.4214    1.0000 </r>
       <r>    2.8739    1.0000 </r>
       <r>    3.5026    1.0000 </r>
       <r>    3.6269    1.0000 </r>
       <r>    3.8239    1.0000 </r>
       <r>    4.1049    1.0000 </r>
       <r>    4.6978    1.0000 </r>
       <r>    5.0691    1.0000 </r>
       <r>    5.3642    1.0000 </r>
       <r>    5.8834    1.0000 </r>
       <r>    6.0368    1.0000 </r>
       <r>    6.1639    1.0000 </r>
       <r>    6.4400    1.0000 </r>
       <r>    6.5166    1.0000 </r>
       <r>    6.9034    1.0103 </r>
       <r>    7.2108    0.7982 </r>
       <r>    8.5942   -0.0000 </r>
       <r>   11.4084   -0.0000 </r>
       <r>   12.9851    0.0000 </r>
       <r>   15.3801    0.0000 </r>
       <r>   17.3877    0.0000 </r>
       <r>   18.1247    0.0000 </r>
       <r>   18.7381    0.0000 </r>
      </set>
      <set comment="kpoint 37">
       <r>   -1.3656    1.0000 </r>
       <r>    1.9851    1.0000 </r>
       <r>    3.0342    1.0000 </r>
       <r>    3.5587    1.0000 </r>
       <r>    3.6735    1.0000 </r>
       <r>    3.9666    1.0000 </r>
       <r>    4.1718    1.0000 </r>
       <r>    4.6386    1.0000 </r>
       <r>    4.8827    1.0000 </r>
       <r>    5.4053    1.0000 </r>
       <r>    5.6990    1.0000 </r>
       <r>    6.0092    1.0000 </r>
       <r>    6.0484    1.0000 </r>
       <r>    6.3103    1.0000 </r>
       <r>    6.5161    1.0000 </r>
       <r>    6.8647    1.0055 </r>
       <r>    6.9462    1.0183 </r>
       <r>    8.9238   -0.0000 </r>
       <r>   11.9791   -0.0000 </r>
       <r>   12.2269   -0.0000 </r>
       <r>   15.4141    0.0000 </r>
       <r>   16.4844    0.0000 </r>
       <r>   18.1940    0.0000 </r>
       <r>   19.0766    0.0000 </r>
      </set>
      <set comment="kpoint 38">
       <r>   -0.9126    1.0000 </r>
       <r>    1.4701    1.0000 </r>
       <r>    3.1826    1.0000 </r>
       <r>    3.5827    1.0000 </r>
       <r>    3.7315    1.0000 </r>
       <r>    4.1457    1.0000 </r>
       <r>    4.1538    1.0000 </r>
       <r>    4.6973    1.0000 </r>
       <r>    4.7417    1.0000 </r>
       <r>    5.4605    1.0000 </r>
       <r>    5.4847    1.0000 </r>
       <r>    5.8431    1.0000 </r>
       <r>    6.0671    1.0000 </r>
       <r>    6.1980    1.0000 </r>
       <r>    6.5241    1.0000 </r>
       <r>    6.7301    1.0003 </r>
       <r>    6.8412    1.0036 </r>
       <r>    9.3253   -0.0000 </r>
       <r>   11.5192   -0.0000 </r>
       <r>   12.6054   -0.0000 </r>
       <r>   15.4715    0.0000 </r>
       <r>   15.6212    0.0000 </r>
       <r>   18.1158    0.0000 </r>
       <r>   19.1469    0.0000 </r>
      </set>
      <set comment="kpoint 39">
       <r>   -0.4428    1.0000 </r>
       <r>    0.9474    1.0000 </r>
       <r>    3.2982    1.0000 </r>
       <r>    3.5760    1.0000 </r>
       <r>    3.7913    1.0000 </r>
       <r>    4.0898    1.0000 </r>
       <r>    4.3269    1.0000 </r>
       <r>    4.6285    1.0000 </r>
       <r>    4.8390    1.0000 </r>
       <r>    5.2730    1.0000 </r>
       <r>    5.5171    1.0000 </r>
       <r>    5.6982    1.0000 </r>
       <r>    6.0782    1.0000 </r>
       <r>    6.1343    1.0000 </r>
       <r>    6.5297    1.0000 </r>
       <r>    6.5808    1.0000 </r>
       <r>    6.8287    1.0028 </r>
       <r>    9.7782   -0.0000 </r>
       <r>   10.8800   -0.0000 </r>
       <r>   13.2802    0.0000 </r>
       <r>   14.8051    0.0000 </r>
       <r>   15.5218    0.0000 </r>
       <r>   17.9943    0.0000 </r>
       <r>   19.2309    0.0000 </r>
      </set>
      <set comment="kpoint 40">
       <r>   -0.1502    1.0000 </r>
       <r>    0.6346    1.0000 </r>
       <r>    3.3473    1.0000 </r>
       <r>    3.5637    1.0000 </r>
       <r>    3.8227    1.0000 </r>
       <r>    4.0532    1.0000 </r>
       <r>    4.4480    1.0000 </r>
       <r>    4.5408    1.0000 </r>
       <r>    4.9629    1.0000 </r>
       <r>    5.1290    1.0000 </r>
       <r>    5.5643    1.0000 </r>
       <r>    5.6151    1.0000 </r>
       <r>    6.0817    1.0000 </r>
       <r>    6.1184    1.0000 </r>
       <r>    6.5151    1.0000 </r>
       <r>    6.5399    1.0000 </r>
       <r>    6.8247    1.0026 </r>
       <r>   10.2089   -0.0000 </r>
       <r>   10.3865   -0.0000 </r>
       <r>   13.8952    0.0000 </r>
       <r>   14.1432    0.0000 </r>
       <r>   15.5419    0.0000 </r>
       <r>   17.9410    0.0000 </r>
       <r>   19.2719    0.0000 </r>
      </set>
      <set comment="kpoint 41">
       <r>   -1.4370    1.0000 </r>
       <r>    2.5609    1.0000 </r>
       <r>    2.6349    1.0000 </r>
       <r>    3.5461    1.0000 </r>
       <r>    3.6494    1.0000 </r>
       <r>    3.8943    1.0000 </r>
       <r>    4.2368    1.0000 </r>
       <r>    4.5551    1.0000 </r>
       <r>    4.9003    1.0000 </r>
       <r>    5.3831    1.0000 </r>
       <r>    5.8459    1.0000 </r>
       <r>    6.0004    1.0000 </r>
       <r>    6.1100    1.0000 </r>
       <r>    6.3663    1.0000 </r>
       <r>    6.4266    1.0000 </r>
       <r>    6.8052    1.0017 </r>
       <r>    7.1996    0.8339 </r>
       <r>    8.4030   -0.0000 </r>
       <r>   11.8846   -0.0000 </r>
       <r>   12.1663   -0.0000 </r>
       <r>   15.4516    0.0000 </r>
       <r>   17.4524    0.0000 </r>
       <r>   18.0645    0.0000 </r>
       <r>   18.7604    0.0000 </r>
      </set>
      <set comment="kpoint 42">
       <r>   -1.0458    1.0000 </r>
       <r>    2.1830    1.0000 </r>
       <r>    2.7832    1.0000 </r>
       <r>    3.6077    1.0000 </r>
       <r>    3.6862    1.0000 </r>
       <r>    4.0047    1.0000 </r>
       <r>    4.3061    1.0000 </r>
       <r>    4.5059    1.0000 </r>
       <r>    4.7551    1.0000 </r>
       <r>    5.4361    1.0000 </r>
       <r>    5.6704    1.0000 </r>
       <r>    6.0019    1.0000 </r>
       <r>    6.0512    1.0000 </r>
       <r>    6.2415    1.0000 </r>
       <r>    6.4076    1.0000 </r>
       <r>    6.7327    1.0003 </r>
       <r>    7.0238    1.0343 </r>
       <r>    8.5132   -0.0000 </r>
       <r>   11.3991   -0.0000 </r>
       <r>   12.4250   -0.0000 </r>
       <r>   15.5555    0.0000 </r>
       <r>   16.7626    0.0000 </r>
       <r>   18.2274    0.0000 </r>
       <r>   18.6802    0.0000 </r>
      </set>
      <set comment="kpoint 43">
       <r>   -0.6073    1.0000 </r>
       <r>    1.7001    1.0000 </r>
       <r>    2.9376    1.0000 </r>
       <r>    3.6504    1.0000 </r>
       <r>    3.7335    1.0000 </r>
       <r>    4.1511    1.0000 </r>
       <r>    4.2273    1.0000 </r>
       <r>    4.6395    1.0000 </r>
       <r>    4.6449    1.0000 </r>
       <r>    5.4666    1.0000 </r>
       <r>    5.4965    1.0000 </r>
       <r>    5.8595    1.0000 </r>
       <r>    6.0934    1.0000 </r>
       <r>    6.1365    1.0000 </r>
       <r>    6.4120    1.0000 </r>
       <r>    6.6840    1.0001 </r>
       <r>    6.8222    1.0024 </r>
       <r>    8.7856   -0.0000 </r>
       <r>   10.7095   -0.0000 </r>
       <r>   13.0216    0.0000 </r>
       <r>   15.6647    0.0000 </r>
       <r>   15.9459    0.0000 </r>
       <r>   18.4621    0.0000 </r>
       <r>   18.5670    0.0000 </r>
      </set>
      <set comment="kpoint 44">
       <r>   -0.1574    1.0000 </r>
       <r>    1.2092    1.0000 </r>
       <r>    3.0449    1.0000 </r>
       <r>    3.6689    1.0000 </r>
       <r>    3.7812    1.0000 </r>
       <r>    4.1407    1.0000 </r>
       <r>    4.3086    1.0000 </r>
       <r>    4.5540    1.0000 </r>
       <r>    4.8228    1.0000 </r>
       <r>    5.2559    1.0000 </r>
       <r>    5.5436    1.0000 </r>
       <r>    5.7268    1.0000 </r>
       <r>    6.0858    1.0000 </r>
       <r>    6.1196    1.0000 </r>
       <r>    6.4206    1.0000 </r>
       <r>    6.6559    1.0000 </r>
       <r>    6.6698    1.0001 </r>
       <r>    9.1470   -0.0000 </r>
       <r>   10.1068   -0.0000 </r>
       <r>   13.6640    0.0000 </r>
       <r>   15.1643    0.0000 </r>
       <r>   15.7513    0.0000 </r>
       <r>   18.2690    0.0000 </r>
       <r>   18.8612    0.0000 </r>
      </set>
      <set comment="kpoint 45">
       <r>    0.1150    1.0000 </r>
       <r>    0.9207    1.0000 </r>
       <r>    3.0837    1.0000 </r>
       <r>    3.6728    1.0000 </r>
       <r>    3.8045    1.0000 </r>
       <r>    4.1034    1.0000 </r>
       <r>    4.4339    1.0000 </r>
       <r>    4.4619    1.0000 </r>
       <r>    4.9774    1.0000 </r>
       <r>    5.0925    1.0000 </r>
       <r>    5.5684    1.0000 </r>
       <r>    5.6625    1.0000 </r>
       <r>    6.0769    1.0000 </r>
       <r>    6.1284    1.0000 </r>
       <r>    6.4253    1.0000 </r>
       <r>    6.6097    1.0000 </r>
       <r>    6.6466    1.0000 </r>
       <r>    9.5457   -0.0000 </r>
       <r>    9.6283   -0.0000 </r>
       <r>   14.2062    0.0000 </r>
       <r>   14.5753    0.0000 </r>
       <r>   15.7851    0.0000 </r>
       <r>   18.1941    0.0000 </r>
       <r>   18.9844    0.0000 </r>
      </set>
      <set comment="kpoint 46">
       <r>   -0.6690    1.0000 </r>
       <r>    2.3205    1.0000 </r>
       <r>    2.4790    1.0000 </r>
       <r>    3.6772    1.0000 </r>
       <r>    3.7107    1.0000 </r>
       <r>    4.0745    1.0000 </r>
       <r>    4.3489    1.0000 </r>
       <r>    4.4947    1.0000 </r>
       <r>    4.6469    1.0000 </r>
       <r>    5.4966    1.0000 </r>
       <r>    5.5637    1.0000 </r>
       <r>    5.9559    1.0000 </r>
       <r>    6.0829    1.0000 </r>
       <r>    6.1512    1.0000 </r>
       <r>    6.3216    1.0000 </r>
       <r>    6.6251    1.0000 </r>
       <r>    6.9770    1.0254 </r>
       <r>    8.3633   -0.0000 </r>
       <r>   10.6507   -0.0000 </r>
       <r>   12.9343    0.0000 </r>
       <r>   15.7134    0.0000 </r>
       <r>   16.8232    0.0000 </r>
       <r>   17.6725    0.0000 </r>
       <r>   18.8288    0.0000 </r>
      </set>
      <set comment="kpoint 47">
       <r>   -0.2497    1.0000 </r>
       <r>    1.9422    1.0000 </r>
       <r>    2.6002    1.0000 </r>
       <r>    3.7241    1.0000 </r>
       <r>    3.7426    1.0000 </r>
       <r>    4.1789    1.0000 </r>
       <r>    4.2554    1.0000 </r>
       <r>    4.5666    1.0000 </r>
       <r>    4.6545    1.0000 </r>
       <r>    5.4066    1.0000 </r>
       <r>    5.5612    1.0000 </r>
       <r>    5.8612    1.0000 </r>
       <r>    6.0561    1.0000 </r>
       <r>    6.1227    1.0000 </r>
       <r>    6.2886    1.0000 </r>
       <r>    6.5462    1.0000 </r>
       <r>    6.8441    1.0038 </r>
       <r>    8.4468   -0.0000 </r>
       <r>   10.0004   -0.0000 </r>
       <r>   13.4982    0.0000 </r>
       <r>   15.8683    0.0000 </r>
       <r>   16.2650    0.0000 </r>
       <r>   17.7922    0.0000 </r>
       <r>   18.7233    0.0000 </r>
      </set>
      <set comment="kpoint 48">
       <r>    0.1748    1.0000 </r>
       <r>    1.4958    1.0000 </r>
       <r>    2.7286    1.0000 </r>
       <r>    3.7439    1.0000 </r>
       <r>    3.7730    1.0000 </r>
       <r>    4.1824    1.0000 </r>
       <r>    4.2952    1.0000 </r>
       <r>    4.5045    1.0000 </r>
       <r>    4.8350    1.0000 </r>
       <r>    5.2249    1.0000 </r>
       <r>    5.6034    1.0000 </r>
       <r>    5.7504    1.0000 </r>
       <r>    6.0113    1.0000 </r>
       <r>    6.1544    1.0000 </r>
       <r>    6.2833    1.0000 </r>
       <r>    6.4963    1.0000 </r>
       <r>    6.7182    1.0002 </r>
       <r>    8.6786   -0.0000 </r>
       <r>    9.4561   -0.0000 </r>
       <r>   14.1032    0.0000 </r>
       <r>   15.5570    0.0000 </r>
       <r>   15.9888    0.0000 </r>
       <r>   18.0590    0.0000 </r>
       <r>   18.5480    0.0000 </r>
      </set>
      <set comment="kpoint 49">
       <r>    0.4240    1.0000 </r>
       <r>    1.2368    1.0000 </r>
       <r>    2.7762    1.0000 </r>
       <r>    3.7482    1.0000 </r>
       <r>    3.7866    1.0000 </r>
       <r>    4.1543    1.0000 </r>
       <r>    4.3673    1.0000 </r>
       <r>    4.4605    1.0000 </r>
       <r>    4.9942    1.0000 </r>
       <r>    5.0643    1.0000 </r>
       <r>    5.6196    1.0000 </r>
       <r>    5.6952    1.0000 </r>
       <r>    6.0066    1.0000 </r>
       <r>    6.1668    1.0000 </r>
       <r>    6.2836    1.0000 </r>
       <r>    6.4788    1.0000 </r>
       <r>    6.6666    1.0001 </r>
       <r>    9.0086   -0.0000 </r>
       <r>    9.0252   -0.0000 </r>
       <r>   14.5832    0.0000 </r>
       <r>   15.0368    0.0000 </r>
       <r>   16.0358    0.0000 </r>
       <r>   18.1805    0.0000 </r>
       <r>   18.4717    0.0000 </r>
      </set>
      <set comment="kpoint 50">
       <r>    0.1450    1.0000 </r>
       <r>    2.1006    1.0000 </r>
       <r>    2.2760    1.0000 </r>
       <r>    3.7553    1.0000 </r>
       <r>    3.7575    1.0000 </r>
       <r>    4.2375    1.0000 </r>
       <r>    4.2429    1.0000 </r>
       <r>    4.5107    1.0000 </r>
       <r>    4.7460    1.0000 </r>
       <r>    5.3067    1.0000 </r>
       <r>    5.6357    1.0000 </r>
       <r>    5.8275    1.0000 </r>
       <r>    5.9703    1.0000 </r>
       <r>    6.1531    1.0000 </r>
       <r>    6.1887    1.0000 </r>
       <r>    6.4390    1.0000 </r>
       <r>    6.7926    1.0013 </r>
       <r>    8.3312   -0.0000 </r>
       <r>    9.4106   -0.0000 </r>
       <r>   14.0264    0.0000 </r>
       <r>   16.0635    0.0000 </r>
       <r>   16.3585    0.0000 </r>
       <r>   17.3030    0.0000 </r>
       <r>   18.8663    0.0000 </r>
      </set>
      <set comment="kpoint 51">
       <r>    0.5386    1.0000 </r>
       <r>    1.7735    1.0000 </r>
       <r>    2.3746    1.0000 </r>
       <r>    3.7548    1.0000 </r>
       <r>    3.7667    1.0000 </r>
       <r>    4.2105    1.0000 </r>
       <r>    4.3230    1.0000 </r>
       <r>    4.4721    1.0000 </r>
       <r>    4.8786    1.0000 </r>
       <r>    5.1763    1.0000 </r>
       <r>    5.6855    1.0000 </r>
       <r>    5.7576    1.0000 </r>
       <r>    5.9222    1.0000 </r>
       <r>    6.1410    1.0000 </r>
       <r>    6.1812    1.0000 </r>
       <r>    6.3671    1.0000 </r>
       <r>    6.7161    1.0002 </r>
       <r>    8.4017   -0.0000 </r>
       <r>    8.9484   -0.0000 </r>
       <r>   14.5907    0.0000 </r>
       <r>   15.9230    0.0000 </r>
       <r>   16.2142    0.0000 </r>
       <r>   17.3440    0.0000 </r>
       <r>   18.8331    0.0000 </r>
      </set>
      <set comment="kpoint 52">
       <r>    0.7635    1.0000 </r>
       <r>    1.5484    1.0000 </r>
       <r>    2.4368    1.0000 </r>
       <r>    3.7481    1.0000 </r>
       <r>    3.7713    1.0000 </r>
       <r>    4.1990    1.0000 </r>
       <r>    4.3675    1.0000 </r>
       <r>    4.4502    1.0000 </r>
       <r>    5.0113    1.0000 </r>
       <r>    5.0449    1.0000 </r>
       <r>    5.7013    1.0000 </r>
       <r>    5.7135    1.0000 </r>
       <r>    5.9178    1.0000 </r>
       <r>    6.1294    1.0000 </r>
       <r>    6.1950    1.0000 </r>
       <r>    6.3394    1.0000 </r>
       <r>    6.6803    1.0001 </r>
       <r>    8.6091   -0.0000 </r>
       <r>    8.6164   -0.0000 </r>
       <r>   15.0241    0.0000 </r>
       <r>   15.4826    0.0000 </r>
       <r>   16.2729    0.0000 </r>
       <r>   17.4345    0.0000 </r>
       <r>   18.7859    0.0000 </r>
      </set>
      <set comment="kpoint 53">
       <r>    0.8987    1.0000 </r>
       <r>    1.9486    1.0000 </r>
       <r>    2.0613    1.0000 </r>
       <r>    3.7155    1.0000 </r>
       <r>    3.7626    1.0000 </r>
       <r>    4.2254    1.0000 </r>
       <r>    4.3790    1.0000 </r>
       <r>    4.4512    1.0000 </r>
       <r>    4.9475    1.0000 </r>
       <r>    5.1094    1.0000 </r>
       <r>    5.7354    1.0000 </r>
       <r>    5.7583    1.0000 </r>
       <r>    5.8548    1.0000 </r>
       <r>    6.0405    1.0000 </r>
       <r>    6.2006    1.0000 </r>
       <r>    6.2807    1.0000 </r>
       <r>    6.6825    1.0001 </r>
       <r>    8.3109   -0.0000 </r>
       <r>    8.5908   -0.0000 </r>
       <r>   15.1124    0.0000 </r>
       <r>   16.0725    0.0000 </r>
       <r>   16.3870    0.0000 </r>
       <r>   16.8435    0.0000 </r>
       <r>   19.0598    0.0000 </r>
      </set>
      <set comment="kpoint 54">
       <r>    1.1036    1.0000 </r>
       <r>    1.7958    1.0000 </r>
       <r>    2.0959    1.0000 </r>
       <r>    3.6899    1.0000 </r>
       <r>    3.7612    1.0000 </r>
       <r>    4.2300    1.0000 </r>
       <r>    4.4111    1.0000 </r>
       <r>    4.4398    1.0000 </r>
       <r>    5.0248    1.0000 </r>
       <r>    5.0338    1.0000 </r>
       <r>    5.7119    1.0000 </r>
       <r>    5.7817    1.0000 </r>
       <r>    5.8413    1.0000 </r>
       <r>    6.0088    1.0000 </r>
       <r>    6.2120    1.0000 </r>
       <r>    6.2460    1.0000 </r>
       <r>    6.6620    1.0000 </r>
       <r>    8.3769   -0.0000 </r>
       <r>    8.3814   -0.0000 </r>
       <r>   15.5240    0.0000 </r>
       <r>   15.8348    0.0000 </r>
       <r>   16.4538    0.0000 </r>
       <r>   16.7517    0.0000 </r>
       <r>   19.1291    0.0000 </r>
      </set>
      <set comment="kpoint 55">
       <r>    1.3046    1.0000 </r>
       <r>    1.8946    1.0000 </r>
       <r>    1.8946    1.0000 </r>
       <r>    3.6543    1.0000 </r>
       <r>    3.7576    1.0000 </r>
       <r>    4.2410    1.0000 </r>
       <r>    4.4356    1.0000 </r>
       <r>    4.4356    1.0000 </r>
       <r>    5.0302    1.0000 </r>
       <r>    5.0302    1.0000 </r>
       <r>    5.7000    1.0000 </r>
       <r>    5.8168    1.0000 </r>
       <r>    5.8168    1.0000 </r>
       <r>    5.9643    1.0000 </r>
       <r>    6.2129    1.0000 </r>
       <r>    6.2177    1.0000 </r>
       <r>    6.6475    1.0000 </r>
       <r>    8.3041   -0.0000 </r>
       <r>    8.3041   -0.0000 </r>
       <r>   15.9758    0.0000 </r>
       <r>   15.9758    0.0000 </r>
       <r>   16.2389    0.0000 </r>
       <r>   16.5236    0.0000 </r>
       <r>   19.3632    0.0000 </r>
      </set>
      <set comment="kpoint 56">
       <r>   -3.2479    1.0000 </r>
       <r>    2.4135    1.0000 </r>
       <r>    3.1199    1.0000 </r>
       <r>    3.1199    1.0000 </r>
       <r>    3.5116    1.0000 </r>
       <r>    3.5550    1.0000 </r>
       <r>    3.5550    1.0000 </r>
       <r>    5.5838    1.0000 </r>
       <r>    5.7196    1.0000 </r>
       <r>    5.7196    1.0000 </r>
       <r>    6.6429    1.0000 </r>
       <r>    6.6429    1.0000 </r>
       <r>    6.9336    1.0157 </r>
       <r>    6.9336    1.0157 </r>
       <r>    6.9832    1.0268 </r>
       <r>    7.2305    0.7292 </r>
       <r>    8.1986   -0.0000 </r>
       <r>    8.4377   -0.0000 </r>
       <r>    8.4377   -0.0000 </r>
       <r>   14.6908    0.0000 </r>
       <r>   14.6908    0.0000 </r>
       <r>   15.8817    0.0000 </r>
       <r>   19.6469    0.0000 </r>
       <r>   20.1154    0.0000 </r>
      </set>
      <set comment="kpoint 57">
       <r>   -3.1266    1.0000 </r>
       <r>    2.4551    1.0000 </r>
       <r>    3.0544    1.0000 </r>
       <r>    3.1989    1.0000 </r>
       <r>    3.5171    1.0000 </r>
       <r>    3.5776    1.0000 </r>
       <r>    3.6012    1.0000 </r>
       <r>    5.4785    1.0000 </r>
       <r>    5.6500    1.0000 </r>
       <r>    5.7369    1.0000 </r>
       <r>    6.5456    1.0000 </r>
       <r>    6.6404    1.0000 </r>
       <r>    6.7016    1.0001 </r>
       <r>    6.7604    1.0006 </r>
       <r>    6.9387    1.0168 </r>
       <r>    7.2168    0.7780 </r>
       <r>    7.8896   -0.0001 </r>
       <r>    8.6984   -0.0000 </r>
       <r>    8.7718   -0.0000 </r>
       <r>   14.6724    0.0000 </r>
       <r>   15.0693    0.0000 </r>
       <r>   16.2321    0.0000 </r>
       <r>   18.9641    0.0000 </r>
       <r>   19.2455    0.0000 </r>
      </set>
      <set comment="kpoint 58">
       <r>   -2.9260    1.0000 </r>
       <r>    2.4914    1.0000 </r>
       <r>    2.9524    1.0000 </r>
       <r>    3.3257    1.0000 </r>
       <r>    3.5386    1.0000 </r>
       <r>    3.6148    1.0000 </r>
       <r>    3.6622    1.0000 </r>
       <r>    5.3562    1.0000 </r>
       <r>    5.5426    1.0000 </r>
       <r>    5.7246    1.0000 </r>
       <r>    6.3044    1.0000 </r>
       <r>    6.5280    1.0000 </r>
       <r>    6.5402    1.0000 </r>
       <r>    6.6604    1.0000 </r>
       <r>    6.8700    1.0060 </r>
       <r>    7.2089    0.8043 </r>
       <r>    7.4127    0.0677 </r>
       <r>    9.1546   -0.0000 </r>
       <r>    9.2109   -0.0000 </r>
       <r>   14.6391    0.0000 </r>
       <r>   15.3476    0.0000 </r>
       <r>   16.9635    0.0000 </r>
       <r>   18.1028    0.0000 </r>
       <r>   18.3001    0.0000 </r>
      </set>
      <set comment="kpoint 59">
       <r>   -2.6485    1.0000 </r>
       <r>    2.4061    1.0000 </r>
       <r>    2.8973    1.0000 </r>
       <r>    3.4906    1.0000 </r>
       <r>    3.5746    1.0000 </r>
       <r>    3.6669    1.0000 </r>
       <r>    3.7341    1.0000 </r>
       <r>    5.2300    1.0000 </r>
       <r>    5.4101    1.0000 </r>
       <r>    5.6839    1.0000 </r>
       <r>    5.9979    1.0000 </r>
       <r>    6.3604    1.0000 </r>
       <r>    6.3749    1.0000 </r>
       <r>    6.6463    1.0000 </r>
       <r>    6.7833    1.0011 </r>
       <r>    6.9923    1.0288 </r>
       <r>    7.2045    0.8186 </r>
       <r>    9.6796   -0.0000 </r>
       <r>    9.7142   -0.0000 </r>
       <r>   14.5850    0.0000 </r>
       <r>   15.5304    0.0000 </r>
       <r>   17.1330    0.0000 </r>
       <r>   17.3823    0.0000 </r>
       <r>   17.9626    0.0000 </r>
      </set>
      <set comment="kpoint 60">
       <r>   -2.2979    1.0000 </r>
       <r>    2.0933    1.0000 </r>
       <r>    2.9673    1.0000 </r>
       <r>    3.6218    1.0000 </r>
       <r>    3.6608    1.0000 </r>
       <r>    3.7527    1.0000 </r>
       <r>    3.8097    1.0000 </r>
       <r>    5.1123    1.0000 </r>
       <r>    5.2675    1.0000 </r>
       <r>    5.6064    1.0000 </r>
       <r>    5.7288    1.0000 </r>
       <r>    6.2053    1.0000 </r>
       <r>    6.2083    1.0000 </r>
       <r>    6.5817    1.0000 </r>
       <r>    6.6799    1.0001 </r>
       <r>    6.7249    1.0003 </r>
       <r>    7.2021    0.8262 </r>
       <r>   10.2547   -0.0000 </r>
       <r>   10.2640   -0.0000 </r>
       <r>   14.4954    0.0000 </r>
       <r>   15.6947    0.0000 </r>
       <r>   16.2614    0.0000 </r>
       <r>   16.5361    0.0000 </r>
       <r>   18.4717    0.0000 </r>
      </set>
      <set comment="kpoint 61">
       <r>   -1.8803    1.0000 </r>
       <r>    1.6225    1.0000 </r>
       <r>    3.0891    1.0000 </r>
       <r>    3.6752    1.0000 </r>
       <r>    3.7538    1.0000 </r>
       <r>    3.8788    1.0000 </r>
       <r>    3.9337    1.0000 </r>
       <r>    5.0138    1.0000 </r>
       <r>    5.1288    1.0000 </r>
       <r>    5.4575    1.0000 </r>
       <r>    5.5892    1.0000 </r>
       <r>    6.0462    1.0000 </r>
       <r>    6.0830    1.0000 </r>
       <r>    6.4506    1.0000 </r>
       <r>    6.4562    1.0000 </r>
       <r>    6.7147    1.0002 </r>
       <r>    7.2009    0.8300 </r>
       <r>   10.8497   -0.0000 </r>
       <r>   10.8727   -0.0000 </r>
       <r>   14.3296    0.0000 </r>
       <r>   15.3759    0.0000 </r>
       <r>   15.8152    0.0000 </r>
       <r>   15.8987    0.0000 </r>
       <r>   18.2113    0.0000 </r>
      </set>
      <set comment="kpoint 62">
       <r>   -1.4070    1.0000 </r>
       <r>    1.0675    1.0000 </r>
       <r>    3.2108    1.0000 </r>
       <r>    3.7267    1.0000 </r>
       <r>    3.8127    1.0000 </r>
       <r>    3.9295    1.0000 </r>
       <r>    4.1360    1.0000 </r>
       <r>    4.9464    1.0000 </r>
       <r>    5.0059    1.0000 </r>
       <r>    5.3296    1.0000 </r>
       <r>    5.5094    1.0000 </r>
       <r>    5.9102    1.0000 </r>
       <r>    5.9985    1.0000 </r>
       <r>    6.2975    1.0000 </r>
       <r>    6.3046    1.0000 </r>
       <r>    6.7162    1.0002 </r>
       <r>    7.2003    0.8317 </r>
       <r>   11.4609   -0.0000 </r>
       <r>   11.5294   -0.0000 </r>
       <r>   14.0037    0.0000 </r>
       <r>   14.5450    0.0000 </r>
       <r>   15.3144    0.0000 </r>
       <r>   16.1066    0.0000 </r>
       <r>   17.7794    0.0000 </r>
      </set>
      <set comment="kpoint 63">
       <r>   -0.9083    1.0000 </r>
       <r>    0.5020    1.0000 </r>
       <r>    3.3011    1.0000 </r>
       <r>    3.7652    1.0000 </r>
       <r>    3.8530    1.0000 </r>
       <r>    3.9553    1.0000 </r>
       <r>    4.2986    1.0000 </r>
       <r>    4.9118    1.0000 </r>
       <r>    4.9167    1.0000 </r>
       <r>    5.2539    1.0000 </r>
       <r>    5.4576    1.0000 </r>
       <r>    5.8165    1.0000 </r>
       <r>    5.9553    1.0000 </r>
       <r>    6.1825    1.0000 </r>
       <r>    6.1996    1.0000 </r>
       <r>    6.7188    1.0002 </r>
       <r>    7.2001    0.8324 </r>
       <r>   12.0747   -0.0000 </r>
       <r>   12.2190   -0.0000 </r>
       <r>   13.5000    0.0000 </r>
       <r>   13.7485    0.0000 </r>
       <r>   15.0746    0.0000 </r>
       <r>   16.3285    0.0000 </r>
       <r>   17.3975    0.0000 </r>
      </set>
      <set comment="kpoint 64">
       <r>   -0.5827    1.0000 </r>
       <r>    0.1512    1.0000 </r>
       <r>    3.3350    1.0000 </r>
       <r>    3.7796    1.0000 </r>
       <r>    3.8677    1.0000 </r>
       <r>    3.9619    1.0000 </r>
       <r>    4.3654    1.0000 </r>
       <r>    4.8724    1.0000 </r>
       <r>    4.9115    1.0000 </r>
       <r>    5.2267    1.0000 </r>
       <r>    5.4406    1.0000 </r>
       <r>    5.7820    1.0000 </r>
       <r>    5.9455    1.0000 </r>
       <r>    6.1311    1.0000 </r>
       <r>    6.1663    1.0000 </r>
       <r>    6.7198    1.0002 </r>
       <r>    7.2000    0.8326 </r>
       <r>   12.4949   -0.0000 </r>
       <r>   12.8207    0.0000 </r>
       <r>   13.1007    0.0000 </r>
       <r>   13.1113    0.0000 </r>
       <r>   15.0104    0.0000 </r>
       <r>   16.4532    0.0000 </r>
       <r>   17.2163    0.0000 </r>
      </set>
      <set comment="kpoint 65">
       <r>   -3.0061    1.0000 </r>
       <r>    2.4995    1.0000 </r>
       <r>    3.0621    1.0000 </r>
       <r>    3.2039    1.0000 </r>
       <r>    3.5115    1.0000 </r>
       <r>    3.6065    1.0000 </r>
       <r>    3.6496    1.0000 </r>
       <r>    5.3550    1.0000 </r>
       <r>    5.6134    1.0000 </r>
       <r>    5.7526    1.0000 </r>
       <r>    6.3917    1.0000 </r>
       <r>    6.5793    1.0000 </r>
       <r>    6.5937    1.0000 </r>
       <r>    6.6595    1.0000 </r>
       <r>    6.8768    1.0067 </r>
       <r>    7.1889    0.8652 </r>
       <r>    8.0214   -0.0000 </r>
       <r>    8.5042   -0.0000 </r>
       <r>    9.0290   -0.0000 </r>
       <r>   14.8309    0.0000 </r>
       <r>   15.4049    0.0000 </r>
       <r>   16.4685    0.0000 </r>
       <r>   18.1786    0.0000 </r>
       <r>   19.1660    0.0000 </r>
      </set>
      <set comment="kpoint 66">
       <r>   -2.8068    1.0000 </r>
       <r>    2.5440    1.0000 </r>
       <r>    2.9806    1.0000 </r>
       <r>    3.3038    1.0000 </r>
       <r>    3.5224    1.0000 </r>
       <r>    3.6421    1.0000 </r>
       <r>    3.7196    1.0000 </r>
       <r>    5.2208    1.0000 </r>
       <r>    5.5190    1.0000 </r>
       <r>    5.7609    1.0000 </r>
       <r>    6.1108    1.0000 </r>
       <r>    6.4492    1.0000 </r>
       <r>    6.4963    1.0000 </r>
       <r>    6.6199    1.0000 </r>
       <r>    6.8054    1.0017 </r>
       <r>    7.1637    0.9274 </r>
       <r>    7.6635   -0.0115 </r>
       <r>    8.7754   -0.0000 </r>
       <r>    9.4303   -0.0000 </r>
       <r>   14.8301    0.0000 </r>
       <r>   15.7886    0.0000 </r>
       <r>   17.0512    0.0000 </r>
       <r>   17.3015    0.0000 </r>
       <r>   18.3572    0.0000 </r>
      </set>
      <set comment="kpoint 67">
       <r>   -2.5311    1.0000 </r>
       <r>    2.4733    1.0000 </r>
       <r>    2.9223    1.0000 </r>
       <r>    3.4558    1.0000 </r>
       <r>    3.5509    1.0000 </r>
       <r>    3.6929    1.0000 </r>
       <r>    3.7998    1.0000 </r>
       <r>    5.0912    1.0000 </r>
       <r>    5.3954    1.0000 </r>
       <r>    5.7328    1.0000 </r>
       <r>    5.8316    1.0000 </r>
       <r>    6.2924    1.0000 </r>
       <r>    6.3597    1.0000 </r>
       <r>    6.6093    1.0000 </r>
       <r>    6.7238    1.0003 </r>
       <r>    7.1432    0.9665 </r>
       <r>    7.2310    0.7272 </r>
       <r>    9.2188   -0.0000 </r>
       <r>    9.9084   -0.0000 </r>
       <r>   14.7453    0.0000 </r>
       <r>   16.0147    0.0000 </r>
       <r>   16.4232    0.0000 </r>
       <r>   17.4173    0.0000 </r>
       <r>   18.0362    0.0000 </r>
      </set>
      <set comment="kpoint 68">
       <r>   -2.1829    1.0000 </r>
       <r>    2.1685    1.0000 </r>
       <r>    2.9936    1.0000 </r>
       <r>    3.5742    1.0000 </r>
       <r>    3.6336    1.0000 </r>
       <r>    3.7768    1.0000 </r>
       <r>    3.8803    1.0000 </r>
       <r>    4.9800    1.0000 </r>
       <r>    5.2506    1.0000 </r>
       <r>    5.5648    1.0000 </r>
       <r>    5.7102    1.0000 </r>
       <r>    6.1547    1.0000 </r>
       <r>    6.1981    1.0000 </r>
       <r>    6.5486    1.0000 </r>
       <r>    6.6701    1.0001 </r>
       <r>    6.8821    1.0074 </r>
       <r>    7.1320    0.9835 </r>
       <r>    9.7130   -0.0000 </r>
       <r>   10.4426   -0.0000 </r>
       <r>   14.5087    0.0000 </r>
       <r>   15.7400    0.0000 </r>
       <r>   16.1584    0.0000 </r>
       <r>   16.6458    0.0000 </r>
       <r>   18.7047    0.0000 </r>
      </set>
      <set comment="kpoint 69">
       <r>   -1.7685    1.0000 </r>
       <r>    1.7047    1.0000 </r>
       <r>    3.1193    1.0000 </r>
       <r>    3.6215    1.0000 </r>
       <r>    3.7351    1.0000 </r>
       <r>    3.9332    1.0000 </r>
       <r>    3.9533    1.0000 </r>
       <r>    4.9015    1.0000 </r>
       <r>    5.0925    1.0000 </r>
       <r>    5.4048    1.0000 </r>
       <r>    5.6391    1.0000 </r>
       <r>    6.0167    1.0000 </r>
       <r>    6.0648    1.0000 </r>
       <r>    6.4196    1.0000 </r>
       <r>    6.6214    1.0000 </r>
       <r>    6.6728    1.0001 </r>
       <r>    7.1235    0.9945 </r>
       <r>   10.2396   -0.0000 </r>
       <r>   11.0202   -0.0000 </r>
       <r>   14.0362    0.0000 </r>
       <r>   15.1914    0.0000 </r>
       <r>   15.8807    0.0000 </r>
       <r>   16.4934    0.0000 </r>
       <r>   18.6197    0.0000 </r>
      </set>
      <set comment="kpoint 70">
       <r>   -1.2994    1.0000 </r>
       <r>    1.1576    1.0000 </r>
       <r>    3.2478    1.0000 </r>
       <r>    3.6570    1.0000 </r>
       <r>    3.7993    1.0000 </r>
       <r>    3.9823    1.0000 </r>
       <r>    4.1425    1.0000 </r>
       <r>    4.8706    1.0000 </r>
       <r>    4.9467    1.0000 </r>
       <r>    5.2991    1.0000 </r>
       <r>    5.5718    1.0000 </r>
       <r>    5.8644    1.0000 </r>
       <r>    6.0018    1.0000 </r>
       <r>    6.2826    1.0000 </r>
       <r>    6.4440    1.0000 </r>
       <r>    6.6723    1.0001 </r>
       <r>    7.1187    1.0000 </r>
       <r>   10.7903   -0.0000 </r>
       <r>   11.6252   -0.0000 </r>
       <r>   13.4309    0.0000 </r>
       <r>   14.5405    0.0000 </r>
       <r>   15.6219    0.0000 </r>
       <r>   16.6996    0.0000 </r>
       <r>   18.2369    0.0000 </r>
      </set>
      <set comment="kpoint 71">
       <r>   -0.8068    1.0000 </r>
       <r>    0.6007    1.0000 </r>
       <r>    3.3491    1.0000 </r>
       <r>    3.6723    1.0000 </r>
       <r>    3.8475    1.0000 </r>
       <r>    3.9887    1.0000 </r>
       <r>    4.3183    1.0000 </r>
       <r>    4.8260    1.0000 </r>
       <r>    4.8907    1.0000 </r>
       <r>    5.2182    1.0000 </r>
       <r>    5.5311    1.0000 </r>
       <r>    5.7530    1.0000 </r>
       <r>    5.9775    1.0000 </r>
       <r>    6.1742    1.0000 </r>
       <r>    6.3253    1.0000 </r>
       <r>    6.6760    1.0001 </r>
       <r>    7.1162    1.0027 </r>
       <r>   11.3510   -0.0000 </r>
       <r>   12.1704   -0.0000 </r>
       <r>   12.9038    0.0000 </r>
       <r>   13.8250    0.0000 </r>
       <r>   15.5389    0.0000 </r>
       <r>   16.9397    0.0000 </r>
       <r>   17.8648    0.0000 </r>
      </set>
      <set comment="kpoint 72">
       <r>   -0.4885    1.0000 </r>
       <r>    0.2581    1.0000 </r>
       <r>    3.3900    1.0000 </r>
       <r>    3.6731    1.0000 </r>
       <r>    3.8689    1.0000 </r>
       <r>    3.9843    1.0000 </r>
       <r>    4.3993    1.0000 </r>
       <r>    4.7714    1.0000 </r>
       <r>    4.9098    1.0000 </r>
       <r>    5.1795    1.0000 </r>
       <r>    5.5201    1.0000 </r>
       <r>    5.7108    1.0000 </r>
       <r>    5.9765    1.0000 </r>
       <r>    6.1281    1.0000 </r>
       <r>    6.2829    1.0000 </r>
       <r>    6.6774    1.0001 </r>
       <r>    7.1155    1.0034 </r>
       <r>   11.7648   -0.0000 </r>
       <r>   12.1359   -0.0000 </r>
       <r>   13.0943    0.0000 </r>
       <r>   13.2015    0.0000 </r>
       <r>   15.5200    0.0000 </r>
       <r>   17.0874    0.0000 </r>
       <r>   17.6704    0.0000 </r>
      </set>
      <set comment="kpoint 73">
       <r>   -2.6096    1.0000 </r>
       <r>    2.6100    1.0000 </r>
       <r>    2.9587    1.0000 </r>
       <r>    3.3224    1.0000 </r>
       <r>    3.5250    1.0000 </r>
       <r>    3.6733    1.0000 </r>
       <r>    3.8011    1.0000 </r>
       <r>    5.0769    1.0000 </r>
       <r>    5.4562    1.0000 </r>
       <r>    5.7278    1.0000 </r>
       <r>    5.9151    1.0000 </r>
       <r>    6.3432    1.0000 </r>
       <r>    6.4428    1.0000 </r>
       <r>    6.5753    1.0000 </r>
       <r>    6.7181    1.0002 </r>
       <r>    7.1158    1.0031 </r>
       <r>    7.7591   -0.0021 </r>
       <r>    8.5079   -0.0000 </r>
       <r>    9.7870   -0.0000 </r>
       <r>   14.8108    0.0000 </r>
       <r>   16.4250    0.0000 </r>
       <r>   16.4522    0.0000 </r>
       <r>   17.3687    0.0000 </r>
       <r>   18.5909    0.0000 </r>
      </set>
      <set comment="kpoint 74">
       <r>   -2.3370    1.0000 </r>
       <r>    2.5773    1.0000 </r>
       <r>    2.9120    1.0000 </r>
       <r>    3.4182    1.0000 </r>
       <r>    3.5508    1.0000 </r>
       <r>    3.7197    1.0000 </r>
       <r>    3.8933    1.0000 </r>
       <r>    4.9416    1.0000 </r>
       <r>    5.3649    1.0000 </r>
       <r>    5.5344    1.0000 </r>
       <r>    5.8637    1.0000 </r>
       <r>    6.2110    1.0000 </r>
       <r>    6.3368    1.0000 </r>
       <r>    6.5530    1.0000 </r>
       <r>    6.6289    1.0000 </r>
       <r>    7.0724    1.0312 </r>
       <r>    7.4573   -0.0020 </r>
       <r>    8.7159   -0.0000 </r>
       <r>   10.2251   -0.0000 </r>
       <r>   14.5303    0.0000 </r>
       <r>   15.8331    0.0000 </r>
       <r>   16.8283    0.0000 </r>
       <r>   17.6251    0.0000 </r>
       <r>   18.1169    0.0000 </r>
      </set>
      <set comment="kpoint 75">
       <r>   -1.9930    1.0000 </r>
       <r>    2.2873    1.0000 </r>
       <r>    2.9956    1.0000 </r>
       <r>    3.5176    1.0000 </r>
       <r>    3.6180    1.0000 </r>
       <r>    3.8002    1.0000 </r>
       <r>    3.9829    1.0000 </r>
       <r>    4.8318    1.0000 </r>
       <r>    5.1979    1.0000 </r>
       <r>    5.4039    1.0000 </r>
       <r>    5.8066    1.0000 </r>
       <r>    6.0997    1.0000 </r>
       <r>    6.1888    1.0000 </r>
       <r>    6.4870    1.0000 </r>
       <r>    6.5858    1.0000 </r>
       <r>    7.0291    1.0349 </r>
       <r>    7.1075    1.0110 </r>
       <r>    9.1063   -0.0000 </r>
       <r>   10.7219   -0.0000 </r>
       <r>   13.9440    0.0000 </r>
       <r>   15.5747    0.0000 </r>
       <r>   16.5979    0.0000 </r>
       <r>   17.2869    0.0000 </r>
       <r>   18.6854    0.0000 </r>
      </set>
      <set comment="kpoint 76">
       <r>   -1.5842    1.0000 </r>
       <r>    1.8360    1.0000 </r>
       <r>    3.1305    1.0000 </r>
       <r>    3.5668    1.0000 </r>
       <r>    3.7056    1.0000 </r>
       <r>    3.9457    1.0000 </r>
       <r>    4.0496    1.0000 </r>
       <r>    4.7710    1.0000 </r>
       <r>    5.0057    1.0000 </r>
       <r>    5.3479    1.0000 </r>
       <r>    5.7046    1.0000 </r>
       <r>    6.0095    1.0000 </r>
       <r>    6.0522    1.0000 </r>
       <r>    6.3651    1.0000 </r>
       <r>    6.5882    1.0000 </r>
       <r>    6.8076    1.0018 </r>
       <r>    7.0201    1.0339 </r>
       <r>    9.5518   -0.0000 </r>
       <r>   11.2543   -0.0000 </r>
       <r>   13.2563    0.0000 </r>
       <r>   15.3472    0.0000 </r>
       <r>   16.0123    0.0000 </r>
       <r>   17.4322    0.0000 </r>
       <r>   18.8519    0.0000 </r>
      </set>
      <set comment="kpoint 77">
       <r>   -1.1223    1.0000 </r>
       <r>    1.3029    1.0000 </r>
       <r>    3.2690    1.0000 </r>
       <r>    3.5844    1.0000 </r>
       <r>    3.7745    1.0000 </r>
       <r>    4.0575    1.0000 </r>
       <r>    4.1486    1.0000 </r>
       <r>    4.7833    1.0000 </r>
       <r>    4.8470    1.0000 </r>
       <r>    5.2878    1.0000 </r>
       <r>    5.6153    1.0000 </r>
       <r>    5.8487    1.0000 </r>
       <r>    6.0239    1.0000 </r>
       <r>    6.2441    1.0000 </r>
       <r>    6.5805    1.0000 </r>
       <r>    6.6150    1.0000 </r>
       <r>    7.0032    1.0310 </r>
       <r>   10.0316   -0.0000 </r>
       <r>   11.7382   -0.0000 </r>
       <r>   12.6718   -0.0000 </r>
       <r>   14.7690    0.0000 </r>
       <r>   15.8252    0.0000 </r>
       <r>   17.6330    0.0000 </r>
       <r>   18.6162    0.0000 </r>
      </set>
      <set comment="kpoint 78">
       <r>   -0.6400    1.0000 </r>
       <r>    0.7612    1.0000 </r>
       <r>    3.3931    1.0000 </r>
       <r>    3.5633    1.0000 </r>
       <r>    3.8328    1.0000 </r>
       <r>    4.0392    1.0000 </r>
       <r>    4.3325    1.0000 </r>
       <r>    4.7187    1.0000 </r>
       <r>    4.8583    1.0000 </r>
       <r>    5.1920    1.0000 </r>
       <r>    5.5877    1.0000 </r>
       <r>    5.7142    1.0000 </r>
       <r>    6.0203    1.0000 </r>
       <r>    6.1546    1.0000 </r>
       <r>    6.4575    1.0000 </r>
       <r>    6.6054    1.0000 </r>
       <r>    6.9946    1.0293 </r>
       <r>   10.5371   -0.0000 </r>
       <r>   11.6548   -0.0000 </r>
       <r>   12.7436   -0.0000 </r>
       <r>   14.0599    0.0000 </r>
       <r>   15.8184    0.0000 </r>
       <r>   17.8431    0.0000 </r>
       <r>   18.3247    0.0000 </r>
      </set>
      <set comment="kpoint 79">
       <r>   -0.3338    1.0000 </r>
       <r>    0.4325    1.0000 </r>
       <r>    3.4759    1.0000 </r>
       <r>    3.5156    1.0000 </r>
       <r>    3.8619    1.0000 </r>
       <r>    4.0201    1.0000 </r>
       <r>    4.4371    1.0000 </r>
       <r>    4.6420    1.0000 </r>
       <r>    4.9196    1.0000 </r>
       <r>    5.1237    1.0000 </r>
       <r>    5.6017    1.0000 </r>
       <r>    5.6459    1.0000 </r>
       <r>    6.0265    1.0000 </r>
       <r>    6.1180    1.0000 </r>
       <r>    6.4067    1.0000 </r>
       <r>    6.6070    1.0000 </r>
       <r>    6.9920    1.0287 </r>
       <r>   10.9478   -0.0000 </r>
       <r>   11.2592   -0.0000 </r>
       <r>   13.2378    0.0000 </r>
       <r>   13.4720    0.0000 </r>
       <r>   15.8257    0.0000 </r>
       <r>   18.0253    0.0000 </r>
       <r>   18.1116    0.0000 </r>
      </set>
      <set comment="kpoint 80">
       <r>   -2.0689    1.0000 </r>
       <r>    2.6801    1.0000 </r>
       <r>    2.8011    1.0000 </r>
       <r>    3.4369    1.0000 </r>
       <r>    3.5749    1.0000 </r>
       <r>    3.7615    1.0000 </r>
       <r>    4.0003    1.0000 </r>
       <r>    4.7995    1.0000 </r>
       <r>    5.2835    1.0000 </r>
       <r>    5.3458    1.0000 </r>
       <r>    5.9187    1.0000 </r>
       <r>    6.0965    1.0000 </r>
       <r>    6.2812    1.0000 </r>
       <r>    6.5052    1.0000 </r>
       <r>    6.5209    1.0000 </r>
       <r>    7.0039    1.0312 </r>
       <r>    7.4957   -0.0290 </r>
       <r>    8.4670   -0.0000 </r>
       <r>   10.6206   -0.0000 </r>
       <r>   13.9029    0.0000 </r>
       <r>   15.6416    0.0000 </r>
       <r>   17.5057    0.0000 </r>
       <r>   17.7521    0.0000 </r>
       <r>   18.0200    0.0000 </r>
      </set>
      <set comment="kpoint 81">
       <r>   -1.7310    1.0000 </r>
       <r>    2.4396    1.0000 </r>
       <r>    2.8846    1.0000 </r>
       <r>    3.5027    1.0000 </r>
       <r>    3.6267    1.0000 </r>
       <r>    3.8346    1.0000 </r>
       <r>    4.1046    1.0000 </r>
       <r>    4.6846    1.0000 </r>
       <r>    5.0640    1.0000 </r>
       <r>    5.3339    1.0000 </r>
       <r>    5.8860    1.0000 </r>
       <r>    6.0212    1.0000 </r>
       <r>    6.1708    1.0000 </r>
       <r>    6.4051    1.0000 </r>
       <r>    6.4905    1.0000 </r>
       <r>    6.9422    1.0175 </r>
       <r>    7.2565    0.6277 </r>
       <r>    8.6162   -0.0000 </r>
       <r>   11.0648   -0.0000 </r>
       <r>   13.1518    0.0000 </r>
       <r>   15.6303    0.0000 </r>
       <r>   16.8832    0.0000 </r>
       <r>   18.0655    0.0000 </r>
       <r>   18.2918    0.0000 </r>
      </set>
      <set comment="kpoint 82">
       <r>   -1.3303    1.0000 </r>
       <r>    2.0069    1.0000 </r>
       <r>    3.0332    1.0000 </r>
       <r>    3.5587    1.0000 </r>
       <r>    3.6951    1.0000 </r>
       <r>    3.9599    1.0000 </r>
       <r>    4.1702    1.0000 </r>
       <r>    4.6366    1.0000 </r>
       <r>    4.8833    1.0000 </r>
       <r>    5.3299    1.0000 </r>
       <r>    5.7452    1.0000 </r>
       <r>    6.0203    1.0000 </r>
       <r>    6.0373    1.0000 </r>
       <r>    6.2881    1.0000 </r>
       <r>    6.4925    1.0000 </r>
       <r>    6.8818    1.0073 </r>
       <r>    6.9844    1.0271 </r>
       <r>    8.9433   -0.0000 </r>
       <r>   11.4718   -0.0000 </r>
       <r>   12.5077   -0.0000 </r>
       <r>   15.5666    0.0000 </r>
       <r>   16.2007    0.0000 </r>
       <r>   18.3317    0.0000 </r>
       <r>   18.5776    0.0000 </r>
      </set>
      <set comment="kpoint 83">
       <r>   -0.8792    1.0000 </r>
       <r>    1.4957    1.0000 </r>
       <r>    3.1681    1.0000 </r>
       <r>    3.5878    1.0000 </r>
       <r>    3.7606    1.0000 </r>
       <r>    4.1102    1.0000 </r>
       <r>    4.1807    1.0000 </r>
       <r>    4.6868    1.0000 </r>
       <r>    4.7522    1.0000 </r>
       <r>    5.2888    1.0000 </r>
       <r>    5.6358    1.0000 </r>
       <r>    5.8638    1.0000 </r>
       <r>    6.0519    1.0000 </r>
       <r>    6.1857    1.0000 </r>
       <r>    6.4995    1.0000 </r>
       <r>    6.7271    1.0003 </r>
       <r>    6.8785    1.0069 </r>
       <r>    9.3401   -0.0000 </r>
       <r>   11.3784   -0.0000 </r>
       <r>   12.4704   -0.0000 </r>
       <r>   15.0604    0.0000 </r>
       <r>   16.0108    0.0000 </r>
       <r>   18.3991    0.0000 </r>
       <r>   18.9224    0.0000 </r>
      </set>
      <set comment="kpoint 84">
       <r>   -0.4120    1.0000 </r>
       <r>    0.9769    1.0000 </r>
       <r>    3.2692    1.0000 </r>
       <r>    3.5889    1.0000 </r>
       <r>    3.8197    1.0000 </r>
       <r>    4.0949    1.0000 </r>
       <r>    4.3266    1.0000 </r>
       <r>    4.6193    1.0000 </r>
       <r>    4.8308    1.0000 </r>
       <r>    5.1779    1.0000 </r>
       <r>    5.6025    1.0000 </r>
       <r>    5.7304    1.0000 </r>
       <r>    6.0642    1.0000 </r>
       <r>    6.1215    1.0000 </r>
       <r>    6.5056    1.0000 </r>
       <r>    6.5781    1.0000 </r>
       <r>    6.8550    1.0046 </r>
       <r>    9.7841   -0.0000 </r>
       <r>   10.8490   -0.0000 </r>
       <r>   12.9791    0.0000 </r>
       <r>   14.3648    0.0000 </r>
       <r>   16.0466    0.0000 </r>
       <r>   18.3356    0.0000 </r>
       <r>   19.1991    0.0000 </r>
      </set>
      <set comment="kpoint 85">
       <r>   -0.1224    1.0000 </r>
       <r>    0.6675    1.0000 </r>
       <r>    3.3097    1.0000 </r>
       <r>    3.5822    1.0000 </r>
       <r>    3.8492    1.0000 </r>
       <r>    4.0671    1.0000 </r>
       <r>    4.4646    1.0000 </r>
       <r>    4.5128    1.0000 </r>
       <r>    4.9345    1.0000 </r>
       <r>    5.0770    1.0000 </r>
       <r>    5.6088    1.0000 </r>
       <r>    5.6669    1.0000 </r>
       <r>    6.0792    1.0000 </r>
       <r>    6.0933    1.0000 </r>
       <r>    6.5096    1.0000 </r>
       <r>    6.5193    1.0000 </r>
       <r>    6.8483    1.0041 </r>
       <r>   10.1890   -0.0000 </r>
       <r>   10.3980   -0.0000 </r>
       <r>   13.4620    0.0000 </r>
       <r>   13.8298    0.0000 </r>
       <r>   16.0710    0.0000 </r>
       <r>   18.2908    0.0000 </r>
       <r>   19.2807    0.0000 </r>
      </set>
      <set comment="kpoint 86">
       <r>   -1.4016    1.0000 </r>
       <r>    2.5892    1.0000 </r>
       <r>    2.6294    1.0000 </r>
       <r>    3.5535    1.0000 </r>
       <r>    3.6583    1.0000 </r>
       <r>    3.8925    1.0000 </r>
       <r>    4.2331    1.0000 </r>
       <r>    4.5547    1.0000 </r>
       <r>    4.8996    1.0000 </r>
       <r>    5.3327    1.0000 </r>
       <r>    5.8620    1.0000 </r>
       <r>    5.9958    1.0000 </r>
       <r>    6.1178    1.0000 </r>
       <r>    6.3043    1.0000 </r>
       <r>    6.4223    1.0000 </r>
       <r>    6.8555    1.0046 </r>
       <r>    7.2410    0.6895 </r>
       <r>    8.4106   -0.0000 </r>
       <r>   11.3814   -0.0000 </r>
       <r>   12.4496   -0.0000 </r>
       <r>   15.7374    0.0000 </r>
       <r>   17.0081    0.0000 </r>
       <r>   17.4465    0.0000 </r>
       <r>   19.2602    0.0000 </r>
      </set>
      <set comment="kpoint 87">
       <r>   -1.0119    1.0000 </r>
       <r>    2.2016    1.0000 </r>
       <r>    2.7812    1.0000 </r>
       <r>    3.6183    1.0000 </r>
       <r>    3.7068    1.0000 </r>
       <r>    3.9891    1.0000 </r>
       <r>    4.3046    1.0000 </r>
       <r>    4.5096    1.0000 </r>
       <r>    4.7619    1.0000 </r>
       <r>    5.3394    1.0000 </r>
       <r>    5.7391    1.0000 </r>
       <r>    6.0064    1.0000 </r>
       <r>    6.0510    1.0000 </r>
       <r>    6.1948    1.0000 </r>
       <r>    6.3960    1.0000 </r>
       <r>    6.7801    1.0010 </r>
       <r>    7.0517    1.0351 </r>
       <r>    8.5176   -0.0000 </r>
       <r>   11.2316   -0.0000 </r>
       <r>   12.3308   -0.0000 </r>
       <r>   15.7970    0.0000 </r>
       <r>   16.4190    0.0000 </r>
       <r>   17.6621    0.0000 </r>
       <r>   19.1932    0.0000 </r>
      </set>
      <set comment="kpoint 88">
       <r>   -0.5757    1.0000 </r>
       <r>    1.7226    1.0000 </r>
       <r>    2.9249    1.0000 </r>
       <r>    3.6638    1.0000 </r>
       <r>    3.7598    1.0000 </r>
       <r>    4.1163    1.0000 </r>
       <r>    4.2543    1.0000 </r>
       <r>    4.5944    1.0000 </r>
       <r>    4.6920    1.0000 </r>
       <r>    5.2940    1.0000 </r>
       <r>    5.6490    1.0000 </r>
       <r>    5.8788    1.0000 </r>
       <r>    6.0764    1.0000 </r>
       <r>    6.1141    1.0000 </r>
       <r>    6.3902    1.0000 </r>
       <r>    6.7199    1.0002 </r>
       <r>    6.8438    1.0037 </r>
       <r>    8.7887   -0.0000 </r>
       <r>   10.6591   -0.0000 </r>
       <r>   12.7644    0.0000 </r>
       <r>   15.3997    0.0000 </r>
       <r>   16.1981    0.0000 </r>
       <r>   18.0223    0.0000 </r>
       <r>   18.9586    0.0000 </r>
      </set>
      <set comment="kpoint 89">
       <r>   -0.1289    1.0000 </r>
       <r>    1.2363    1.0000 </r>
       <r>    3.0224    1.0000 </r>
       <r>    3.6832    1.0000 </r>
       <r>    3.8094    1.0000 </r>
       <r>    4.1457    1.0000 </r>
       <r>    4.3041    1.0000 </r>
       <r>    4.5451    1.0000 </r>
       <r>    4.8211    1.0000 </r>
       <r>    5.1714    1.0000 </r>
       <r>    5.6169    1.0000 </r>
       <r>    5.7597    1.0000 </r>
       <r>    6.0525    1.0000 </r>
       <r>    6.1194    1.0000 </r>
       <r>    6.3893    1.0000 </r>
       <r>    6.6555    1.0000 </r>
       <r>    6.7203    1.0002 </r>
       <r>    9.1465   -0.0000 </r>
       <r>   10.0887   -0.0000 </r>
       <r>   13.3185    0.0000 </r>
       <r>   14.7295    0.0000 </r>
       <r>   16.2695    0.0000 </r>
       <r>   18.3454    0.0000 </r>
       <r>   18.7275    0.0000 </r>
      </set>
      <set comment="kpoint 90">
       <r>    0.1400    1.0000 </r>
       <r>    0.9518    1.0000 </r>
       <r>    3.0570    1.0000 </r>
       <r>    3.6869    1.0000 </r>
       <r>    3.8328    1.0000 </r>
       <r>    4.1211    1.0000 </r>
       <r>    4.4038    1.0000 </r>
       <r>    4.4733    1.0000 </r>
       <r>    4.9537    1.0000 </r>
       <r>    5.0481    1.0000 </r>
       <r>    5.6102    1.0000 </r>
       <r>    5.7084    1.0000 </r>
       <r>    6.0474    1.0000 </r>
       <r>    6.1267    1.0000 </r>
       <r>    6.3892    1.0000 </r>
       <r>    6.6081    1.0000 </r>
       <r>    6.6980    1.0001 </r>
       <r>    9.5286   -0.0000 </r>
       <r>    9.6335   -0.0000 </r>
       <r>   13.7552    0.0000 </r>
       <r>   14.2485    0.0000 </r>
       <r>   16.3089    0.0000 </r>
       <r>   18.5154    0.0000 </r>
       <r>   18.6039    0.0000 </r>
      </set>
      <set comment="kpoint 91">
       <r>   -0.6372    1.0000 </r>
       <r>    2.3488    1.0000 </r>
       <r>    2.4662    1.0000 </r>
       <r>    3.6874    1.0000 </r>
       <r>    3.7358    1.0000 </r>
       <r>    4.0481    1.0000 </r>
       <r>    4.3758    1.0000 </r>
       <r>    4.4671    1.0000 </r>
       <r>    4.6710    1.0000 </r>
       <r>    5.3401    1.0000 </r>
       <r>    5.6996    1.0000 </r>
       <r>    5.9542    1.0000 </r>
       <r>    6.0839    1.0000 </r>
       <r>    6.0973    1.0000 </r>
       <r>    6.3242    1.0000 </r>
       <r>    6.6798    1.0001 </r>
       <r>    6.9983    1.0301 </r>
       <r>    8.3576   -0.0000 </r>
       <r>   10.5938   -0.0000 </r>
       <r>   12.6912   -0.0000 </r>
       <r>   15.9971    0.0000 </r>
       <r>   16.4449    0.0000 </r>
       <r>   17.1957    0.0000 </r>
       <r>   19.3301    0.0000 </r>
      </set>
      <set comment="kpoint 92">
       <r>   -0.2205    1.0000 </r>
       <r>    1.9618    1.0000 </r>
       <r>    2.5944    1.0000 </r>
       <r>    3.7305    1.0000 </r>
       <r>    3.7700    1.0000 </r>
       <r>    4.1364    1.0000 </r>
       <r>    4.3027    1.0000 </r>
       <r>    4.5299    1.0000 </r>
       <r>    4.6886    1.0000 </r>
       <r>    5.2822    1.0000 </r>
       <r>    5.6730    1.0000 </r>
       <r>    5.8649    1.0000 </r>
       <r>    6.0139    1.0000 </r>
       <r>    6.1214    1.0000 </r>
       <r>    6.2853    1.0000 </r>
       <r>    6.6009    1.0000 </r>
       <r>    6.8549    1.0046 </r>
       <r>    8.4388   -0.0000 </r>
       <r>    9.9730   -0.0000 </r>
       <r>   13.1823    0.0000 </r>
       <r>   15.7640    0.0000 </r>
       <r>   16.3243    0.0000 </r>
       <r>   17.3743    0.0000 </r>
       <r>   19.1292    0.0000 </r>
      </set>
      <set comment="kpoint 93">
       <r>    0.2000    1.0000 </r>
       <r>    1.5202    1.0000 </r>
       <r>    2.7172    1.0000 </r>
       <r>    3.7451    1.0000 </r>
       <r>    3.8012    1.0000 </r>
       <r>    4.1859    1.0000 </r>
       <r>    4.3010    1.0000 </r>
       <r>    4.4952    1.0000 </r>
       <r>    4.8374    1.0000 </r>
       <r>    5.1616    1.0000 </r>
       <r>    5.6607    1.0000 </r>
       <r>    5.7670    1.0000 </r>
       <r>    5.9815    1.0000 </r>
       <r>    6.1517    1.0000 </r>
       <r>    6.2649    1.0000 </r>
       <r>    6.5565    1.0000 </r>
       <r>    6.7195    1.0002 </r>
       <r>    8.6697   -0.0000 </r>
       <r>    9.4404   -0.0000 </r>
       <r>   13.7214    0.0000 </r>
       <r>   15.1331    0.0000 </r>
       <r>   16.4556    0.0000 </r>
       <r>   17.7004    0.0000 </r>
       <r>   18.8310    0.0000 </r>
      </set>
      <set comment="kpoint 94">
       <r>    0.4450    1.0000 </r>
       <r>    1.2659    1.0000 </r>
       <r>    2.7620    1.0000 </r>
       <r>    3.7465    1.0000 </r>
       <r>    3.8154    1.0000 </r>
       <r>    4.1789    1.0000 </r>
       <r>    4.3459    1.0000 </r>
       <r>    4.4646    1.0000 </r>
       <r>    4.9763    1.0000 </r>
       <r>    5.0347    1.0000 </r>
       <r>    5.6531    1.0000 </r>
       <r>    5.7224    1.0000 </r>
       <r>    5.9811    1.0000 </r>
       <r>    6.1651    1.0000 </r>
       <r>    6.2565    1.0000 </r>
       <r>    6.5459    1.0000 </r>
       <r>    6.6618    1.0000 </r>
       <r>    8.9912   -0.0000 </r>
       <r>    9.0211   -0.0000 </r>
       <r>   14.1135    0.0000 </r>
       <r>   14.7007    0.0000 </r>
       <r>   16.5137    0.0000 </r>
       <r>   17.8806    0.0000 </r>
       <r>   18.6679    0.0000 </r>
      </set>
      <set comment="kpoint 95">
       <r>    0.1706    1.0000 </r>
       <r>    2.1285    1.0000 </r>
       <r>    2.2658    1.0000 </r>
       <r>    3.7470    1.0000 </r>
       <r>    3.7838    1.0000 </r>
       <r>    4.1918    1.0000 </r>
       <r>    4.3120    1.0000 </r>
       <r>    4.4896    1.0000 </r>
       <r>    4.7616    1.0000 </r>
       <r>    5.2298    1.0000 </r>
       <r>    5.7107    1.0000 </r>
       <r>    5.8124    1.0000 </r>
       <r>    5.9371    1.0000 </r>
       <r>    6.1534    1.0000 </r>
       <r>    6.2010    1.0000 </r>
       <r>    6.4947    1.0000 </r>
       <r>    6.7961    1.0014 </r>
       <r>    8.3169   -0.0000 </r>
       <r>    9.3911   -0.0000 </r>
       <r>   13.6625    0.0000 </r>
       <r>   16.0204    0.0000 </r>
       <r>   16.1973    0.0000 </r>
       <r>   17.1367    0.0000 </r>
       <r>   19.0530    0.0000 </r>
      </set>
      <set comment="kpoint 96">
       <r>    0.5589    1.0000 </r>
       <r>    1.7958    1.0000 </r>
       <r>    2.3744    1.0000 </r>
       <r>    3.7303    1.0000 </r>
       <r>    3.7951    1.0000 </r>
       <r>    4.2362    1.0000 </r>
       <r>    4.3319    1.0000 </r>
       <r>    4.4617    1.0000 </r>
       <r>    4.8817    1.0000 </r>
       <r>    5.1364    1.0000 </r>
       <r>    5.7298    1.0000 </r>
       <r>    5.7415    1.0000 </r>
       <r>    5.9060    1.0000 </r>
       <r>    6.1452    1.0000 </r>
       <r>    6.1819    1.0000 </r>
       <r>    6.4263    1.0000 </r>
       <r>    6.7129    1.0002 </r>
       <r>    8.3859   -0.0000 </r>
       <r>    8.9317   -0.0000 </r>
       <r>   14.1749    0.0000 </r>
       <r>   15.5326    0.0000 </r>
       <r>   16.4142    0.0000 </r>
       <r>   17.2889    0.0000 </r>
       <r>   18.7603    0.0000 </r>
      </set>
      <set comment="kpoint 97">
       <r>    0.7785    1.0000 </r>
       <r>    1.5760    1.0000 </r>
       <r>    2.4359    1.0000 </r>
       <r>    3.7183    1.0000 </r>
       <r>    3.8000    1.0000 </r>
       <r>    4.2430    1.0000 </r>
       <r>    4.3573    1.0000 </r>
       <r>    4.4479    1.0000 </r>
       <r>    4.9998    1.0000 </r>
       <r>    5.0294    1.0000 </r>
       <r>    5.7061    1.0000 </r>
       <r>    5.7266    1.0000 </r>
       <r>    5.9090    1.0000 </r>
       <r>    6.1279    1.0000 </r>
       <r>    6.1926    1.0000 </r>
       <r>    6.4037    1.0000 </r>
       <r>    6.6740    1.0001 </r>
       <r>    8.5959   -0.0000 </r>
       <r>    8.5977   -0.0000 </r>
       <r>   14.5333    0.0000 </r>
       <r>   15.1474    0.0000 </r>
       <r>   16.5163    0.0000 </r>
       <r>   17.4106    0.0000 </r>
       <r>   18.5873    0.0000 </r>
      </set>
      <set comment="kpoint 98">
       <r>    0.9115    1.0000 </r>
       <r>    1.9762    1.0000 </r>
       <r>    2.0659    1.0000 </r>
       <r>    3.6708    1.0000 </r>
       <r>    3.7909    1.0000 </r>
       <r>    4.2821    1.0000 </r>
       <r>    4.3777    1.0000 </r>
       <r>    4.4413    1.0000 </r>
       <r>    4.9483    1.0000 </r>
       <r>    5.0896    1.0000 </r>
       <r>    5.6939    1.0000 </r>
       <r>    5.7920    1.0000 </r>
       <r>    5.8560    1.0000 </r>
       <r>    6.0593    1.0000 </r>
       <r>    6.1997    1.0000 </r>
       <r>    6.3361    1.0000 </r>
       <r>    6.6767    1.0001 </r>
       <r>    8.2918   -0.0000 </r>
       <r>    8.5724   -0.0000 </r>
       <r>   14.6599    0.0000 </r>
       <r>   15.7574    0.0000 </r>
       <r>   16.0901    0.0000 </r>
       <r>   17.3000    0.0000 </r>
       <r>   18.4662    0.0000 </r>
      </set>
      <set comment="kpoint 99">
       <r>    1.1086    1.0000 </r>
       <r>    1.8230    1.0000 </r>
       <r>    2.1098    1.0000 </r>
       <r>    3.6384    1.0000 </r>
       <r>    3.7894    1.0000 </r>
       <r>    4.2972    1.0000 </r>
       <r>    4.4031    1.0000 </r>
       <r>    4.4334    1.0000 </r>
       <r>    5.0191    1.0000 </r>
       <r>    5.0274    1.0000 </r>
       <r>    5.6678    1.0000 </r>
       <r>    5.8018    1.0000 </r>
       <r>    5.8549    1.0000 </r>
       <r>    6.0266    1.0000 </r>
       <r>    6.2087    1.0000 </r>
       <r>    6.3040    1.0000 </r>
       <r>    6.6553    1.0000 </r>
       <r>    8.3581   -0.0000 </r>
       <r>    8.3613   -0.0000 </r>
       <r>   15.0075    0.0000 </r>
       <r>   15.5146    0.0000 </r>
       <r>   16.1106    0.0000 </r>
       <r>   17.3612    0.0000 </r>
       <r>   18.3010    0.0000 </r>
      </set>
      <set comment="kpoint 100">
       <r>    1.2976    1.0000 </r>
       <r>    1.9221    1.0000 </r>
       <r>    1.9221    1.0000 </r>
       <r>    3.5953    1.0000 </r>
       <r>    3.7856    1.0000 </r>
       <r>    4.3172    1.0000 </r>
       <r>    4.4279    1.0000 </r>
       <r>    4.4279    1.0000 </r>
       <r>    5.0268    1.0000 </r>
       <r>    5.0268    1.0000 </r>
       <r>    5.6453    1.0000 </r>
       <r>    5.8354    1.0000 </r>
       <r>    5.8354    1.0000 </r>
       <r>    5.9867    1.0000 </r>
       <r>    6.2139    1.0000 </r>
       <r>    6.2699    1.0000 </r>
       <r>    6.6407    1.0000 </r>
       <r>    8.2834   -0.0000 </r>
       <r>    8.2834   -0.0000 </r>
       <r>   15.4318    0.0000 </r>
       <r>   15.6683    0.0000 </r>
       <r>   15.6683    0.0000 </r>
       <r>   17.3981    0.0000 </r>
       <r>   18.1505    0.0000 </r>
      </set>
      <set comment="kpoint 101">
       <r>   -2.8864    1.0000 </r>
       <r>    2.5443    1.0000 </r>
       <r>    3.1408    1.0000 </r>
       <r>    3.1408    1.0000 </r>
       <r>    3.4946    1.0000 </r>
       <r>    3.6704    1.0000 </r>
       <r>    3.6704    1.0000 </r>
       <r>    5.2269    1.0000 </r>
       <r>    5.6706    1.0000 </r>
       <r>    5.6706    1.0000 </r>
       <r>    6.3549    1.0000 </r>
       <r>    6.3549    1.0000 </r>
       <r>    6.5844    1.0000 </r>
       <r>    6.5844    1.0000 </r>
       <r>    6.7910    1.0013 </r>
       <r>    7.1844    0.8774 </r>
       <r>    8.1766   -0.0000 </r>
       <r>    8.7367   -0.0000 </r>
       <r>    8.7367   -0.0000 </r>
       <r>   15.3892    0.0000 </r>
       <r>   15.3892    0.0000 </r>
       <r>   16.6634    0.0000 </r>
       <r>   18.1472    0.0000 </r>
       <r>   18.4688    0.0000 </r>
      </set>
      <set comment="kpoint 102">
       <r>   -2.6884    1.0000 </r>
       <r>    2.5923    1.0000 </r>
       <r>    3.0341    1.0000 </r>
       <r>    3.2667    1.0000 </r>
       <r>    3.4941    1.0000 </r>
       <r>    3.7050    1.0000 </r>
       <r>    3.7475    1.0000 </r>
       <r>    5.0935    1.0000 </r>
       <r>    5.5480    1.0000 </r>
       <r>    5.6928    1.0000 </r>
       <r>    6.0757    1.0000 </r>
       <r>    6.2811    1.0000 </r>
       <r>    6.4871    1.0000 </r>
       <r>    6.5790    1.0000 </r>
       <r>    6.7083    1.0002 </r>
       <r>    7.1650    0.9247 </r>
       <r>    7.8782   -0.0001 </r>
       <r>    8.9086   -0.0000 </r>
       <r>    9.0669   -0.0000 </r>
       <r>   15.3339    0.0000 </r>
       <r>   15.9030    0.0000 </r>
       <r>   17.0685    0.0000 </r>
       <r>   17.4408    0.0000 </r>
       <r>   17.5710    0.0000 </r>
      </set>
      <set comment="kpoint 103">
       <r>   -2.4146    1.0000 </r>
       <r>    2.5343    1.0000 </r>
       <r>    2.9597    1.0000 </r>
       <r>    3.4301    1.0000 </r>
       <r>    3.5102    1.0000 </r>
       <r>    3.7545    1.0000 </r>
       <r>    3.8308    1.0000 </r>
       <r>    4.9736    1.0000 </r>
       <r>    5.4000    1.0000 </r>
       <r>    5.6330    1.0000 </r>
       <r>    5.8499    1.0000 </r>
       <r>    6.1845    1.0000 </r>
       <r>    6.3574    1.0000 </r>
       <r>    6.5756    1.0000 </r>
       <r>    6.6344    1.0000 </r>
       <r>    7.1372    0.9760 </r>
       <r>    7.4207    0.0517 </r>
       <r>    9.3373   -0.0000 </r>
       <r>    9.4588   -0.0000 </r>
       <r>   15.1647    0.0000 </r>
       <r>   16.0694    0.0000 </r>
       <r>   16.5275    0.0000 </r>
       <r>   16.8502    0.0000 </r>
       <r>   18.0305    0.0000 </r>
      </set>
      <set comment="kpoint 104">
       <r>   -2.0690    1.0000 </r>
       <r>    2.2392    1.0000 </r>
       <r>    3.0221    1.0000 </r>
       <r>    3.5390    1.0000 </r>
       <r>    3.6097    1.0000 </r>
       <r>    3.8273    1.0000 </r>
       <r>    3.9094    1.0000 </r>
       <r>    4.8809    1.0000 </r>
       <r>    5.2409    1.0000 </r>
       <r>    5.4480    1.0000 </r>
       <r>    5.7679    1.0000 </r>
       <r>    6.0894    1.0000 </r>
       <r>    6.2011    1.0000 </r>
       <r>    6.5188    1.0000 </r>
       <r>    6.6057    1.0000 </r>
       <r>    7.0292    1.0349 </r>
       <r>    7.1093    1.0094 </r>
       <r>    9.8374   -0.0000 </r>
       <r>    9.8906   -0.0000 </r>
       <r>   14.7709    0.0000 </r>
       <r>   15.4108    0.0000 </r>
       <r>   16.4335    0.0000 </r>
       <r>   16.5545    0.0000 </r>
       <r>   18.6900    0.0000 </r>
      </set>
      <set comment="kpoint 105">
       <r>   -1.6580    1.0000 </r>
       <r>    1.7834    1.0000 </r>
       <r>    3.1438    1.0000 </r>
       <r>    3.5718    1.0000 </r>
       <r>    3.7539    1.0000 </r>
       <r>    3.9563    1.0000 </r>
       <r>    3.9685    1.0000 </r>
       <r>    4.8273    1.0000 </r>
       <r>    5.0809    1.0000 </r>
       <r>    5.2808    1.0000 </r>
       <r>    5.7228    1.0000 </r>
       <r>    6.0140    1.0000 </r>
       <r>    6.0330    1.0000 </r>
       <r>    6.4089    1.0000 </r>
       <r>    6.6119    1.0000 </r>
       <r>    6.7312    1.0003 </r>
       <r>    7.0869    1.0252 </r>
       <r>   10.3470   -0.0000 </r>
       <r>   10.3819   -0.0000 </r>
       <r>   14.1906    0.0000 </r>
       <r>   14.5980    0.0000 </r>
       <r>   16.2899    0.0000 </r>
       <r>   16.7743    0.0000 </r>
       <r>   18.9737    0.0000 </r>
      </set>
      <set comment="kpoint 106">
       <r>   -1.1934    1.0000 </r>
       <r>    1.2448    1.0000 </r>
       <r>    3.2729    1.0000 </r>
       <r>    3.5925    1.0000 </r>
       <r>    3.8336    1.0000 </r>
       <r>    3.9985    1.0000 </r>
       <r>    4.1459    1.0000 </r>
       <r>    4.8220    1.0000 </r>
       <r>    4.9258    1.0000 </r>
       <r>    5.1773    1.0000 </r>
       <r>    5.6761    1.0000 </r>
       <r>    5.8774    1.0000 </r>
       <r>    5.9713    1.0000 </r>
       <r>    6.2835    1.0000 </r>
       <r>    6.5220    1.0000 </r>
       <r>    6.6199    1.0000 </r>
       <r>    7.0717    1.0314 </r>
       <r>   10.8098   -0.0000 </r>
       <r>   10.9592   -0.0000 </r>
       <r>   13.5769    0.0000 </r>
       <r>   13.8214    0.0000 </r>
       <r>   16.2714    0.0000 </r>
       <r>   17.0291    0.0000 </r>
       <r>   18.7881    0.0000 </r>
      </set>
      <set comment="kpoint 107">
       <r>   -0.7071    1.0000 </r>
       <r>    0.6971    1.0000 </r>
       <r>    3.3864    1.0000 </r>
       <r>    3.5832    1.0000 </r>
       <r>    3.8772    1.0000 </r>
       <r>    4.0081    1.0000 </r>
       <r>    4.3348    1.0000 </r>
       <r>    4.7808    1.0000 </r>
       <r>    4.8523    1.0000 </r>
       <r>    5.1218    1.0000 </r>
       <r>    5.6338    1.0000 </r>
       <r>    5.7649    1.0000 </r>
       <r>    5.9683    1.0000 </r>
       <r>    6.1664    1.0000 </r>
       <r>    6.3968    1.0000 </r>
       <r>    6.6256    1.0000 </r>
       <r>    7.0633    1.0335 </r>
       <r>   11.2319   -0.0000 </r>
       <r>   11.5469   -0.0000 </r>
       <r>   13.0486    0.0000 </r>
       <r>   13.1134    0.0000 </r>
       <r>   16.2881    0.0000 </r>
       <r>   17.2891    0.0000 </r>
       <r>   18.4491    0.0000 </r>
      </set>
      <set comment="kpoint 108">
       <r>   -0.3965    1.0000 </r>
       <r>    0.3632    1.0000 </r>
       <r>    3.4455    1.0000 </r>
       <r>    3.5602    1.0000 </r>
       <r>    3.8920    1.0000 </r>
       <r>    4.0103    1.0000 </r>
       <r>    4.4397    1.0000 </r>
       <r>    4.6944    1.0000 </r>
       <r>    4.8736    1.0000 </r>
       <r>    5.1018    1.0000 </r>
       <r>    5.6154    1.0000 </r>
       <r>    5.7237    1.0000 </r>
       <r>    5.9845    1.0000 </r>
       <r>    6.1061    1.0000 </r>
       <r>    6.3550    1.0000 </r>
       <r>    6.6276    1.0000 </r>
       <r>    7.0606    1.0340 </r>
       <r>   11.4420   -0.0000 </r>
       <r>   11.9407   -0.0000 </r>
       <r>   12.6795   -0.0000 </r>
       <r>   12.8013    0.0000 </r>
       <r>   16.2981    0.0000 </r>
       <r>   17.4314    0.0000 </r>
       <r>   18.2692    0.0000 </r>
      </set>
      <set comment="kpoint 109">
       <r>   -2.4926    1.0000 </r>
       <r>    2.6520    1.0000 </r>
       <r>    3.0385    1.0000 </r>
       <r>    3.2722    1.0000 </r>
       <r>    3.4851    1.0000 </r>
       <r>    3.7517    1.0000 </r>
       <r>    3.8171    1.0000 </r>
       <r>    4.9616    1.0000 </r>
       <r>    5.4920    1.0000 </r>
       <r>    5.6030    1.0000 </r>
       <r>    5.9730    1.0000 </r>
       <r>    6.1692    1.0000 </r>
       <r>    6.4481    1.0000 </r>
       <r>    6.5333    1.0000 </r>
       <r>    6.6010    1.0000 </r>
       <r>    7.1474    0.9593 </r>
       <r>    7.9667   -0.0000 </r>
       <r>    8.6547   -0.0000 </r>
       <r>    9.3039   -0.0000 </r>
       <r>   15.4158    0.0000 </r>
       <r>   16.3693    0.0000 </r>
       <r>   16.6038    0.0000 </r>
       <r>   17.2907    0.0000 </r>
       <r>   17.7485    0.0000 </r>
      </set>
      <set comment="kpoint 110">
       <r>   -2.2221    1.0000 </r>
       <r>    2.6251    1.0000 </r>
       <r>    2.9716    1.0000 </r>
       <r>    3.3937    1.0000 </r>
       <r>    3.5001    1.0000 </r>
       <r>    3.7973    1.0000 </r>
       <r>    3.9066    1.0000 </r>
       <r>    4.8470    1.0000 </r>
       <r>    5.3623    1.0000 </r>
       <r>    5.4583    1.0000 </r>
       <r>    5.8889    1.0000 </r>
       <r>    6.0979    1.0000 </r>
       <r>    6.3440    1.0000 </r>
       <r>    6.5068    1.0000 </r>
       <r>    6.5233    1.0000 </r>
       <r>    7.1136    1.0054 </r>
       <r>    7.6299   -0.0179 </r>
       <r>    8.8421   -0.0000 </r>
       <r>    9.6730   -0.0000 </r>
       <r>   14.9603    0.0000 </r>
       <r>   16.0760    0.0000 </r>
       <r>   16.5909    0.0000 </r>
       <r>   17.1987    0.0000 </r>
       <r>   17.7065    0.0000 </r>
      </set>
      <set comment="kpoint 111">
       <r>   -1.8809    1.0000 </r>
       <r>    2.3497    1.0000 </r>
       <r>    3.0263    1.0000 </r>
       <r>    3.5063    1.0000 </r>
       <r>    3.5855    1.0000 </r>
       <r>    3.8595    1.0000 </r>
       <r>    3.9904    1.0000 </r>
       <r>    4.7656    1.0000 </r>
       <r>    5.1854    1.0000 </r>
       <r>    5.3131    1.0000 </r>
       <r>    5.8366    1.0000 </r>
       <r>    6.0374    1.0000 </r>
       <r>    6.2030    1.0000 </r>
       <r>    6.4214    1.0000 </r>
       <r>    6.5260    1.0000 </r>
       <r>    7.0700    1.0319 </r>
       <r>    7.2241    0.7523 </r>
       <r>    9.2181   -0.0000 </r>
       <r>   10.0927   -0.0000 </r>
       <r>   14.2452    0.0000 </r>
       <r>   15.4403    0.0000 </r>
       <r>   16.5040    0.0000 </r>
       <r>   17.3752    0.0000 </r>
       <r>   18.0254    0.0000 </r>
      </set>
      <set comment="kpoint 112">
       <r>   -1.4758    1.0000 </r>
       <r>    1.9082    1.0000 </r>
       <r>    3.1388    1.0000 </r>
       <r>    3.5464    1.0000 </r>
       <r>    3.7346    1.0000 </r>
       <r>    3.9611    1.0000 </r>
       <r>    4.0501    1.0000 </r>
       <r>    4.7347    1.0000 </r>
       <r>    5.0063    1.0000 </r>
       <r>    5.2010    1.0000 </r>
       <r>    5.7857    1.0000 </r>
       <r>    5.9946    1.0000 </r>
       <r>    6.0480    1.0000 </r>
       <r>    6.3284    1.0000 </r>
       <r>    6.5330    1.0000 </r>
       <r>    6.8827    1.0074 </r>
       <r>    7.0395    1.0354 </r>
       <r>    9.6443   -0.0000 </r>
       <r>   10.5417   -0.0000 </r>
       <r>   13.5219    0.0000 </r>
       <r>   14.6917    0.0000 </r>
       <r>   16.5556    0.0000 </r>
       <r>   17.6063    0.0000 </r>
       <r>   18.3966    0.0000 </r>
      </set>
      <set comment="kpoint 113">
       <r>   -1.0189    1.0000 </r>
       <r>    1.3851    1.0000 </r>
       <r>    3.2549    1.0000 </r>
       <r>    3.5662    1.0000 </r>
       <r>    3.8310    1.0000 </r>
       <r>    4.0524    1.0000 </r>
       <r>    4.1473    1.0000 </r>
       <r>    4.7639    1.0000 </r>
       <r>    4.8470    1.0000 </r>
       <r>    5.1156    1.0000 </r>
       <r>    5.7401    1.0000 </r>
       <r>    5.8909    1.0000 </r>
       <r>    5.9829    1.0000 </r>
       <r>    6.2270    1.0000 </r>
       <r>    6.5402    1.0000 </r>
       <r>    6.6436    1.0000 </r>
       <r>    7.0074    1.0318 </r>
       <r>   10.0928   -0.0000 </r>
       <r>   10.9799   -0.0000 </r>
       <r>   12.8986    0.0000 </r>
       <r>   13.9640    0.0000 </r>
       <r>   16.6558    0.0000 </r>
       <r>   17.8542    0.0000 </r>
       <r>   18.7343    0.0000 </r>
      </set>
      <set comment="kpoint 114">
       <r>   -0.5437    1.0000 </r>
       <r>    0.8538    1.0000 </r>
       <r>    3.3553    1.0000 </r>
       <r>    3.5539    1.0000 </r>
       <r>    3.8855    1.0000 </r>
       <r>    4.0557    1.0000 </r>
       <r>    4.3351    1.0000 </r>
       <r>    4.6936    1.0000 </r>
       <r>    4.8313    1.0000 </r>
       <r>    5.0517    1.0000 </r>
       <r>    5.7108    1.0000 </r>
       <r>    5.7736    1.0000 </r>
       <r>    5.9933    1.0000 </r>
       <r>    6.1303    1.0000 </r>
       <r>    6.4945    1.0000 </r>
       <r>    6.5458    1.0000 </r>
       <r>    6.9891    1.0281 </r>
       <r>   10.5351   -0.0000 </r>
       <r>   11.2638   -0.0000 </r>
       <r>   12.5421   -0.0000 </r>
       <r>   13.3071    0.0000 </r>
       <r>   16.7454    0.0000 </r>
       <r>   18.1043    0.0000 </r>
       <r>   18.8308    0.0000 </r>
      </set>
      <set comment="kpoint 115">
       <r>   -0.2456    1.0000 </r>
       <r>    0.5344    1.0000 </r>
       <r>    3.4065    1.0000 </r>
       <r>    3.5317    1.0000 </r>
       <r>    3.9058    1.0000 </r>
       <r>    4.0530    1.0000 </r>
       <r>    4.4848    1.0000 </r>
       <r>    4.5628    1.0000 </r>
       <r>    4.8730    1.0000 </r>
       <r>    5.0194    1.0000 </r>
       <r>    5.7128    1.0000 </r>
       <r>    5.7149    1.0000 </r>
       <r>    6.0240    1.0000 </r>
       <r>    6.0687    1.0000 </r>
       <r>    6.4435    1.0000 </r>
       <r>    6.5475    1.0000 </r>
       <r>    6.9831    1.0267 </r>
       <r>   10.8092   -0.0000 </r>
       <r>   11.2382   -0.0000 </r>
       <r>   12.6301   -0.0000 </r>
       <r>   12.8740    0.0000 </r>
       <r>   16.7814    0.0000 </r>
       <r>   18.2529    0.0000 </r>
       <r>   18.7296    0.0000 </r>
      </set>
      <set comment="kpoint 116">
       <r>   -1.9563    1.0000 </r>
       <r>    2.6992    1.0000 </r>
       <r>    2.8829    1.0000 </r>
       <r>    3.4273    1.0000 </r>
       <r>    3.5232    1.0000 </r>
       <r>    3.8339    1.0000 </r>
       <r>    4.0074    1.0000 </r>
       <r>    4.7334    1.0000 </r>
       <r>    5.2419    1.0000 </r>
       <r>    5.3116    1.0000 </r>
       <r>    5.9252    1.0000 </r>
       <r>    6.0217    1.0000 </r>
       <r>    6.2924    1.0000 </r>
       <r>    6.3901    1.0000 </r>
       <r>    6.4736    1.0000 </r>
       <r>    7.0722    1.0312 </r>
       <r>    7.6631   -0.0116 </r>
       <r>    8.5447   -0.0000 </r>
       <r>   10.0003   -0.0000 </r>
       <r>   14.2122    0.0000 </r>
       <r>   16.1511    0.0000 </r>
       <r>   16.6616    0.0000 </r>
       <r>   17.0320    0.0000 </r>
       <r>   18.0256    0.0000 </r>
      </set>
      <set comment="kpoint 117">
       <r>   -1.6217    1.0000 </r>
       <r>    2.4877    1.0000 </r>
       <r>    2.9170    1.0000 </r>
       <r>    3.5165    1.0000 </r>
       <r>    3.5948    1.0000 </r>
       <r>    3.8825    1.0000 </r>
       <r>    4.1043    1.0000 </r>
       <r>    4.6511    1.0000 </r>
       <r>    5.0477    1.0000 </r>
       <r>    5.2444    1.0000 </r>
       <r>    5.8974    1.0000 </r>
       <r>    5.9922    1.0000 </r>
       <r>    6.1876    1.0000 </r>
       <r>    6.2922    1.0000 </r>
       <r>    6.4548    1.0000 </r>
       <r>    7.0176    1.0335 </r>
       <r>    7.3793    0.1519 </r>
       <r>    8.6810   -0.0000 </r>
       <r>   10.3632   -0.0000 </r>
       <r>   13.4320    0.0000 </r>
       <r>   15.7422    0.0000 </r>
       <r>   16.5415    0.0000 </r>
       <r>   17.2263    0.0000 </r>
       <r>   18.4395    0.0000 </r>
      </set>
      <set comment="kpoint 118">
       <r>   -1.2252    1.0000 </r>
       <r>    2.0693    1.0000 </r>
       <r>    3.0270    1.0000 </r>
       <r>    3.5800    1.0000 </r>
       <r>    3.7190    1.0000 </r>
       <r>    3.9618    1.0000 </r>
       <r>    4.1649    1.0000 </r>
       <r>    4.6311    1.0000 </r>
       <r>    4.8849    1.0000 </r>
       <r>    5.1779    1.0000 </r>
       <r>    5.8197    1.0000 </r>
       <r>    6.0046    1.0000 </r>
       <r>    6.0561    1.0000 </r>
       <r>    6.2093    1.0000 </r>
       <r>    6.4498    1.0000 </r>
       <r>    6.9448    1.0181 </r>
       <r>    7.0612    1.0339 </r>
       <r>    8.9992   -0.0000 </r>
       <r>   10.7093   -0.0000 </r>
       <r>   12.7650    0.0000 </r>
       <r>   14.9962    0.0000 </r>
       <r>   16.6847    0.0000 </r>
       <r>   17.5853    0.0000 </r>
       <r>   18.7000    0.0000 </r>
      </set>
      <set comment="kpoint 119">
       <r>   -0.7798    1.0000 </r>
       <r>    1.5702    1.0000 </r>
       <r>    3.1238    1.0000 </r>
       <r>    3.6210    1.0000 </r>
       <r>    3.8196    1.0000 </r>
       <r>    4.0786    1.0000 </r>
       <r>    4.1903    1.0000 </r>
       <r>    4.6756    1.0000 </r>
       <r>    4.7689    1.0000 </r>
       <r>    5.1046    1.0000 </r>
       <r>    5.7581    1.0000 </r>
       <r>    5.9243    1.0000 </r>
       <r>    6.0108    1.0000 </r>
       <r>    6.1408    1.0000 </r>
       <r>    6.4475    1.0000 </r>
       <r>    6.7560    1.0006 </r>
       <r>    6.9388    1.0168 </r>
       <r>    9.3783   -0.0000 </r>
       <r>   10.8882   -0.0000 </r>
       <r>   12.3812   -0.0000 </r>
       <r>   14.2659    0.0000 </r>
       <r>   16.8539    0.0000 </r>
       <r>   17.9831    0.0000 </r>
       <r>   18.9036    0.0000 </r>
      </set>
      <set comment="kpoint 120">
       <r>   -0.3208    1.0000 </r>
       <r>    1.0639    1.0000 </r>
       <r>    3.1911    1.0000 </r>
       <r>    3.6353    1.0000 </r>
       <r>    3.8841    1.0000 </r>
       <r>    4.1156    1.0000 </r>
       <r>    4.3030    1.0000 </r>
       <r>    4.6099    1.0000 </r>
       <r>    4.8162    1.0000 </r>
       <r>    5.0245    1.0000 </r>
       <r>    5.7153    1.0000 </r>
       <r>    5.8250    1.0000 </r>
       <r>    6.0137    1.0000 </r>
       <r>    6.0960    1.0000 </r>
       <r>    6.4457    1.0000 </r>
       <r>    6.5909    1.0000 </r>
       <r>    6.9037    1.0104 </r>
       <r>    9.7881   -0.0000 </r>
       <r>   10.6987   -0.0000 </r>
       <r>   12.4843   -0.0000 </r>
       <r>   13.6038    0.0000 </r>
       <r>   16.9911    0.0000 </r>
       <r>   18.3693    0.0000 </r>
       <r>   18.9931    0.0000 </r>
      </set>
      <set comment="kpoint 121">
       <r>   -0.0401    1.0000 </r>
       <r>    0.7650    1.0000 </r>
       <r>    3.2158    1.0000 </r>
       <r>    3.6358    1.0000 </r>
       <r>    3.9098    1.0000 </r>
       <r>    4.1098    1.0000 </r>
       <r>    4.4231    1.0000 </r>
       <r>    4.5121    1.0000 </r>
       <r>    4.8884    1.0000 </r>
       <r>    4.9633    1.0000 </r>
       <r>    5.6973    1.0000 </r>
       <r>    5.7858    1.0000 </r>
       <r>    6.0228    1.0000 </r>
       <r>    6.0762    1.0000 </r>
       <r>    6.4449    1.0000 </r>
       <r>    6.5311    1.0000 </r>
       <r>    6.8929    1.0088 </r>
       <r>   10.1085   -0.0000 </r>
       <r>   10.4066   -0.0000 </r>
       <r>   12.7783    0.0000 </r>
       <r>   13.1679    0.0000 </r>
       <r>   17.0456    0.0000 </r>
       <r>   18.5977    0.0000 </r>
       <r>   18.9304    0.0000 </r>
      </set>
      <set comment="kpoint 122">
       <r>   -1.2959    1.0000 </r>
       <r>    2.6123    1.0000 </r>
       <r>    2.6724    1.0000 </r>
       <r>    3.5861    1.0000 </r>
       <r>    3.6451    1.0000 </r>
       <r>    3.9135    1.0000 </r>
       <r>    4.2230    1.0000 </r>
       <r>    4.5537    1.0000 </r>
       <r>    4.8966    1.0000 </r>
       <r>    5.2092    1.0000 </r>
       <r>    5.8965    1.0000 </r>
       <r>    5.9848    1.0000 </r>
       <r>    6.1268    1.0000 </r>
       <r>    6.1835    1.0000 </r>
       <r>    6.4037    1.0000 </r>
       <r>    6.9521    1.0197 </r>
       <r>    7.3584    0.2185 </r>
       <r>    8.4334   -0.0000 </r>
       <r>   10.6189   -0.0000 </r>
       <r>   12.7169   -0.0000 </r>
       <r>   16.0558    0.0000 </r>
       <r>   16.1359    0.0000 </r>
       <r>   16.9966    0.0000 </r>
       <r>   19.3801    0.0000 </r>
      </set>
      <set comment="kpoint 123">
       <r>   -0.9113    1.0000 </r>
       <r>    2.2509    1.0000 </r>
       <r>    2.7819    1.0000 </r>
       <r>    3.6560    1.0000 </r>
       <r>    3.7359    1.0000 </r>
       <r>    3.9693    1.0000 </r>
       <r>    4.2939    1.0000 </r>
       <r>    4.5242    1.0000 </r>
       <r>    4.7790    1.0000 </r>
       <r>    5.1710    1.0000 </r>
       <r>    5.8309    1.0000 </r>
       <r>    6.0074    1.0000 </r>
       <r>    6.0370    1.0000 </r>
       <r>    6.1077    1.0000 </r>
       <r>    6.3771    1.0000 </r>
       <r>    6.8775    1.0068 </r>
       <r>    7.1314    0.9843 </r>
       <r>    8.5304   -0.0000 </r>
       <r>   10.7061   -0.0000 </r>
       <r>   12.2923   -0.0000 </r>
       <r>   15.3508    0.0000 </r>
       <r>   16.4527    0.0000 </r>
       <r>   17.1751    0.0000 </r>
       <r>   19.6826    0.0000 </r>
      </set>
      <set comment="kpoint 124">
       <r>   -0.4818    1.0000 </r>
       <r>    1.7868    1.0000 </r>
       <r>    2.8930    1.0000 </r>
       <r>    3.7054    1.0000 </r>
       <r>    3.8194    1.0000 </r>
       <r>    4.0650    1.0000 </r>
       <r>    4.2817    1.0000 </r>
       <r>    4.5685    1.0000 </r>
       <r>    4.7355    1.0000 </r>
       <r>    5.1112    1.0000 </r>
       <r>    5.7674    1.0000 </r>
       <r>    5.9230    1.0000 </r>
       <r>    6.0063    1.0000 </r>
       <r>    6.0941    1.0000 </r>
       <r>    6.3588    1.0000 </r>
       <r>    6.7877    1.0012 </r>
       <r>    6.9044    1.0105 </r>
       <r>    8.7957   -0.0000 </r>
       <r>   10.4488   -0.0000 </r>
       <r>   12.3443   -0.0000 </r>
       <r>   14.6212    0.0000 </r>
       <r>   16.7887    0.0000 </r>
       <r>   17.4521    0.0000 </r>
       <r>   19.4297    0.0000 </r>
      </set>
      <set comment="kpoint 125">
       <r>   -0.0449    1.0000 </r>
       <r>    1.3159    1.0000 </r>
       <r>    2.9641    1.0000 </r>
       <r>    3.7247    1.0000 </r>
       <r>    3.8803    1.0000 </r>
       <r>    4.1527    1.0000 </r>
       <r>    4.2838    1.0000 </r>
       <r>    4.5411    1.0000 </r>
       <r>    4.8188    1.0000 </r>
       <r>    5.0297    1.0000 </r>
       <r>    5.7180    1.0000 </r>
       <r>    5.8321    1.0000 </r>
       <r>    5.9912    1.0000 </r>
       <r>    6.1146    1.0000 </r>
       <r>    6.3414    1.0000 </r>
       <r>    6.6615    1.0000 </r>
       <r>    6.8112    1.0019 </r>
       <r>    9.1381   -0.0000 </r>
       <r>   10.0099   -0.0000 </r>
       <r>   12.7031   -0.0000 </r>
       <r>   13.9631    0.0000 </r>
       <r>   17.0321    0.0000 </r>
       <r>   17.7839    0.0000 </r>
       <r>   19.0221    0.0000 </r>
      </set>
      <set comment="kpoint 126">
       <r>    0.2137    1.0000 </r>
       <r>    1.0437    1.0000 </r>
       <r>    2.9885    1.0000 </r>
       <r>    3.7273    1.0000 </r>
       <r>    3.9052    1.0000 </r>
       <r>    4.1698    1.0000 </r>
       <r>    4.3200    1.0000 </r>
       <r>    4.5064    1.0000 </r>
       <r>    4.9127    1.0000 </r>
       <r>    4.9501    1.0000 </r>
       <r>    5.6994    1.0000 </r>
       <r>    5.7893    1.0000 </r>
       <r>    5.9942    1.0000 </r>
       <r>    6.1242    1.0000 </r>
       <r>    6.3332    1.0000 </r>
       <r>    6.6033    1.0000 </r>
       <r>    6.7905    1.0012 </r>
       <r>    9.4667   -0.0000 </r>
       <r>    9.6362   -0.0000 </r>
       <r>   13.0296    0.0000 </r>
       <r>   13.5499    0.0000 </r>
       <r>   17.1213    0.0000 </r>
       <r>   17.9970    0.0000 </r>
       <r>   18.7765    0.0000 </r>
      </set>
      <set comment="kpoint 127">
       <r>   -0.5426    1.0000 </r>
       <r>    2.4313    1.0000 </r>
       <r>    2.4319    1.0000 </r>
       <r>    3.7117    1.0000 </r>
       <r>    3.7910    1.0000 </r>
       <r>    4.0065    1.0000 </r>
       <r>    4.4121    1.0000 </r>
       <r>    4.4365    1.0000 </r>
       <r>    4.7168    1.0000 </r>
       <r>    5.1562    1.0000 </r>
       <r>    5.8274    1.0000 </r>
       <r>    5.9160    1.0000 </r>
       <r>    6.0046    1.0000 </r>
       <r>    6.1001    1.0000 </r>
       <r>    6.3266    1.0000 </r>
       <r>    6.7932    1.0013 </r>
       <r>    7.0654    1.0330 </r>
       <r>    8.3399   -0.0000 </r>
       <r>   10.3655   -0.0000 </r>
       <r>   12.2958   -0.0000 </r>
       <r>   15.6509    0.0000 </r>
       <r>   15.8446    0.0000 </r>
       <r>   17.3078    0.0000 </r>
       <r>   19.5964    0.0000 </r>
      </set>
      <set comment="kpoint 128">
       <r>   -0.1345    1.0000 </r>
       <r>    2.0146    1.0000 </r>
       <r>    2.5858    1.0000 </r>
       <r>    3.7395    1.0000 </r>
       <r>    3.8389    1.0000 </r>
       <r>    4.0897    1.0000 </r>
       <r>    4.3668    1.0000 </r>
       <r>    4.4852    1.0000 </r>
       <r>    4.7398    1.0000 </r>
       <r>    5.1154    1.0000 </r>
       <r>    5.7867    1.0000 </r>
       <r>    5.8394    1.0000 </r>
       <r>    5.9689    1.0000 </r>
       <r>    6.1219    1.0000 </r>
       <r>    6.2898    1.0000 </r>
       <r>    6.7113    1.0002 </r>
       <r>    6.8922    1.0087 </r>
       <r>    8.4133   -0.0000 </r>
       <r>    9.8643   -0.0000 </r>
       <r>   12.6076   -0.0000 </r>
       <r>   15.0119    0.0000 </r>
       <r>   16.1743    0.0000 </r>
       <r>   17.5321    0.0000 </r>
       <r>   19.0833    0.0000 </r>
      </set>
      <set comment="kpoint 129">
       <r>    0.2736    1.0000 </r>
       <r>    1.5911    1.0000 </r>
       <r>    2.6895    1.0000 </r>
       <r>    3.7430    1.0000 </r>
       <r>    3.8773    1.0000 </r>
       <r>    4.1765    1.0000 </r>
       <r>    4.3347    1.0000 </r>
       <r>    4.4843    1.0000 </r>
       <r>    4.8440    1.0000 </r>
       <r>    5.0469    1.0000 </r>
       <r>    5.7314    1.0000 </r>
       <r>    5.7751    1.0000 </r>
       <r>    5.9734    1.0000 </r>
       <r>    6.1460    1.0000 </r>
       <r>    6.2526    1.0000 </r>
       <r>    6.6568    1.0000 </r>
       <r>    6.7373    1.0004 </r>
       <r>    8.6400   -0.0000 </r>
       <r>    9.3812   -0.0000 </r>
       <r>   13.0384    0.0000 </r>
       <r>   14.3682    0.0000 </r>
       <r>   16.5289    0.0000 </r>
       <r>   17.7689    0.0000 </r>
       <r>   18.5699    0.0000 </r>
      </set>
      <set comment="kpoint 130">
       <r>    0.5060    1.0000 </r>
       <r>    1.3517    1.0000 </r>
       <r>    2.7260    1.0000 </r>
       <r>    3.7404    1.0000 </r>
       <r>    3.8945    1.0000 </r>
       <r>    4.2130    1.0000 </r>
       <r>    4.3265    1.0000 </r>
       <r>    4.4762    1.0000 </r>
       <r>    4.9433    1.0000 </r>
       <r>    4.9683    1.0000 </r>
       <r>    5.7207    1.0000 </r>
       <r>    5.7308    1.0000 </r>
       <r>    5.9839    1.0000 </r>
       <r>    6.1617    1.0000 </r>
       <r>    6.2306    1.0000 </r>
       <r>    6.6473    1.0000 </r>
       <r>    6.6690    1.0001 </r>
       <r>    8.9334   -0.0000 </r>
       <r>    9.0026   -0.0000 </r>
       <r>   13.3583    0.0000 </r>
       <r>   13.9799    0.0000 </r>
       <r>   16.6875    0.0000 </r>
       <r>   17.9465    0.0000 </r>
       <r>   18.2684    0.0000 </r>
      </set>
      <set comment="kpoint 131">
       <r>    0.2455    1.0000 </r>
       <r>    2.2104    1.0000 </r>
       <r>    2.2394    1.0000 </r>
       <r>    3.7108    1.0000 </r>
       <r>    3.8595    1.0000 </r>
       <r>    4.1739    1.0000 </r>
       <r>    4.4083    1.0000 </r>
       <r>    4.4422    1.0000 </r>
       <r>    4.7955    1.0000 </r>
       <r>    5.1002    1.0000 </r>
       <r>    5.7267    1.0000 </r>
       <r>    5.8307    1.0000 </r>
       <r>    5.9221    1.0000 </r>
       <r>    6.1540    1.0000 </r>
       <r>    6.2370    1.0000 </r>
       <r>    6.6154    1.0000 </r>
       <r>    6.8118    1.0020 </r>
       <r>    8.2726   -0.0000 </r>
       <r>    9.3199   -0.0000 </r>
       <r>   12.9981    0.0000 </r>
       <r>   15.2859    0.0000 </r>
       <r>   15.6214    0.0000 </r>
       <r>   17.7286    0.0000 </r>
       <r>   18.5467    0.0000 </r>
      </set>
      <set comment="kpoint 132">
       <r>    0.6173    1.0000 </r>
       <r>    1.8589    1.0000 </r>
       <r>    2.3795    1.0000 </r>
       <r>    3.6674    1.0000 </r>
       <r>    3.8753    1.0000 </r>
       <r>    4.2570    1.0000 </r>
       <r>    4.4014    1.0000 </r>
       <r>    4.4423    1.0000 </r>
       <r>    4.8900    1.0000 </r>
       <r>    5.0572    1.0000 </r>
       <r>    5.6560    1.0000 </r>
       <r>    5.8114    1.0000 </r>
       <r>    5.9309    1.0000 </r>
       <r>    6.1684    1.0000 </r>
       <r>    6.1905    1.0000 </r>
       <r>    6.5506    1.0000 </r>
       <r>    6.7059    1.0002 </r>
       <r>    8.3365   -0.0000 </r>
       <r>    8.8752   -0.0000 </r>
       <r>   13.4449    0.0000 </r>
       <r>   14.7864    0.0000 </r>
       <r>   15.8671    0.0000 </r>
       <r>   17.7852    0.0000 </r>
       <r>   18.1911    0.0000 </r>
      </set>
      <set comment="kpoint 133">
       <r>    0.8206    1.0000 </r>
       <r>    1.6569    1.0000 </r>
       <r>    2.4371    1.0000 </r>
       <r>    3.6478    1.0000 </r>
       <r>    3.8818    1.0000 </r>
       <r>    4.2883    1.0000 </r>
       <r>    4.4006    1.0000 </r>
       <r>    4.4420    1.0000 </r>
       <r>    4.9770    1.0000 </r>
       <r>    4.9940    1.0000 </r>
       <r>    5.6298    1.0000 </r>
       <r>    5.7896    1.0000 </r>
       <r>    5.9504    1.0000 </r>
       <r>    6.1520    1.0000 </r>
       <r>    6.1869    1.0000 </r>
       <r>    6.5346    1.0000 </r>
       <r>    6.6549    1.0000 </r>
       <r>    8.5380   -0.0000 </r>
       <r>    8.5532   -0.0000 </r>
       <r>   13.7546    0.0000 </r>
       <r>   14.4224    0.0000 </r>
       <r>   16.0365    0.0000 </r>
       <r>   17.6733    0.0000 </r>
       <r>   18.1648    0.0000 </r>
      </set>
      <set comment="kpoint 134">
       <r>    0.9465    1.0000 </r>
       <r>    2.0570    1.0000 </r>
       <r>    2.0832    1.0000 </r>
       <r>    3.5707    1.0000 </r>
       <r>    3.8728    1.0000 </r>
       <r>    4.3427    1.0000 </r>
       <r>    4.4167    1.0000 </r>
       <r>    4.4528    1.0000 </r>
       <r>    4.9508    1.0000 </r>
       <r>    5.0469    1.0000 </r>
       <r>    5.5833    1.0000 </r>
       <r>    5.8652    1.0000 </r>
       <r>    5.8867    1.0000 </r>
       <r>    6.1207    1.0000 </r>
       <r>    6.1936    1.0000 </r>
       <r>    6.4603    1.0000 </r>
       <r>    6.6598    1.0000 </r>
       <r>    8.2327   -0.0000 </r>
       <r>    8.5138   -0.0000 </r>
       <r>   13.8929    0.0000 </r>
       <r>   15.0603    0.0000 </r>
       <r>   15.3540    0.0000 </r>
       <r>   17.3835    0.0000 </r>
       <r>   18.2993    0.0000 </r>
      </set>
      <set comment="kpoint 135">
       <r>    1.1205    1.0000 </r>
       <r>    1.9025    1.0000 </r>
       <r>    2.1541    1.0000 </r>
       <r>    3.5262    1.0000 </r>
       <r>    3.8717    1.0000 </r>
       <r>    4.3726    1.0000 </r>
       <r>    4.4175    1.0000 </r>
       <r>    4.4686    1.0000 </r>
       <r>    5.0065    1.0000 </r>
       <r>    5.0126    1.0000 </r>
       <r>    5.5553    1.0000 </r>
       <r>    5.8546    1.0000 </r>
       <r>    5.9046    1.0000 </r>
       <r>    6.0865    1.0000 </r>
       <r>    6.1998    1.0000 </r>
       <r>    6.4307    1.0000 </r>
       <r>    6.6346    1.0000 </r>
       <r>    8.2988   -0.0000 </r>
       <r>    8.2994   -0.0000 </r>
       <r>   14.2065    0.0000 </r>
       <r>   14.8095    0.0000 </r>
       <r>   15.4089    0.0000 </r>
       <r>   17.1754    0.0000 </r>
       <r>   18.3748    0.0000 </r>
      </set>
      <set comment="kpoint 136">
       <r>    1.2780    1.0000 </r>
       <r>    2.0024    1.0000 </r>
       <r>    2.0024    1.0000 </r>
       <r>    3.4687    1.0000 </r>
       <r>    3.8679    1.0000 </r>
       <r>    4.4088    1.0000 </r>
       <r>    4.4088    1.0000 </r>
       <r>    4.4959    1.0000 </r>
       <r>    5.0191    1.0000 </r>
       <r>    5.0191    1.0000 </r>
       <r>    5.5261    1.0000 </r>
       <r>    5.8850    1.0000 </r>
       <r>    5.8850    1.0000 </r>
       <r>    6.0517    1.0000 </r>
       <r>    6.2031    1.0000 </r>
       <r>    6.3958    1.0000 </r>
       <r>    6.6198    1.0000 </r>
       <r>    8.2196   -0.0000 </r>
       <r>    8.2196   -0.0000 </r>
       <r>   14.5707    0.0000 </r>
       <r>   14.9840    0.0000 </r>
       <r>   14.9840    0.0000 </r>
       <r>   16.9620    0.0000 </r>
       <r>   18.4622    0.0000 </r>
      </set>
      <set comment="kpoint 137">
       <r>   -2.2993    1.0000 </r>
       <r>    2.7033    1.0000 </r>
       <r>    3.1663    1.0000 </r>
       <r>    3.1663    1.0000 </r>
       <r>    3.4680    1.0000 </r>
       <r>    3.8439    1.0000 </r>
       <r>    3.8439    1.0000 </r>
       <r>    4.8417    1.0000 </r>
       <r>    5.4613    1.0000 </r>
       <r>    5.4613    1.0000 </r>
       <r>    6.0056    1.0000 </r>
       <r>    6.0056    1.0000 </r>
       <r>    6.4552    1.0000 </r>
       <r>    6.4552    1.0000 </r>
       <r>    6.4768    1.0000 </r>
       <r>    7.1531    0.9490 </r>
       <r>    8.1129   -0.0000 </r>
       <r>    8.8761   -0.0000 </r>
       <r>    8.8761   -0.0000 </r>
       <r>   15.9872    0.0000 </r>
       <r>   15.9872    0.0000 </r>
       <r>   16.4332    0.0000 </r>
       <r>   17.2313    0.0000 </r>
       <r>   17.2313    0.0000 </r>
      </set>
      <set comment="kpoint 138">
       <r>   -2.0323    1.0000 </r>
       <r>    2.6877    1.0000 </r>
       <r>    3.0434    1.0000 </r>
       <r>    3.3335    1.0000 </r>
       <r>    3.4812    1.0000 </r>
       <r>    3.8819    1.0000 </r>
       <r>    3.9390    1.0000 </r>
       <r>    4.7437    1.0000 </r>
       <r>    5.3080    1.0000 </r>
       <r>    5.3373    1.0000 </r>
       <r>    5.9162    1.0000 </r>
       <r>    6.0111    1.0000 </r>
       <r>    6.3467    1.0000 </r>
       <r>    6.3705    1.0000 </r>
       <r>    6.4621    1.0000 </r>
       <r>    7.1313    0.9844 </r>
       <r>    7.8332   -0.0004 </r>
       <r>    8.9608   -0.0000 </r>
       <r>    9.1489   -0.0000 </r>
       <r>   15.2559    0.0000 </r>
       <r>   15.5169    0.0000 </r>
       <r>   16.5835    0.0000 </r>
       <r>   17.1493    0.0000 </r>
       <r>   17.5246    0.0000 </r>
      </set>
      <set comment="kpoint 139">
       <r>   -1.6960    1.0000 </r>
       <r>    2.4426    1.0000 </r>
       <r>    3.0435    1.0000 </r>
       <r>    3.5189    1.0000 </r>
       <r>    3.5258    1.0000 </r>
       <r>    3.9331    1.0000 </r>
       <r>    4.0200    1.0000 </r>
       <r>    4.6859    1.0000 </r>
       <r>    5.1488    1.0000 </r>
       <r>    5.1809    1.0000 </r>
       <r>    5.8781    1.0000 </r>
       <r>    5.9929    1.0000 </r>
       <r>    6.2160    1.0000 </r>
       <r>    6.2895    1.0000 </r>
       <r>    6.4668    1.0000 </r>
       <r>    7.0910    1.0230 </r>
       <r>    7.3938    0.1121 </r>
       <r>    9.3328   -0.0000 </r>
       <r>    9.4538   -0.0000 </r>
       <r>   14.4628    0.0000 </r>
       <r>   14.6899    0.0000 </r>
       <r>   16.9988    0.0000 </r>
       <r>   17.2359    0.0000 </r>
       <r>   17.7723    0.0000 </r>
      </set>
      <set comment="kpoint 140">
       <r>   -1.2974    1.0000 </r>
       <r>    2.0210    1.0000 </r>
       <r>    3.1129    1.0000 </r>
       <r>    3.5682    1.0000 </r>
       <r>    3.7164    1.0000 </r>
       <r>    4.0067    1.0000 </r>
       <r>    4.0683    1.0000 </r>
       <r>    4.6847    1.0000 </r>
       <r>    4.9880    1.0000 </r>
       <r>    5.0576    1.0000 </r>
       <r>    5.8504    1.0000 </r>
       <r>    5.9664    1.0000 </r>
       <r>    6.0772    1.0000 </r>
       <r>    6.2237    1.0000 </r>
       <r>    6.4683    1.0000 </r>
       <r>    7.0146    1.0330 </r>
       <r>    7.0436    1.0354 </r>
       <r>    9.7737   -0.0000 </r>
       <r>    9.7808   -0.0000 </r>
       <r>   13.7313    0.0000 </r>
       <r>   13.8972    0.0000 </r>
       <r>   17.3761    0.0000 </r>
       <r>   17.4216    0.0000 </r>
       <r>   18.0271    0.0000 </r>
      </set>
      <set comment="kpoint 141">
       <r>   -0.8491    1.0000 </r>
       <r>    1.5163    1.0000 </r>
       <r>    3.1856    1.0000 </r>
       <r>    3.6065    1.0000 </r>
       <r>    3.8577    1.0000 </r>
       <r>    4.0878    1.0000 </r>
       <r>    4.1286    1.0000 </r>
       <r>    4.7379    1.0000 </r>
       <r>    4.8278    1.0000 </r>
       <r>    4.9815    1.0000 </r>
       <r>    5.8164    1.0000 </r>
       <r>    5.9525    1.0000 </r>
       <r>    5.9531    1.0000 </r>
       <r>    6.1579    1.0000 </r>
       <r>    6.4672    1.0000 </r>
       <r>    6.7308    1.0003 </r>
       <r>    7.0013    1.0307 </r>
       <r>   10.0862   -0.0000 </r>
       <r>   10.2590   -0.0000 </r>
       <r>   13.1131    0.0000 </r>
       <r>   13.1742    0.0000 </r>
       <r>   17.5231    0.0000 </r>
       <r>   17.8381    0.0000 </r>
       <r>   18.3130    0.0000 </r>
      </set>
      <set comment="kpoint 142">
       <r>   -0.3862    1.0000 </r>
       <r>    1.0039    1.0000 </r>
       <r>    3.2408    1.0000 </r>
       <r>    3.6187    1.0000 </r>
       <r>    3.9269    1.0000 </r>
       <r>    4.1013    1.0000 </r>
       <r>    4.2964    1.0000 </r>
       <r>    4.6681    1.0000 </r>
       <r>    4.8117    1.0000 </r>
       <r>    4.9357    1.0000 </r>
       <r>    5.7777    1.0000 </r>
       <r>    5.8705    1.0000 </r>
       <r>    5.9644    1.0000 </r>
       <r>    6.0887    1.0000 </r>
       <r>    6.4654    1.0000 </r>
       <r>    6.5540    1.0000 </r>
       <r>    6.9731    1.0245 </r>
       <r>   10.3443   -0.0000 </r>
       <r>   10.7147   -0.0000 </r>
       <r>   12.5718   -0.0000 </r>
       <r>   12.6674   -0.0000 </r>
       <r>   17.6369    0.0000 </r>
       <r>   18.1816    0.0000 </r>
       <r>   18.6449    0.0000 </r>
      </set>
      <set comment="kpoint 143">
       <r>   -0.1016    1.0000 </r>
       <r>    0.7002    1.0000 </r>
       <r>    3.2623    1.0000 </r>
       <r>    3.6177    1.0000 </r>
       <r>    3.9469    1.0000 </r>
       <r>    4.1087    1.0000 </r>
       <r>    4.4278    1.0000 </r>
       <r>    4.5456    1.0000 </r>
       <r>    4.8573    1.0000 </r>
       <r>    4.9084    1.0000 </r>
       <r>    5.7589    1.0000 </r>
       <r>    5.8423    1.0000 </r>
       <r>    5.9887    1.0000 </r>
       <r>    6.0431    1.0000 </r>
       <r>    6.4647    1.0000 </r>
       <r>    6.4938    1.0000 </r>
       <r>    6.9634    1.0222 </r>
       <r>   10.4534   -0.0000 </r>
       <r>   10.9533   -0.0000 </r>
       <r>   12.2843   -0.0000 </r>
       <r>   12.4952   -0.0000 </r>
       <r>   17.6804    0.0000 </r>
       <r>   18.3210    0.0000 </r>
       <r>   18.9716    0.0000 </r>
      </set>
      <set comment="kpoint 144">
       <r>   -1.7706    1.0000 </r>
       <r>    2.7164    1.0000 </r>
       <r>    3.0140    1.0000 </r>
       <r>    3.3504    1.0000 </r>
       <r>    3.5094    1.0000 </r>
       <r>    3.9318    1.0000 </r>
       <r>    4.0197    1.0000 </r>
       <r>    4.6575    1.0000 </r>
       <r>    5.1758    1.0000 </r>
       <r>    5.2196    1.0000 </r>
       <r>    5.9360    1.0000 </r>
       <r>    5.9695    1.0000 </r>
       <r>    6.2413    1.0000 </r>
       <r>    6.3123    1.0000 </r>
       <r>    6.4136    1.0000 </r>
       <r>    7.1178    1.0010 </r>
       <r>    7.8774   -0.0001 </r>
       <r>    8.6684   -0.0000 </r>
       <r>    9.3239   -0.0000 </r>
       <r>   14.5257    0.0000 </r>
       <r>   15.7108    0.0000 </r>
       <r>   15.7917    0.0000 </r>
       <r>   17.4056    0.0000 </r>
       <r>   18.1411    0.0000 </r>
      </set>
      <set comment="kpoint 145">
       <r>   -1.4415    1.0000 </r>
       <r>    2.5451    1.0000 </r>
       <r>    2.9716    1.0000 </r>
       <r>    3.4993    1.0000 </r>
       <r>    3.5690    1.0000 </r>
       <r>    3.9693    1.0000 </r>
       <r>    4.1064    1.0000 </r>
       <r>    4.6090    1.0000 </r>
       <r>    5.0190    1.0000 </r>
       <r>    5.1144    1.0000 </r>
       <r>    5.9186    1.0000 </r>
       <r>    5.9697    1.0000 </r>
       <r>    6.1412    1.0000 </r>
       <r>    6.2169    1.0000 </r>
       <r>    6.4052    1.0000 </r>
       <r>    7.0788    1.0289 </r>
       <r>    7.5509   -0.0343 </r>
       <r>    8.7831   -0.0000 </r>
       <r>    9.6110   -0.0000 </r>
       <r>   13.7210    0.0000 </r>
       <r>   14.9101    0.0000 </r>
       <r>   16.1314    0.0000 </r>
       <r>   17.5882    0.0000 </r>
       <r>   18.6144    0.0000 </r>
      </set>
      <set comment="kpoint 146">
       <r>   -1.0523    1.0000 </r>
       <r>    2.1615    1.0000 </r>
       <r>    3.0087    1.0000 </r>
       <r>    3.6401    1.0000 </r>
       <r>    3.6837    1.0000 </r>
       <r>    4.0147    1.0000 </r>
       <r>    4.1583    1.0000 </r>
       <r>    4.6211    1.0000 </r>
       <r>    4.8864    1.0000 </r>
       <r>    5.0173    1.0000 </r>
       <r>    5.8802    1.0000 </r>
       <r>    5.9635    1.0000 </r>
       <r>    6.0795    1.0000 </r>
       <r>    6.1152    1.0000 </r>
       <r>    6.4021    1.0000 </r>
       <r>    7.0215    1.0340 </r>
       <r>    7.1609    0.9334 </r>
       <r>    9.0824   -0.0000 </r>
       <r>    9.9142   -0.0000 </r>
       <r>   13.0199    0.0000 </r>
       <r>   14.1307    0.0000 </r>
       <r>   16.5440    0.0000 </r>
       <r>   17.7898    0.0000 </r>
       <r>   18.9069    0.0000 </r>
      </set>
      <set comment="kpoint 147">
       <r>   -0.6169    1.0000 </r>
       <r>    1.6872    1.0000 </r>
       <r>    3.0514    1.0000 </r>
       <r>    3.6947    1.0000 </r>
       <r>    3.8490    1.0000 </r>
       <r>    4.0816    1.0000 </r>
       <r>    4.1831    1.0000 </r>
       <r>    4.6773    1.0000 </r>
       <r>    4.7819    1.0000 </r>
       <r>    4.9433    1.0000 </r>
       <r>    5.8335    1.0000 </r>
       <r>    5.9301    1.0000 </r>
       <r>    6.0154    1.0000 </r>
       <r>    6.0830    1.0000 </r>
       <r>    6.3921    1.0000 </r>
       <r>    6.8277    1.0027 </r>
       <r>    6.9835    1.0269 </r>
       <r>    9.4194   -0.0000 </r>
       <r>   10.1830   -0.0000 </r>
       <r>   12.4875   -0.0000 </r>
       <r>   13.4353    0.0000 </r>
       <r>   16.9739    0.0000 </r>
       <r>   17.9944    0.0000 </r>
       <r>   19.0983    0.0000 </r>
      </set>
      <set comment="kpoint 148">
       <r>   -0.1722    1.0000 </r>
       <r>    1.2040    1.0000 </r>
       <r>    3.0815    1.0000 </r>
       <r>    3.7161    1.0000 </r>
       <r>    3.9488    1.0000 </r>
       <r>    4.1600    1.0000 </r>
       <r>    4.2268    1.0000 </r>
       <r>    4.6379    1.0000 </r>
       <r>    4.7932    1.0000 </r>
       <r>    4.8944    1.0000 </r>
       <r>    5.7914    1.0000 </r>
       <r>    5.8888    1.0000 </r>
       <r>    5.9796    1.0000 </r>
       <r>    6.0834    1.0000 </r>
       <r>    6.3781    1.0000 </r>
       <r>    6.6217    1.0000 </r>
       <r>    6.9431    1.0177 </r>
       <r>    9.7386   -0.0000 </r>
       <r>   10.3221   -0.0000 </r>
       <r>   12.2297   -0.0000 </r>
       <r>   12.8597    0.0000 </r>
       <r>   17.3660    0.0000 </r>
       <r>   18.1746    0.0000 </r>
       <r>   18.9922    0.0000 </r>
      </set>
      <set comment="kpoint 149">
       <r>    0.0933    1.0000 </r>
       <r>    0.9232    1.0000 </r>
       <r>    3.0924    1.0000 </r>
       <r>    3.7191    1.0000 </r>
       <r>    3.9787    1.0000 </r>
       <r>    4.1826    1.0000 </r>
       <r>    4.2787    1.0000 </r>
       <r>    4.5843    1.0000 </r>
       <r>    4.8347    1.0000 </r>
       <r>    4.8659    1.0000 </r>
       <r>    5.7763    1.0000 </r>
       <r>    5.8668    1.0000 </r>
       <r>    5.9738    1.0000 </r>
       <r>    6.0846    1.0000 </r>
       <r>    6.3712    1.0000 </r>
       <r>    6.5479    1.0000 </r>
       <r>    6.9294    1.0149 </r>
       <r>    9.9088   -0.0000 </r>
       <r>   10.3157   -0.0000 </r>
       <r>   12.2487   -0.0000 </r>
       <r>   12.5511   -0.0000 </r>
       <r>   17.5528    0.0000 </r>
       <r>   18.2756    0.0000 </r>
       <r>   18.7979    0.0000 </r>
      </set>
      <set comment="kpoint 150">
       <r>   -1.1222    1.0000 </r>
       <r>    2.5818    1.0000 </r>
       <r>    2.8056    1.0000 </r>
       <r>    3.5552    1.0000 </r>
       <r>    3.6552    1.0000 </r>
       <r>    3.9879    1.0000 </r>
       <r>    4.2093    1.0000 </r>
       <r>    4.5515    1.0000 </r>
       <r>    4.8897    1.0000 </r>
       <r>    5.0619    1.0000 </r>
       <r>    5.9321    1.0000 </r>
       <r>    5.9726    1.0000 </r>
       <r>    6.0091    1.0000 </r>
       <r>    6.1815    1.0000 </r>
       <r>    6.3643    1.0000 </r>
       <r>    7.0384    1.0354 </r>
       <r>    7.5321   -0.0355 </r>
       <r>    8.4712   -0.0000 </r>
       <r>    9.8255   -0.0000 </r>
       <r>   12.9770    0.0000 </r>
       <r>   15.2100    0.0000 </r>
       <r>   15.3490    0.0000 </r>
       <r>   17.8132    0.0000 </r>
       <r>   19.5388    0.0000 </r>
      </set>
      <set comment="kpoint 151">
       <r>   -0.7463    1.0000 </r>
       <r>    2.3082    1.0000 </r>
       <r>    2.8049    1.0000 </r>
       <r>    3.6616    1.0000 </r>
       <r>    3.7570    1.0000 </r>
       <r>    4.0127    1.0000 </r>
       <r>    4.2724    1.0000 </r>
       <r>    4.5489    1.0000 </r>
       <r>    4.7997    1.0000 </r>
       <r>    5.0082    1.0000 </r>
       <r>    5.8767    1.0000 </r>
       <r>    5.9320    1.0000 </r>
       <r>    5.9989    1.0000 </r>
       <r>    6.1252    1.0000 </r>
       <r>    6.3472    1.0000 </r>
       <r>    6.9765    1.0252 </r>
       <r>    7.2519    0.6462 </r>
       <r>    8.5502   -0.0000 </r>
       <r>    9.9864   -0.0000 </r>
       <r>   12.4148   -0.0000 </r>
       <r>   14.4864    0.0000 </r>
       <r>   15.6970    0.0000 </r>
       <r>   18.0379    0.0000 </r>
       <r>   19.5388    0.0000 </r>
      </set>
      <set comment="kpoint 152">
       <r>   -0.3289    1.0000 </r>
       <r>    1.8830    1.0000 </r>
       <r>    2.8549    1.0000 </r>
       <r>    3.7547    1.0000 </r>
       <r>    3.8583    1.0000 </r>
       <r>    4.0591    1.0000 </r>
       <r>    4.2885    1.0000 </r>
       <r>    4.5808    1.0000 </r>
       <r>    4.7709    1.0000 </r>
       <r>    4.9559    1.0000 </r>
       <r>    5.7990    1.0000 </r>
       <r>    5.8792    1.0000 </r>
       <r>    6.0244    1.0000 </r>
       <r>    6.1001    1.0000 </r>
       <r>    6.3287    1.0000 </r>
       <r>    6.8712    1.0061 </r>
       <r>    6.9767    1.0253 </r>
       <r>    8.7986   -0.0000 </r>
       <r>    9.9931   -0.0000 </r>
       <r>   12.1466   -0.0000 </r>
       <r>   13.7822    0.0000 </r>
       <r>   16.1310    0.0000 </r>
       <r>   18.2372    0.0000 </r>
       <r>   18.9878    0.0000 </r>
      </set>
      <set comment="kpoint 153">
       <r>    0.0906    1.0000 </r>
       <r>    1.4425    1.0000 </r>
       <r>    2.8875    1.0000 </r>
       <r>    3.7849    1.0000 </r>
       <r>    3.9571    1.0000 </r>
       <r>    4.1141    1.0000 </r>
       <r>    4.2998    1.0000 </r>
       <r>    4.5700    1.0000 </r>
       <r>    4.8124    1.0000 </r>
       <r>    4.9115    1.0000 </r>
       <r>    5.7531    1.0000 </r>
       <r>    5.8206    1.0000 </r>
       <r>    6.0469    1.0000 </r>
       <r>    6.1136    1.0000 </r>
       <r>    6.2996    1.0000 </r>
       <r>    6.6772    1.0001 </r>
       <r>    6.8951    1.0091 </r>
       <r>    9.0991   -0.0000 </r>
       <r>    9.8025   -0.0000 </r>
       <r>   12.2154   -0.0000 </r>
       <r>   13.1810    0.0000 </r>
       <r>   16.5395    0.0000 </r>
       <r>   18.2447    0.0000 </r>
       <r>   18.6354    0.0000 </r>
      </set>
      <set comment="kpoint 154">
       <r>    0.3315    1.0000 </r>
       <r>    1.1921    1.0000 </r>
       <r>    2.8985    1.0000 </r>
       <r>    3.7883    1.0000 </r>
       <r>    3.9990    1.0000 </r>
       <r>    4.1390    1.0000 </r>
       <r>    4.3075    1.0000 </r>
       <r>    4.5553    1.0000 </r>
       <r>    4.8443    1.0000 </r>
       <r>    4.8888    1.0000 </r>
       <r>    5.7449    1.0000 </r>
       <r>    5.7886    1.0000 </r>
       <r>    6.0576    1.0000 </r>
       <r>    6.1288    1.0000 </r>
       <r>    6.2811    1.0000 </r>
       <r>    6.5949    1.0000 </r>
       <r>    6.8751    1.0066 </r>
       <r>    9.3299   -0.0000 </r>
       <r>    9.5916   -0.0000 </r>
       <r>   12.4033   -0.0000 </r>
       <r>   12.8327    0.0000 </r>
       <r>   16.7449    0.0000 </r>
       <r>   18.0814    0.0000 </r>
       <r>   18.6233    0.0000 </r>
      </set>
      <set comment="kpoint 155">
       <r>   -0.3885    1.0000 </r>
       <r>    2.3820    1.0000 </r>
       <r>    2.5640    1.0000 </r>
       <r>    3.6783    1.0000 </r>
       <r>    3.8589    1.0000 </r>
       <r>    4.0368    1.0000 </r>
       <r>    4.3556    1.0000 </r>
       <r>    4.5086    1.0000 </r>
       <r>    4.7625    1.0000 </r>
       <r>    4.9972    1.0000 </r>
       <r>    5.7885    1.0000 </r>
       <r>    5.9136    1.0000 </r>
       <r>    5.9797    1.0000 </r>
       <r>    6.1282    1.0000 </r>
       <r>    6.3177    1.0000 </r>
       <r>    6.9105    1.0115 </r>
       <r>    7.1803    0.8883 </r>
       <r>    8.3086   -0.0000 </r>
       <r>    9.8917   -0.0000 </r>
       <r>   12.1156   -0.0000 </r>
       <r>   14.7841    0.0000 </r>
       <r>   15.0174    0.0000 </r>
       <r>   18.2298    0.0000 </r>
       <r>   18.9887    0.0000 </r>
      </set>
      <set comment="kpoint 156">
       <r>    0.0045    1.0000 </r>
       <r>    2.0809    1.0000 </r>
       <r>    2.5981    1.0000 </r>
       <r>    3.7046    1.0000 </r>
       <r>    3.9252    1.0000 </r>
       <r>    4.1017    1.0000 </r>
       <r>    4.3755    1.0000 </r>
       <r>    4.5191    1.0000 </r>
       <r>    4.7861    1.0000 </r>
       <r>    4.9774    1.0000 </r>
       <r>    5.6956    1.0000 </r>
       <r>    5.8841    1.0000 </r>
       <r>    5.9916    1.0000 </r>
       <r>    6.1369    1.0000 </r>
       <r>    6.2968    1.0000 </r>
       <r>    6.8269    1.0027 </r>
       <r>    6.9630    1.0221 </r>
       <r>    8.3671   -0.0000 </r>
       <r>    9.6068   -0.0000 </r>
       <r>   12.1579   -0.0000 </r>
       <r>   14.1723    0.0000 </r>
       <r>   15.3530    0.0000 </r>
       <r>   18.0580    0.0000 </r>
       <r>   18.7551    0.0000 </r>
      </set>
      <set comment="kpoint 157">
       <r>    0.3902    1.0000 </r>
       <r>    1.7011    1.0000 </r>
       <r>    2.6599    1.0000 </r>
       <r>    3.7182    1.0000 </r>
       <r>    3.9796    1.0000 </r>
       <r>    4.1474    1.0000 </r>
       <r>    4.4039    1.0000 </r>
       <r>    4.5103    1.0000 </r>
       <r>    4.8531    1.0000 </r>
       <r>    4.9493    1.0000 </r>
       <r>    5.6370    1.0000 </r>
       <r>    5.8358    1.0000 </r>
       <r>    6.0409    1.0000 </r>
       <r>    6.1510    1.0000 </r>
       <r>    6.2622    1.0000 </r>
       <r>    6.6977    1.0001 </r>
       <r>    6.8217    1.0024 </r>
       <r>    8.5796   -0.0000 </r>
       <r>    9.2430   -0.0000 </r>
       <r>   12.4254   -0.0000 </r>
       <r>   13.5645    0.0000 </r>
       <r>   15.7617    0.0000 </r>
       <r>   17.5792    0.0000 </r>
       <r>   18.8803    0.0000 </r>
      </set>
      <set comment="kpoint 158">
       <r>    0.6011    1.0000 </r>
       <r>    1.4893    1.0000 </r>
       <r>    2.6816    1.0000 </r>
       <r>    3.7206    1.0000 </r>
       <r>    4.0073    1.0000 </r>
       <r>    4.1550    1.0000 </r>
       <r>    4.4344    1.0000 </r>
       <r>    4.4920    1.0000 </r>
       <r>    4.9014    1.0000 </r>
       <r>    4.9212    1.0000 </r>
       <r>    5.6179    1.0000 </r>
       <r>    5.8160    1.0000 </r>
       <r>    6.0696    1.0000 </r>
       <r>    6.1627    1.0000 </r>
       <r>    6.2348    1.0000 </r>
       <r>    6.6227    1.0000 </r>
       <r>    6.7909    1.0013 </r>
       <r>    8.8185   -0.0000 </r>
       <r>    8.9491   -0.0000 </r>
       <r>   12.6729   -0.0000 </r>
       <r>   13.2114    0.0000 </r>
       <r>   15.9715    0.0000 </r>
       <r>   17.3324    0.0000 </r>
       <r>   18.9489    0.0000 </r>
      </set>
      <set comment="kpoint 159">
       <r>    0.3643    1.0000 </r>
       <r>    2.2069    1.0000 </r>
       <r>    2.3399    1.0000 </r>
       <r>    3.6334    1.0000 </r>
       <r>    3.9667    1.0000 </r>
       <r>    4.1950    1.0000 </r>
       <r>    4.3925    1.0000 </r>
       <r>    4.5369    1.0000 </r>
       <r>    4.8320    1.0000 </r>
       <r>    4.9910    1.0000 </r>
       <r>    5.5950    1.0000 </r>
       <r>    5.9178    1.0000 </r>
       <r>    5.9394    1.0000 </r>
       <r>    6.1611    1.0000 </r>
       <r>    6.2843    1.0000 </r>
       <r>    6.7499    1.0005 </r>
       <r>    6.8545    1.0046 </r>
       <r>    8.1943   -0.0000 </r>
       <r>    9.1598   -0.0000 </r>
       <r>   12.3994   -0.0000 </r>
       <r>   14.4706    0.0000 </r>
       <r>   14.7716    0.0000 </r>
       <r>   17.4507    0.0000 </r>
       <r>   18.9629    0.0000 </r>
      </set>
      <set comment="kpoint 160">
       <r>    0.7062    1.0000 </r>
       <r>    1.9506    1.0000 </r>
       <r>    2.4063    1.0000 </r>
       <r>    3.5786    1.0000 </r>
       <r>    3.9948    1.0000 </r>
       <r>    4.2498    1.0000 </r>
       <r>    4.4122    1.0000 </r>
       <r>    4.5642    1.0000 </r>
       <r>    4.9017    1.0000 </r>
       <r>    4.9868    1.0000 </r>
       <r>    5.5277    1.0000 </r>
       <r>    5.8802    1.0000 </r>
       <r>    5.9815    1.0000 </r>
       <r>    6.1757    1.0000 </r>
       <r>    6.2571    1.0000 </r>
       <r>    6.6684    1.0001 </r>
       <r>    6.7204    1.0002 </r>
       <r>    8.2482   -0.0000 </r>
       <r>    8.7602   -0.0000 </r>
       <r>   12.7571    0.0000 </r>
       <r>   13.9790    0.0000 </r>
       <r>   15.0566    0.0000 </r>
       <r>   16.9014    0.0000 </r>
       <r>   19.1694    0.0000 </r>
      </set>
      <set comment="kpoint 161">
       <r>    0.8821    1.0000 </r>
       <r>    1.7852    1.0000 </r>
       <r>    2.4495    1.0000 </r>
       <r>    3.5580    1.0000 </r>
       <r>    4.0062    1.0000 </r>
       <r>    4.2568    1.0000 </r>
       <r>    4.4368    1.0000 </r>
       <r>    4.5700    1.0000 </r>
       <r>    4.9586    1.0000 </r>
       <r>    4.9592    1.0000 </r>
       <r>    5.5046    1.0000 </r>
       <r>    5.8650    1.0000 </r>
       <r>    6.0083    1.0000 </r>
       <r>    6.1822    1.0000 </r>
       <r>    6.2320    1.0000 </r>
       <r>    6.6218    1.0000 </r>
       <r>    6.6763    1.0001 </r>
       <r>    8.4280   -0.0000 </r>
       <r>    8.4715   -0.0000 </r>
       <r>   13.0275    0.0000 </r>
       <r>   13.6314    0.0000 </r>
       <r>   15.2596    0.0000 </r>
       <r>   16.6437    0.0000 </r>
       <r>   19.2546    0.0000 </r>
      </set>
      <set comment="kpoint 162">
       <r>    0.9939    1.0000 </r>
       <r>    2.1225    1.0000 </r>
       <r>    2.1842    1.0000 </r>
       <r>    3.4527    1.0000 </r>
       <r>    4.0003    1.0000 </r>
       <r>    4.3359    1.0000 </r>
       <r>    4.3905    1.0000 </r>
       <r>    4.6483    1.0000 </r>
       <r>    4.9550    1.0000 </r>
       <r>    5.0065    1.0000 </r>
       <r>    5.4507    1.0000 </r>
       <r>    5.9319    1.0000 </r>
       <r>    5.9362    1.0000 </r>
       <r>    6.1861    1.0000 </r>
       <r>    6.2269    1.0000 </r>
       <r>    6.6024    1.0000 </r>
       <r>    6.6343    1.0000 </r>
       <r>    8.1290   -0.0000 </r>
       <r>    8.4050   -0.0000 </r>
       <r>   13.1566    0.0000 </r>
       <r>   14.2796    0.0000 </r>
       <r>   14.5346    0.0000 </r>
       <r>   16.3426    0.0000 </r>
       <r>   19.4009    0.0000 </r>
      </set>
      <set comment="kpoint 163">
       <r>    1.1325    1.0000 </r>
       <r>    2.0277    1.0000 </r>
       <r>    2.2333    1.0000 </r>
       <r>    3.3995    1.0000 </r>
       <r>    4.0016    1.0000 </r>
       <r>    4.3516    1.0000 </r>
       <r>    4.4019    1.0000 </r>
       <r>    4.6803    1.0000 </r>
       <r>    4.9949    1.0000 </r>
       <r>    4.9975    1.0000 </r>
       <r>    5.4228    1.0000 </r>
       <r>    5.9226    1.0000 </r>
       <r>    5.9603    1.0000 </r>
       <r>    6.1878    1.0000 </r>
       <r>    6.1943    1.0000 </r>
       <r>    6.5748    1.0000 </r>
       <r>    6.5983    1.0000 </r>
       <r>    8.1880   -0.0000 </r>
       <r>    8.1951   -0.0000 </r>
       <r>   13.4474    0.0000 </r>
       <r>   14.0245    0.0000 </r>
       <r>   14.6259    0.0000 </r>
       <r>   16.0891    0.0000 </r>
       <r>   19.4935    0.0000 </r>
      </set>
      <set comment="kpoint 164">
       <r>    1.2491    1.0000 </r>
       <r>    2.1288    1.0000 </r>
       <r>    2.1288    1.0000 </r>
       <r>    3.3282    1.0000 </r>
       <r>    3.9992    1.0000 </r>
       <r>    4.3902    1.0000 </r>
       <r>    4.3902    1.0000 </r>
       <r>    4.7237    1.0000 </r>
       <r>    5.0111    1.0000 </r>
       <r>    5.0111    1.0000 </r>
       <r>    5.3921    1.0000 </r>
       <r>    5.9515    1.0000 </r>
       <r>    5.9515    1.0000 </r>
       <r>    6.1532    1.0000 </r>
       <r>    6.1866    1.0000 </r>
       <r>    6.5402    1.0000 </r>
       <r>    6.5829    1.0000 </r>
       <r>    8.1080   -0.0000 </r>
       <r>    8.1080   -0.0000 </r>
       <r>   13.7865    0.0000 </r>
       <r>   14.2155    0.0000 </r>
       <r>   14.2155    0.0000 </r>
       <r>   15.8444    0.0000 </r>
       <r>   19.5882    0.0000 </r>
      </set>
      <set comment="kpoint 165">
       <r>   -1.5148    1.0000 </r>
       <r>    2.7025    1.0000 </r>
       <r>    3.1864    1.0000 </r>
       <r>    3.1864    1.0000 </r>
       <r>    3.5638    1.0000 </r>
       <r>    4.0372    1.0000 </r>
       <r>    4.0372    1.0000 </r>
       <r>    4.5952    1.0000 </r>
       <r>    5.0897    1.0000 </r>
       <r>    5.0897    1.0000 </r>
       <r>    5.9505    1.0000 </r>
       <r>    5.9505    1.0000 </r>
       <r>    6.1057    1.0000 </r>
       <r>    6.3294    1.0000 </r>
       <r>    6.3294    1.0000 </r>
       <r>    7.1276    0.9894 </r>
       <r>    7.9978   -0.0000 </r>
       <r>    8.8278   -0.0000 </r>
       <r>    8.8278   -0.0000 </r>
       <r>   14.8037    0.0000 </r>
       <r>   14.8037    0.0000 </r>
       <r>   15.0065    0.0000 </r>
       <r>   18.3080    0.0000 </r>
       <r>   18.3080    0.0000 </r>
      </set>
      <set comment="kpoint 166">
       <r>   -1.1938    1.0000 </r>
       <r>    2.5769    1.0000 </r>
       <r>    3.0294    1.0000 </r>
       <r>    3.3876    1.0000 </r>
       <r>    3.6502    1.0000 </r>
       <r>    4.0594    1.0000 </r>
       <r>    4.1254    1.0000 </r>
       <r>    4.5689    1.0000 </r>
       <r>    4.9706    1.0000 </r>
       <r>    4.9899    1.0000 </r>
       <r>    5.9420    1.0000 </r>
       <r>    5.9541    1.0000 </r>
       <r>    6.0046    1.0000 </r>
       <r>    6.2327    1.0000 </r>
       <r>    6.3434    1.0000 </r>
       <r>    7.1042    1.0139 </r>
       <r>    7.7217   -0.0044 </r>
       <r>    8.8503   -0.0000 </r>
       <r>    9.0089   -0.0000 </r>
       <r>   13.9860    0.0000 </r>
       <r>   14.1046    0.0000 </r>
       <r>   15.2539    0.0000 </r>
       <r>   18.5097    0.0000 </r>
       <r>   18.9384    0.0000 </r>
      </set>
      <set comment="kpoint 167">
       <r>   -0.8157    1.0000 </r>
       <r>    2.2631    1.0000 </r>
       <r>    2.9660    1.0000 </r>
       <r>    3.6003    1.0000 </r>
       <r>    3.7405    1.0000 </r>
       <r>    4.0839    1.0000 </r>
       <r>    4.1767    1.0000 </r>
       <r>    4.6005    1.0000 </r>
       <r>    4.8841    1.0000 </r>
       <r>    4.8922    1.0000 </r>
       <r>    5.8795    1.0000 </r>
       <r>    5.9212    1.0000 </r>
       <r>    6.0131    1.0000 </r>
       <r>    6.1466    1.0000 </r>
       <r>    6.3471    1.0000 </r>
       <r>    7.0577    1.0344 </r>
       <r>    7.2916    0.4808 </r>
       <r>    9.1557   -0.0000 </r>
       <r>    9.1959   -0.0000 </r>
       <r>   13.2877    0.0000 </r>
       <r>   13.3485    0.0000 </r>
       <r>   15.6662    0.0000 </r>
       <r>   18.7271    0.0000 </r>
       <r>   19.1469    0.0000 </r>
      </set>
      <set comment="kpoint 168">
       <r>   -0.3953    1.0000 </r>
       <r>    1.8347    1.0000 </r>
       <r>    2.9527    1.0000 </r>
       <r>    3.8002    1.0000 </r>
       <r>    3.8016    1.0000 </r>
       <r>    4.1050    1.0000 </r>
       <r>    4.2178    1.0000 </r>
       <r>    4.6658    1.0000 </r>
       <r>    4.7823    1.0000 </r>
       <r>    4.8575    1.0000 </r>
       <r>    5.8112    1.0000 </r>
       <r>    5.8784    1.0000 </r>
       <r>    6.0498    1.0000 </r>
       <r>    6.0987    1.0000 </r>
       <r>    6.3351    1.0000 </r>
       <r>    6.9226    1.0136 </r>
       <r>    7.0040    1.0312 </r>
       <r>    9.3687   -0.0000 </r>
       <r>    9.5150   -0.0000 </r>
       <r>   12.6901   -0.0000 </r>
       <r>   12.7394   -0.0000 </r>
       <r>   16.1085    0.0000 </r>
       <r>   18.7778    0.0000 </r>
       <r>   18.9320    0.0000 </r>
      </set>
      <set comment="kpoint 169">
       <r>    0.0279    1.0000 </r>
       <r>    1.3891    1.0000 </r>
       <r>    2.9519    1.0000 </r>
       <r>    3.8191    1.0000 </r>
       <r>    3.9634    1.0000 </r>
       <r>    4.1116    1.0000 </r>
       <r>    4.2699    1.0000 </r>
       <r>    4.7007    1.0000 </r>
       <r>    4.7076    1.0000 </r>
       <r>    4.8593    1.0000 </r>
       <r>    5.7690    1.0000 </r>
       <r>    5.8384    1.0000 </r>
       <r>    6.0885    1.0000 </r>
       <r>    6.0907    1.0000 </r>
       <r>    6.3093    1.0000 </r>
       <r>    6.6648    1.0000 </r>
       <r>    6.9619    1.0219 </r>
       <r>    9.4983   -0.0000 </r>
       <r>    9.8356   -0.0000 </r>
       <r>   12.1931   -0.0000 </r>
       <r>   12.3801   -0.0000 </r>
       <r>   16.5321    0.0000 </r>
       <r>   18.2730    0.0000 </r>
       <r>   19.0843    0.0000 </r>
      </set>
      <set comment="kpoint 170">
       <r>    0.2717    1.0000 </r>
       <r>    1.1351    1.0000 </r>
       <r>    2.9524    1.0000 </r>
       <r>    3.8207    1.0000 </r>
       <r>    4.0429    1.0000 </r>
       <r>    4.0977    1.0000 </r>
       <r>    4.2965    1.0000 </r>
       <r>    4.6670    1.0000 </r>
       <r>    4.7159    1.0000 </r>
       <r>    4.8680    1.0000 </r>
       <r>    5.7548    1.0000 </r>
       <r>    5.8249    1.0000 </r>
       <r>    6.0916    1.0000 </r>
       <r>    6.1122    1.0000 </r>
       <r>    6.2925    1.0000 </r>
       <r>    6.5667    1.0000 </r>
       <r>    6.9461    1.0183 </r>
       <r>    9.5479   -0.0000 </r>
       <r>    9.9787   -0.0000 </r>
       <r>   11.9915   -0.0000 </r>
       <r>   12.2531   -0.0000 </r>
       <r>   16.7529    0.0000 </r>
       <r>   18.0174    0.0000 </r>
       <r>   19.1416    0.0000 </r>
      </set>
      <set comment="kpoint 171">
       <r>   -0.8842    1.0000 </r>
       <r>    2.5349    1.0000 </r>
       <r>    2.9794    1.0000 </r>
       <r>    3.3935    1.0000 </r>
       <r>    3.7569    1.0000 </r>
       <r>    4.0907    1.0000 </r>
       <r>    4.1954    1.0000 </r>
       <r>    4.5487    1.0000 </r>
       <r>    4.8774    1.0000 </r>
       <r>    4.9350    1.0000 </r>
       <r>    5.8636    1.0000 </r>
       <r>    5.9594    1.0000 </r>
       <r>    5.9662    1.0000 </r>
       <r>    6.2141    1.0000 </r>
       <r>    6.3064    1.0000 </r>
       <r>    7.0918    1.0225 </r>
       <r>    7.7262   -0.0040 </r>
       <r>    8.5219   -0.0000 </r>
       <r>    9.0971   -0.0000 </r>
       <r>   13.2742    0.0000 </r>
       <r>   14.3410    0.0000 </r>
       <r>   14.4957    0.0000 </r>
       <r>   18.8889    0.0000 </r>
       <r>   19.4629    0.0000 </r>
      </set>
      <set comment="kpoint 172">
       <r>   -0.5217    1.0000 </r>
       <r>    2.3400    1.0000 </r>
       <r>    2.8720    1.0000 </r>
       <r>    3.5372    1.0000 </r>
       <r>    3.8579    1.0000 </r>
       <r>    4.1052    1.0000 </r>
       <r>    4.2529    1.0000 </r>
       <r>    4.5748    1.0000 </r>
       <r>    4.8195    1.0000 </r>
       <r>    4.8888    1.0000 </r>
       <r>    5.7595    1.0000 </r>
       <r>    5.9402    1.0000 </r>
       <r>    5.9923    1.0000 </r>
       <r>    6.1685    1.0000 </r>
       <r>    6.3033    1.0000 </r>
       <r>    7.0493    1.0353 </r>
       <r>    7.3976    0.1024 </r>
       <r>    8.5737   -0.0000 </r>
       <r>    9.2509   -0.0000 </r>
       <r>   12.6445   -0.0000 </r>
       <r>   13.6639    0.0000 </r>
       <r>   14.8348    0.0000 </r>
       <r>   18.6678    0.0000 </r>
       <r>   19.2661    0.0000 </r>
      </set>
      <set comment="kpoint 173">
       <r>   -0.1226    1.0000 </r>
       <r>    1.9932    1.0000 </r>
       <r>    2.8232    1.0000 </r>
       <r>    3.7017    1.0000 </r>
       <r>    3.9184    1.0000 </r>
       <r>    4.1202    1.0000 </r>
       <r>    4.3095    1.0000 </r>
       <r>    4.6146    1.0000 </r>
       <r>    4.7955    1.0000 </r>
       <r>    4.8619    1.0000 </r>
       <r>    5.6814    1.0000 </r>
       <r>    5.8974    1.0000 </r>
       <r>    6.0378    1.0000 </r>
       <r>    6.1537    1.0000 </r>
       <r>    6.2915    1.0000 </r>
       <r>    6.9713    1.0240 </r>
       <r>    7.0351    1.0353 </r>
       <r>    8.7816   -0.0000 </r>
       <r>    9.3738   -0.0000 </r>
       <r>   12.2022   -0.0000 </r>
       <r>   13.0259    0.0000 </r>
       <r>   15.2758    0.0000 </r>
       <r>   18.0228    0.0000 </r>
       <r>   19.4739    0.0000 </r>
      </set>
      <set comment="kpoint 174">
       <r>    0.2701    1.0000 </r>
       <r>    1.6065    1.0000 </r>
       <r>    2.8057    1.0000 </r>
       <r>    3.8157    1.0000 </r>
       <r>    3.9600    1.0000 </r>
       <r>    4.1138    1.0000 </r>
       <r>    4.3918    1.0000 </r>
       <r>    4.6122    1.0000 </r>
       <r>    4.7802    1.0000 </r>
       <r>    4.8738    1.0000 </r>
       <r>    5.6334    1.0000 </r>
       <r>    5.8630    1.0000 </r>
       <r>    6.0991    1.0000 </r>
       <r>    6.1713    1.0000 </r>
       <r>    6.2602    1.0000 </r>
       <r>    6.7072    1.0002 </r>
       <r>    6.9558    1.0205 </r>
       <r>    8.9861   -0.0000 </r>
       <r>    9.4243   -0.0000 </r>
       <r>   11.9969   -0.0000 </r>
       <r>   12.5333   -0.0000 </r>
       <r>   15.7060    0.0000 </r>
       <r>   17.4519    0.0000 </r>
       <r>   19.6481    0.0000 </r>
      </set>
      <set comment="kpoint 175">
       <r>    0.4856    1.0000 </r>
       <r>    1.3896    1.0000 </r>
       <r>    2.8012    1.0000 </r>
       <r>    3.8450    1.0000 </r>
       <r>    3.9983    1.0000 </r>
       <r>    4.0963    1.0000 </r>
       <r>    4.4398    1.0000 </r>
       <r>    4.5963    1.0000 </r>
       <r>    4.7708    1.0000 </r>
       <r>    4.8867    1.0000 </r>
       <r>    5.6173    1.0000 </r>
       <r>    5.8530    1.0000 </r>
       <r>    6.1484    1.0000 </r>
       <r>    6.1771    1.0000 </r>
       <r>    6.2403    1.0000 </r>
       <r>    6.5825    1.0000 </r>
       <r>    6.9367    1.0163 </r>
       <r>    9.0845   -0.0000 </r>
       <r>    9.4193   -0.0000 </r>
       <r>   11.9836   -0.0000 </r>
       <r>   12.3059   -0.0000 </r>
       <r>   15.9357    0.0000 </r>
       <r>   17.1740    0.0000 </r>
       <r>   19.7157    0.0000 </r>
      </set>
      <set comment="kpoint 176">
       <r>   -0.1805    1.0000 </r>
       <r>    2.3265    1.0000 </r>
       <r>    2.7342    1.0000 </r>
       <r>    3.5418    1.0000 </r>
       <r>    3.9584    1.0000 </r>
       <r>    4.1353    1.0000 </r>
       <r>    4.3097    1.0000 </r>
       <r>    4.5871    1.0000 </r>
       <r>    4.8025    1.0000 </r>
       <r>    4.8900    1.0000 </r>
       <r>    5.6467    1.0000 </r>
       <r>    5.9609    1.0000 </r>
       <r>    5.9668    1.0000 </r>
       <r>    6.1675    1.0000 </r>
       <r>    6.2922    1.0000 </r>
       <r>    7.0070    1.0318 </r>
       <r>    7.3329    0.3115 </r>
       <r>    8.2625   -0.0000 </r>
       <r>    9.2607   -0.0000 </r>
       <r>   12.1773   -0.0000 </r>
       <r>   13.9709    0.0000 </r>
       <r>   14.1686    0.0000 </r>
       <r>   17.9477    0.0000 </r>
       <r>   19.5557    0.0000 </r>
      </set>
      <set comment="kpoint 177">
       <r>    0.1887    1.0000 </r>
       <r>    2.1318    1.0000 </r>
       <r>    2.6589    1.0000 </r>
       <r>    3.5941    1.0000 </r>
       <r>    4.0179    1.0000 </r>
       <r>    4.1745    1.0000 </r>
       <r>    4.3602    1.0000 </r>
       <r>    4.6235    1.0000 </r>
       <r>    4.8251    1.0000 </r>
       <r>    4.8919    1.0000 </r>
       <r>    5.5593    1.0000 </r>
       <r>    5.9188    1.0000 </r>
       <r>    6.0059    1.0000 </r>
       <r>    6.1728    1.0000 </r>
       <r>    6.2915    1.0000 </r>
       <r>    6.9361    1.0162 </r>
       <r>    7.0579    1.0344 </r>
       <r>    8.2962   -0.0000 </r>
       <r>    9.1671   -0.0000 </r>
       <r>   11.9710   -0.0000 </r>
       <r>   13.3942    0.0000 </r>
       <r>   14.5171    0.0000 </r>
       <r>   17.2524    0.0000 </r>
       <r>   19.8227    0.0000 </r>
      </set>
      <set comment="kpoint 178">
       <r>    0.5398    1.0000 </r>
       <r>    1.8375    1.0000 </r>
       <r>    2.6438    1.0000 </r>
       <r>    3.6424    1.0000 </r>
       <r>    4.0682    1.0000 </r>
       <r>    4.1648    1.0000 </r>
       <r>    4.4507    1.0000 </r>
       <r>    4.6259    1.0000 </r>
       <r>    4.8556    1.0000 </r>
       <r>    4.9037    1.0000 </r>
       <r>    5.5047    1.0000 </r>
       <r>    5.8889    1.0000 </r>
       <r>    6.0636    1.0000 </r>
       <r>    6.1839    1.0000 </r>
       <r>    6.2941    1.0000 </r>
       <r>    6.7276    1.0003 </r>
       <r>    6.9170    1.0126 </r>
       <r>    8.4726   -0.0000 </r>
       <r>    8.9824   -0.0000 </r>
       <r>   12.0156   -0.0000 </r>
       <r>   12.8540    0.0000 </r>
       <r>   14.9429    0.0000 </r>
       <r>   16.6634    0.0000 </r>
       <r>   20.0277    0.0000 </r>
      </set>
      <set comment="kpoint 179">
       <r>    0.7200    1.0000 </r>
       <r>    1.6701    1.0000 </r>
       <r>    2.6418    1.0000 </r>
       <r>    3.6598    1.0000 </r>
       <r>    4.1098    1.0000 </r>
       <r>    4.1352    1.0000 </r>
       <r>    4.5068    1.0000 </r>
       <r>    4.6098    1.0000 </r>
       <r>    4.8606    1.0000 </r>
       <r>    4.9167    1.0000 </r>
       <r>    5.4864    1.0000 </r>
       <r>    5.8829    1.0000 </r>
       <r>    6.1018    1.0000 </r>
       <r>    6.1759    1.0000 </r>
       <r>    6.3179    1.0000 </r>
       <r>    6.5875    1.0000 </r>
       <r>    6.8926    1.0087 </r>
       <r>    8.6268   -0.0000 </r>
       <r>    8.8231   -0.0000 </r>
       <r>   12.1462   -0.0000 </r>
       <r>   12.5643   -0.0000 </r>
       <r>   15.1753    0.0000 </r>
       <r>   16.3767    0.0000 </r>
       <r>   20.1077    0.0000 </r>
      </set>
      <set comment="kpoint 180">
       <r>    0.5167    1.0000 </r>
       <r>    2.1813    1.0000 </r>
       <r>    2.5049    1.0000 </r>
       <r>    3.5130    1.0000 </r>
       <r>    4.0837    1.0000 </r>
       <r>    4.2530    1.0000 </r>
       <r>    4.3581    1.0000 </r>
       <r>    4.7051    1.0000 </r>
       <r>    4.8657    1.0000 </r>
       <r>    4.9231    1.0000 </r>
       <r>    5.4606    1.0000 </r>
       <r>    5.9521    1.0000 </r>
       <r>    5.9603    1.0000 </r>
       <r>    6.1814    1.0000 </r>
       <r>    6.3120    1.0000 </r>
       <r>    6.8752    1.0066 </r>
       <r>    6.9393    1.0169 </r>
       <r>    8.0783   -0.0000 </r>
       <r>    8.8690   -0.0000 </r>
       <r>   12.0043   -0.0000 </r>
       <r>   13.7075    0.0000 </r>
       <r>   13.9432    0.0000 </r>
       <r>   16.5432    0.0000 </r>
       <r>   20.1204    0.0000 </r>
      </set>
      <set comment="kpoint 181">
       <r>    0.8123    1.0000 </r>
       <r>    2.0534    1.0000 </r>
       <r>    2.4735    1.0000 </r>
       <r>    3.4687    1.0000 </r>
       <r>    4.1333    1.0000 </r>
       <r>    4.2577    1.0000 </r>
       <r>    4.4077    1.0000 </r>
       <r>    4.7659    1.0000 </r>
       <r>    4.9154    1.0000 </r>
       <r>    4.9445    1.0000 </r>
       <r>    5.3965    1.0000 </r>
       <r>    5.9289    1.0000 </r>
       <r>    6.0029    1.0000 </r>
       <r>    6.1875    1.0000 </r>
       <r>    6.3350    1.0000 </r>
       <r>    6.7051    1.0002 </r>
       <r>    6.8302    1.0029 </r>
       <r>    8.1144   -0.0000 </r>
       <r>    8.5607   -0.0000 </r>
       <r>   12.2199   -0.0000 </r>
       <r>   13.2376    0.0000 </r>
       <r>   14.2599    0.0000 </r>
       <r>   15.9492    0.0000 </r>
       <r>   20.3457    0.0000 </r>
      </set>
      <set comment="kpoint 182">
       <r>    0.9514    1.0000 </r>
       <r>    1.9506    1.0000 </r>
       <r>    2.4822    1.0000 </r>
       <r>    3.4555    1.0000 </r>
       <r>    4.1585    1.0000 </r>
       <r>    4.2405    1.0000 </r>
       <r>    4.4412    1.0000 </r>
       <r>    4.7844    1.0000 </r>
       <r>    4.9364    1.0000 </r>
       <r>    4.9539    1.0000 </r>
       <r>    5.3745    1.0000 </r>
       <r>    5.9282    1.0000 </r>
       <r>    6.0271    1.0000 </r>
       <r>    6.1863    1.0000 </r>
       <r>    6.3649    1.0000 </r>
       <r>    6.5731    1.0000 </r>
       <r>    6.8073    1.0018 </r>
       <r>    8.2568   -0.0000 </r>
       <r>    8.3353   -0.0000 </r>
       <r>   12.4255   -0.0000 </r>
       <r>   12.9224    0.0000 </r>
       <r>   14.4855    0.0000 </r>
       <r>   15.6610    0.0000 </r>
       <r>   20.4336    0.0000 </r>
      </set>
      <set comment="kpoint 183">
       <r>    1.0407    1.0000 </r>
       <r>    2.1925    1.0000 </r>
       <r>    2.3453    1.0000 </r>
       <r>    3.3317    1.0000 </r>
       <r>    4.1606    1.0000 </r>
       <r>    4.3426    1.0000 </r>
       <r>    4.3804    1.0000 </r>
       <r>    4.8830    1.0000 </r>
       <r>    4.9609    1.0000 </r>
       <r>    4.9802    1.0000 </r>
       <r>    5.3218    1.0000 </r>
       <r>    5.9742    1.0000 </r>
       <r>    5.9800    1.0000 </r>
       <r>    6.1843    1.0000 </r>
       <r>    6.3449    1.0000 </r>
       <r>    6.6153    1.0000 </r>
       <r>    6.7401    1.0004 </r>
       <r>    7.9758   -0.0000 </r>
       <r>    8.2327   -0.0000 </r>
       <r>   12.5357   -0.0000 </r>
       <r>   13.5505    0.0000 </r>
       <r>   13.7533    0.0000 </r>
       <r>   15.3596    0.0000 </r>
       <r>   20.5834    0.0000 </r>
      </set>
      <set comment="kpoint 184">
       <r>    1.1384    1.0000 </r>
       <r>    2.1861    1.0000 </r>
       <r>    2.3467    1.0000 </r>
       <r>    3.2762    1.0000 </r>
       <r>    4.1689    1.0000 </r>
       <r>    4.3468    1.0000 </r>
       <r>    4.4022    1.0000 </r>
       <r>    4.9227    1.0000 </r>
       <r>    4.9875    1.0000 </r>
       <r>    4.9898    1.0000 </r>
       <r>    5.2945    1.0000 </r>
       <r>    5.9850    1.0000 </r>
       <r>    6.0016    1.0000 </r>
       <r>    6.1781    1.0000 </r>
       <r>    6.3375    1.0000 </r>
       <r>    6.5439    1.0000 </r>
       <r>    6.7146    1.0002 </r>
       <r>    8.0228   -0.0000 </r>
       <r>    8.0384   -0.0000 </r>
       <r>   12.7881    0.0000 </r>
       <r>   13.2975    0.0000 </r>
       <r>   13.8809    0.0000 </r>
       <r>   15.0792    0.0000 </r>
       <r>   20.6756    0.0000 </r>
      </set>
      <set comment="kpoint 185">
       <r>    1.2154    1.0000 </r>
       <r>    2.2886    1.0000 </r>
       <r>    2.2886    1.0000 </r>
       <r>    3.1946    1.0000 </r>
       <r>    4.1714    1.0000 </r>
       <r>    4.3895    1.0000 </r>
       <r>    4.3895    1.0000 </r>
       <r>    4.9765    1.0000 </r>
       <r>    5.0055    1.0000 </r>
       <r>    5.0055    1.0000 </r>
       <r>    5.2640    1.0000 </r>
       <r>    6.0177    1.0000 </r>
       <r>    6.0177    1.0000 </r>
       <r>    6.1665    1.0000 </r>
       <r>    6.2838    1.0000 </r>
       <r>    6.5273    1.0000 </r>
       <r>    6.6810    1.0001 </r>
       <r>    7.9439   -0.0000 </r>
       <r>    7.9439   -0.0000 </r>
       <r>   13.0907    0.0000 </r>
       <r>   13.4983    0.0000 </r>
       <r>   13.4983    0.0000 </r>
       <r>   14.8105    0.0000 </r>
       <r>   20.7692    0.0000 </r>
      </set>
      <set comment="kpoint 186">
       <r>   -0.5884    1.0000 </r>
       <r>    2.4609    1.0000 </r>
       <r>    3.1794    1.0000 </r>
       <r>    3.1794    1.0000 </r>
       <r>    3.8766    1.0000 </r>
       <r>    4.1845    1.0000 </r>
       <r>    4.1845    1.0000 </r>
       <r>    4.5606    1.0000 </r>
       <r>    4.8591    1.0000 </r>
       <r>    4.8591    1.0000 </r>
       <r>    5.7344    1.0000 </r>
       <r>    5.9690    1.0000 </r>
       <r>    5.9690    1.0000 </r>
       <r>    6.2440    1.0000 </r>
       <r>    6.2440    1.0000 </r>
       <r>    7.1047    1.0134 </r>
       <r>    7.8181   -0.0006 </r>
       <r>    8.5806   -0.0000 </r>
       <r>    8.5806   -0.0000 </r>
       <r>   13.5753    0.0000 </r>
       <r>   13.5753    0.0000 </r>
       <r>   13.7384    0.0000 </r>
       <r>   18.6592    0.0000 </r>
       <r>   19.9726    0.0000 </r>
      </set>
      <set comment="kpoint 187">
       <r>   -0.2448    1.0000 </r>
       <r>    2.3280    1.0000 </r>
       <r>    2.9582    1.0000 </r>
       <r>    3.3844    1.0000 </r>
       <r>    3.9789    1.0000 </r>
       <r>    4.1787    1.0000 </r>
       <r>    4.2575    1.0000 </r>
       <r>    4.6104    1.0000 </r>
       <r>    4.8360    1.0000 </r>
       <r>    4.8362    1.0000 </r>
       <r>    5.6281    1.0000 </r>
       <r>    5.9511    1.0000 </r>
       <r>    5.9882    1.0000 </r>
       <r>    6.2037    1.0000 </r>
       <r>    6.2615    1.0000 </r>
       <r>    7.0803    1.0283 </r>
       <r>    7.5288   -0.0354 </r>
       <r>    8.5598   -0.0000 </r>
       <r>    8.6398   -0.0000 </r>
       <r>   12.9440    0.0000 </r>
       <r>   12.9594    0.0000 </r>
       <r>   14.0358    0.0000 </r>
       <r>   17.8975    0.0000 </r>
       <r>   20.2182    0.0000 </r>
      </set>
      <set comment="kpoint 188">
       <r>    0.1275    1.0000 </r>
       <r>    2.0921    1.0000 </r>
       <r>    2.8010    1.0000 </r>
       <r>    3.5658    1.0000 </r>
       <r>    4.0211    1.0000 </r>
       <r>    4.1789    1.0000 </r>
       <r>    4.3571    1.0000 </r>
       <r>    4.6614    1.0000 </r>
       <r>    4.8131    1.0000 </r>
       <r>    4.8539    1.0000 </r>
       <r>    5.5488    1.0000 </r>
       <r>    5.9154    1.0000 </r>
       <r>    6.0279    1.0000 </r>
       <r>    6.2080    1.0000 </r>
       <r>    6.2572    1.0000 </r>
       <r>    7.0330    1.0352 </r>
       <r>    7.1038    1.0142 </r>
       <r>    8.6908   -0.0000 </r>
       <r>    8.7737   -0.0000 </r>
       <r>   12.3671   -0.0000 </r>
       <r>   12.4727   -0.0000 </r>
       <r>   14.4717    0.0000 </r>
       <r>   17.1893    0.0000 </r>
       <r>   20.4455    0.0000 </r>
      </set>
      <set comment="kpoint 189">
       <r>    0.4818    1.0000 </r>
       <r>    1.7935    1.0000 </r>
       <r>    2.7260    1.0000 </r>
       <r>    3.6915    1.0000 </r>
       <r>    4.0220    1.0000 </r>
       <r>    4.1832    1.0000 </r>
       <r>    4.4822    1.0000 </r>
       <r>    4.6600    1.0000 </r>
       <r>    4.7957    1.0000 </r>
       <r>    4.8878    1.0000 </r>
       <r>    5.4995    1.0000 </r>
       <r>    5.8943    1.0000 </r>
       <r>    6.0874    1.0000 </r>
       <r>    6.2240    1.0000 </r>
       <r>    6.2648    1.0000 </r>
       <r>    6.7490    1.0005 </r>
       <r>    6.9875    1.0277 </r>
       <r>    8.7253   -0.0000 </r>
       <r>    8.9771   -0.0000 </r>
       <r>   11.9531   -0.0000 </r>
       <r>   12.1813   -0.0000 </r>
       <r>   14.9069    0.0000 </r>
       <r>   16.5896    0.0000 </r>
       <r>   20.6120    0.0000 </r>
      </set>
      <set comment="kpoint 190">
       <r>    0.6638    1.0000 </r>
       <r>    1.6247    1.0000 </r>
       <r>    2.7051    1.0000 </r>
       <r>    3.7363    1.0000 </r>
       <r>    4.0187    1.0000 </r>
       <r>    4.1860    1.0000 </r>
       <r>    4.5722    1.0000 </r>
       <r>    4.6172    1.0000 </r>
       <r>    4.7892    1.0000 </r>
       <r>    4.9019    1.0000 </r>
       <r>    5.4826    1.0000 </r>
       <r>    5.8915    1.0000 </r>
       <r>    6.1424    1.0000 </r>
       <r>    6.1787    1.0000 </r>
       <r>    6.3394    1.0000 </r>
       <r>    6.5655    1.0000 </r>
       <r>    6.9688    1.0235 </r>
       <r>    8.7375   -0.0000 </r>
       <r>    9.0619   -0.0000 </r>
       <r>   11.7994   -0.0000 </r>
       <r>   12.0827   -0.0000 </r>
       <r>   15.1483    0.0000 </r>
       <r>   16.2933    0.0000 </r>
       <r>   20.6742    0.0000 </r>
      </set>
      <set comment="kpoint 191">
       <r>    0.0720    1.0000 </r>
       <r>    2.2713    1.0000 </r>
       <r>    2.9251    1.0000 </r>
       <r>    3.3440    1.0000 </r>
       <r>    4.0778    1.0000 </r>
       <r>    4.2251    1.0000 </r>
       <r>    4.2834    1.0000 </r>
       <r>    4.6866    1.0000 </r>
       <r>    4.8357    1.0000 </r>
       <r>    4.8503    1.0000 </r>
       <r>    5.5163    1.0000 </r>
       <r>    5.9573    1.0000 </r>
       <r>    5.9734    1.0000 </r>
       <r>    6.2077    1.0000 </r>
       <r>    6.2588    1.0000 </r>
       <r>    7.0681    1.0324 </r>
       <r>    7.4938   -0.0283 </r>
       <r>    8.2036   -0.0000 </r>
       <r>    8.6204   -0.0000 </r>
       <r>   12.3920   -0.0000 </r>
       <r>   13.2661    0.0000 </r>
       <r>   13.3876    0.0000 </r>
       <r>   17.1137    0.0000 </r>
       <r>   20.7138    0.0000 </r>
      </set>
      <set comment="kpoint 192">
       <r>    0.4061    1.0000 </r>
       <r>    2.1562    1.0000 </r>
       <r>    2.7676    1.0000 </r>
       <r>    3.4327    1.0000 </r>
       <r>    4.1207    1.0000 </r>
       <r>    4.2466    1.0000 </r>
       <r>    4.3667    1.0000 </r>
       <r>    4.7698    1.0000 </r>
       <r>    4.8530    1.0000 </r>
       <r>    4.8762    1.0000 </r>
       <r>    5.4312    1.0000 </r>
       <r>    5.9307    1.0000 </r>
       <r>    5.9974    1.0000 </r>
       <r>    6.2149    1.0000 </r>
       <r>    6.2717    1.0000 </r>
       <r>    7.0226    1.0342 </r>
       <r>    7.1621    0.9310 </r>
       <r>    8.1999   -0.0000 </r>
       <r>    8.6199   -0.0000 </r>
       <r>   12.0177   -0.0000 </r>
       <r>   12.7385   -0.0000 </r>
       <r>   13.7510    0.0000 </r>
       <r>   16.3952    0.0000 </r>
       <r>   21.0011    0.0000 </r>
      </set>
      <set comment="kpoint 193">
       <r>    0.7072    1.0000 </r>
       <r>    1.9845    1.0000 </r>
       <r>    2.6516    1.0000 </r>
       <r>    3.5131    1.0000 </r>
       <r>    4.1340    1.0000 </r>
       <r>    4.2553    1.0000 </r>
       <r>    4.4700    1.0000 </r>
       <r>    4.8058    1.0000 </r>
       <r>    4.8600    1.0000 </r>
       <r>    4.9201    1.0000 </r>
       <r>    5.3775    1.0000 </r>
       <r>    5.9192    1.0000 </r>
       <r>    6.0410    1.0000 </r>
       <r>    6.2167    1.0000 </r>
       <r>    6.3231    1.0000 </r>
       <r>    6.7827    1.0010 </r>
       <r>    6.9861    1.0274 </r>
       <r>    8.3023   -0.0000 </r>
       <r>    8.6010   -0.0000 </r>
       <r>   11.8429   -0.0000 </r>
       <r>   12.3155   -0.0000 </r>
       <r>   14.1779    0.0000 </r>
       <r>   15.7870    0.0000 </r>
       <r>   21.1987    0.0000 </r>
      </set>
      <set comment="kpoint 194">
       <r>    0.8485    1.0000 </r>
       <r>    1.8815    1.0000 </r>
       <r>    2.6154    1.0000 </r>
       <r>    3.5420    1.0000 </r>
       <r>    4.1362    1.0000 </r>
       <r>    4.2618    1.0000 </r>
       <r>    4.5158    1.0000 </r>
       <r>    4.8136    1.0000 </r>
       <r>    4.8610    1.0000 </r>
       <r>    4.9363    1.0000 </r>
       <r>    5.3591    1.0000 </r>
       <r>    5.9222    1.0000 </r>
       <r>    6.0689    1.0000 </r>
       <r>    6.2019    1.0000 </r>
       <r>    6.4465    1.0000 </r>
       <r>    6.5415    1.0000 </r>
       <r>    6.9650    1.0226 </r>
       <r>    8.3555   -0.0000 </r>
       <r>    8.5841   -0.0000 </r>
       <r>   11.8166   -0.0000 </r>
       <r>   12.1380   -0.0000 </r>
       <r>   14.4235    0.0000 </r>
       <r>   15.4813    0.0000 </r>
       <r>   21.2722    0.0000 </r>
      </set>
      <set comment="kpoint 195">
       <r>    0.6866    1.0000 </r>
       <r>    2.1764    1.0000 </r>
       <r>    2.6863    1.0000 </r>
       <r>    3.3587    1.0000 </r>
       <r>    4.1979    1.0000 </r>
       <r>    4.3323    1.0000 </r>
       <r>    4.3542    1.0000 </r>
       <r>    4.8960    1.0000 </r>
       <r>    4.8972    1.0000 </r>
       <r>    4.9172    1.0000 </r>
       <r>    5.3379    1.0000 </r>
       <r>    5.9505    1.0000 </r>
       <r>    5.9668    1.0000 </r>
       <r>    6.2117    1.0000 </r>
       <r>    6.3037    1.0000 </r>
       <r>    6.9784    1.0257 </r>
       <r>    7.0587    1.0343 </r>
       <r>    7.9259   -0.0000 </r>
       <r>    8.4514   -0.0000 </r>
       <r>   11.8501   -0.0000 </r>
       <r>   13.0550    0.0000 </r>
       <r>   13.1939    0.0000 </r>
       <r>   15.6746    0.0000 </r>
       <r>   21.3391    0.0000 </r>
      </set>
      <set comment="kpoint 196">
       <r>    0.9187    1.0000 </r>
       <r>    2.1584    1.0000 </r>
       <r>    2.5832    1.0000 </r>
       <r>    3.3424    1.0000 </r>
       <r>    4.2500    1.0000 </r>
       <r>    4.3252    1.0000 </r>
       <r>    4.4319    1.0000 </r>
       <r>    4.9225    1.0000 </r>
       <r>    4.9273    1.0000 </r>
       <r>    5.0170    1.0000 </r>
       <r>    5.2769    1.0000 </r>
       <r>    5.9524    1.0000 </r>
       <r>    5.9932    1.0000 </r>
       <r>    6.2100    1.0000 </r>
       <r>    6.3584    1.0000 </r>
       <r>    6.7734    1.0008 </r>
       <r>    6.9367    1.0163 </r>
       <r>    7.9339   -0.0000 </r>
       <r>    8.2635   -0.0000 </r>
       <r>   11.8829   -0.0000 </r>
       <r>   12.6237   -0.0000 </r>
       <r>   13.5367    0.0000 </r>
       <r>   15.0671    0.0000 </r>
       <r>   21.5675    0.0000 </r>
      </set>
      <set comment="kpoint 197">
       <r>    1.0160    1.0000 </r>
       <r>    2.1382    1.0000 </r>
       <r>    2.5381    1.0000 </r>
       <r>    3.3428    1.0000 </r>
       <r>    4.2685    1.0000 </r>
       <r>    4.3199    1.0000 </r>
       <r>    4.4692    1.0000 </r>
       <r>    4.9331    1.0000 </r>
       <r>    4.9373    1.0000 </r>
       <r>    5.0499    1.0000 </r>
       <r>    5.2556    1.0000 </r>
       <r>    5.9633    1.0000 </r>
       <r>    6.0121    1.0000 </r>
       <r>    6.2034    1.0000 </r>
       <r>    6.5072    1.0000 </r>
       <r>    6.5110    1.0000 </r>
       <r>    6.9159    1.0124 </r>
       <r>    8.0232   -0.0000 </r>
       <r>    8.1292   -0.0000 </r>
       <r>   11.9835   -0.0000 </r>
       <r>   12.3738   -0.0000 </r>
       <r>   13.7762    0.0000 </r>
       <r>   14.7593    0.0000 </r>
       <r>   21.6528    0.0000 </r>
      </set>
      <set comment="kpoint 198">
       <r>    1.0767    1.0000 </r>
       <r>    2.2946    1.0000 </r>
       <r>    2.5207    1.0000 </r>
       <r>    3.2135    1.0000 </r>
       <r>    4.3278    1.0000 </r>
       <r>    4.3950    1.0000 </r>
       <r>    4.4060    1.0000 </r>
       <r>    4.9672    1.0000 </r>
       <r>    4.9682    1.0000 </r>
       <r>    5.1440    1.0000 </r>
       <r>    5.2070    1.0000 </r>
       <r>    5.9903    1.0000 </r>
       <r>    5.9986    1.0000 </r>
       <r>    6.1930    1.0000 </r>
       <r>    6.3885    1.0000 </r>
       <r>    6.6618    1.0000 </r>
       <r>    6.8626    1.0053 </r>
       <r>    7.7743   -0.0015 </r>
       <r>    7.9901   -0.0000 </r>
       <r>   12.0722   -0.0000 </r>
       <r>   12.9326    0.0000 </r>
       <r>   13.0568    0.0000 </r>
       <r>   14.4671    0.0000 </r>
       <r>   21.8137    0.0000 </r>
      </set>
      <set comment="kpoint 199">
       <r>    1.1366    1.0000 </r>
       <r>    2.3593    1.0000 </r>
       <r>    2.4828    1.0000 </r>
       <r>    3.1640    1.0000 </r>
       <r>    4.3585    1.0000 </r>
       <r>    4.3810    1.0000 </r>
       <r>    4.4390    1.0000 </r>
       <r>    4.9829    1.0000 </r>
       <r>    4.9843    1.0000 </r>
       <r>    5.1808    1.0000 </r>
       <r>    5.1880    1.0000 </r>
       <r>    6.0197    1.0000 </r>
       <r>    6.0209    1.0000 </r>
       <r>    6.1774    1.0000 </r>
       <r>    6.4686    1.0000 </r>
       <r>    6.4956    1.0000 </r>
       <r>    6.8392    1.0034 </r>
       <r>    7.8045   -0.0008 </r>
       <r>    7.8274   -0.0004 </r>
       <r>   12.2563   -0.0000 </r>
       <r>   12.6928   -0.0000 </r>
       <r>   13.2234    0.0000 </r>
       <r>   14.1663    0.0000 </r>
       <r>   21.9052    0.0000 </r>
      </set>
      <set comment="kpoint 200">
       <r>    1.1812    1.0000 </r>
       <r>    2.4620    1.0000 </r>
       <r>    2.4620    1.0000 </r>
       <r>    3.0769    1.0000 </r>
       <r>    4.3736    1.0000 </r>
       <r>    4.4272    1.0000 </r>
       <r>    4.4272    1.0000 </r>
       <r>    5.0029    1.0000 </r>
       <r>    5.0029    1.0000 </r>
       <r>    5.1512    1.0000 </r>
       <r>    5.2346    1.0000 </r>
       <r>    6.0655    1.0000 </r>
       <r>    6.0655    1.0000 </r>
       <r>    6.1453    1.0000 </r>
       <r>    6.4372    1.0000 </r>
       <r>    6.4503    1.0000 </r>
       <r>    6.8074    1.0018 </r>
       <r>    7.7296   -0.0038 </r>
       <r>    7.7296   -0.0038 </r>
       <r>   12.4949   -0.0000 </r>
       <r>   12.8926    0.0000 </r>
       <r>   12.8926    0.0000 </r>
       <r>   13.8776    0.0000 </r>
       <r>   21.9987    0.0000 </r>
      </set>
      <set comment="kpoint 201">
       <r>    0.3535    1.0000 </r>
       <r>    2.2198    1.0000 </r>
       <r>    3.1112    1.0000 </r>
       <r>    3.1112    1.0000 </r>
       <r>    4.1879    1.0000 </r>
       <r>    4.2845    1.0000 </r>
       <r>    4.2845    1.0000 </r>
       <r>    4.8235    1.0000 </r>
       <r>    4.8622    1.0000 </r>
       <r>    4.8622    1.0000 </r>
       <r>    5.4059    1.0000 </r>
       <r>    5.9567    1.0000 </r>
       <r>    5.9567    1.0000 </r>
       <r>    6.2378    1.0000 </r>
       <r>    6.2378    1.0000 </r>
       <r>    7.0847    1.0263 </r>
       <r>    7.5506   -0.0343 </r>
       <r>    8.1402   -0.0000 </r>
       <r>    8.1402   -0.0000 </r>
       <r>   12.7012   -0.0000 </r>
       <r>   12.7012   -0.0000 </r>
       <r>   12.7130   -0.0000 </r>
       <r>   16.3194    0.0000 </r>
       <r>   21.7928    0.0000 </r>
      </set>
      <set comment="kpoint 202">
       <r>    0.6370    1.0000 </r>
       <r>    2.1727    1.0000 </r>
       <r>    2.8733    1.0000 </r>
       <r>    3.2628    1.0000 </r>
       <r>    4.2266    1.0000 </r>
       <r>    4.3141    1.0000 </r>
       <r>    4.3800    1.0000 </r>
       <r>    4.8819    1.0000 </r>
       <r>    4.8897    1.0000 </r>
       <r>    4.9676    1.0000 </r>
       <r>    5.3206    1.0000 </r>
       <r>    5.9340    1.0000 </r>
       <r>    5.9705    1.0000 </r>
       <r>    6.2479    1.0000 </r>
       <r>    6.2507    1.0000 </r>
       <r>    7.0605    1.0340 </r>
       <r>    7.2467    0.6671 </r>
       <r>    8.0861   -0.0000 </r>
       <r>    8.0890   -0.0000 </r>
       <r>   12.1681   -0.0000 </r>
       <r>   12.2942   -0.0000 </r>
       <r>   13.0867    0.0000 </r>
       <r>   15.5979    0.0000 </r>
       <r>   22.0310    0.0000 </r>
      </set>
      <set comment="kpoint 203">
       <r>    0.8715    1.0000 </r>
       <r>    2.1298    1.0000 </r>
       <r>    2.6815    1.0000 </r>
       <r>    3.3575    1.0000 </r>
       <r>    4.2277    1.0000 </r>
       <r>    4.3556    1.0000 </r>
       <r>    4.4795    1.0000 </r>
       <r>    4.8944    1.0000 </r>
       <r>    4.9117    1.0000 </r>
       <r>    5.0606    1.0000 </r>
       <r>    5.2658    1.0000 </r>
       <r>    5.9361    1.0000 </r>
       <r>    5.9966    1.0000 </r>
       <r>    6.2364    1.0000 </r>
       <r>    6.3281    1.0000 </r>
       <r>    6.8461    1.0039 </r>
       <r>    7.0207    1.0339 </r>
       <r>    8.0521   -0.0000 </r>
       <r>    8.1884   -0.0000 </r>
       <r>   11.8095   -0.0000 </r>
       <r>   12.0511   -0.0000 </r>
       <r>   13.4963    0.0000 </r>
       <r>   14.9859    0.0000 </r>
       <r>   22.2034    0.0000 </r>
      </set>
      <set comment="kpoint 204">
       <r>    0.9696    1.0000 </r>
       <r>    2.1076    1.0000 </r>
       <r>    2.6057    1.0000 </r>
       <r>    3.3888    1.0000 </r>
       <r>    4.2262    1.0000 </r>
       <r>    4.3756    1.0000 </r>
       <r>    4.5216    1.0000 </r>
       <r>    4.8987    1.0000 </r>
       <r>    4.9189    1.0000 </r>
       <r>    5.0872    1.0000 </r>
       <r>    5.2467    1.0000 </r>
       <r>    5.9459    1.0000 </r>
       <r>    6.0130    1.0000 </r>
       <r>    6.2245    1.0000 </r>
       <r>    6.4852    1.0000 </r>
       <r>    6.5636    1.0000 </r>
       <r>    7.0017    1.0307 </r>
       <r>    8.0409   -0.0000 </r>
       <r>    8.2346   -0.0000 </r>
       <r>   11.6822   -0.0000 </r>
       <r>   11.9707   -0.0000 </r>
       <r>   13.7456    0.0000 </r>
       <r>   14.6695    0.0000 </r>
       <r>   22.2672    0.0000 </r>
      </set>
      <set comment="kpoint 205">
       <r>    0.8517    1.0000 </r>
       <r>    2.2066    1.0000 </r>
       <r>    2.8581    1.0000 </r>
       <r>    3.1820    1.0000 </r>
       <r>    4.3130    1.0000 </r>
       <r>    4.3926    1.0000 </r>
       <r>    4.4074    1.0000 </r>
       <r>    4.9171    1.0000 </r>
       <r>    4.9238    1.0000 </r>
       <r>    5.1489    1.0000 </r>
       <r>    5.2333    1.0000 </r>
       <r>    5.9395    1.0000 </r>
       <r>    5.9476    1.0000 </r>
       <r>    6.2377    1.0000 </r>
       <r>    6.2724    1.0000 </r>
       <r>    7.0475    1.0353 </r>
       <r>    7.1772    0.8961 </r>
       <r>    7.7540   -0.0023 </r>
       <r>    7.9796   -0.0000 </r>
       <r>   11.8967   -0.0000 </r>
       <r>   12.5428   -0.0000 </r>
       <r>   12.5594   -0.0000 </r>
       <r>   14.8812    0.0000 </r>
       <r>   22.5469    0.0000 </r>
      </set>
      <set comment="kpoint 206">
       <r>    1.0088    1.0000 </r>
       <r>    2.2733    1.0000 </r>
       <r>    2.7080    1.0000 </r>
       <r>    3.2069    1.0000 </r>
       <r>    4.3469    1.0000 </r>
       <r>    4.4420    1.0000 </r>
       <r>    4.4925    1.0000 </r>
       <r>    4.9401    1.0000 </r>
       <r>    4.9474    1.0000 </r>
       <r>    5.1752    1.0000 </r>
       <r>    5.2716    1.0000 </r>
       <r>    5.9544    1.0000 </r>
       <r>    5.9590    1.0000 </r>
       <r>    6.2309    1.0000 </r>
       <r>    6.3231    1.0000 </r>
       <r>    6.8690    1.0059 </r>
       <r>    7.0129    1.0328 </r>
       <r>    7.7228   -0.0043 </r>
       <r>    7.8954   -0.0001 </r>
       <r>   11.7432   -0.0000 </r>
       <r>   12.1774   -0.0000 </r>
       <r>   12.9174    0.0000 </r>
       <r>   14.2757    0.0000 </r>
       <r>   22.7817    0.0000 </r>
      </set>
      <set comment="kpoint 207">
       <r>    1.0671    1.0000 </r>
       <r>    2.3298    1.0000 </r>
       <r>    2.6099    1.0000 </r>
       <r>    3.2238    1.0000 </r>
       <r>    4.3520    1.0000 </r>
       <r>    4.4688    1.0000 </r>
       <r>    4.5322    1.0000 </r>
       <r>    4.9504    1.0000 </r>
       <r>    4.9521    1.0000 </r>
       <r>    5.1543    1.0000 </r>
       <r>    5.3074    1.0000 </r>
       <r>    5.9681    1.0000 </r>
       <r>    5.9739    1.0000 </r>
       <r>    6.2226    1.0000 </r>
       <r>    6.4227    1.0000 </r>
       <r>    6.6439    1.0000 </r>
       <r>    6.9934    1.0290 </r>
       <r>    7.7512   -0.0025 </r>
       <r>    7.8542   -0.0002 </r>
       <r>   11.7123   -0.0000 </r>
       <r>   12.0302   -0.0000 </r>
       <r>   13.1575    0.0000 </r>
       <r>   13.9569    0.0000 </r>
       <r>   22.8615    0.0000 </r>
      </set>
      <set comment="kpoint 208">
       <r>    1.0985    1.0000 </r>
       <r>    2.4186    1.0000 </r>
       <r>    2.6848    1.0000 </r>
       <r>    3.1007    1.0000 </r>
       <r>    4.4504    1.0000 </r>
       <r>    4.4837    1.0000 </r>
       <r>    4.5375    1.0000 </r>
       <r>    4.9722    1.0000 </r>
       <r>    4.9775    1.0000 </r>
       <r>    5.1119    1.0000 </r>
       <r>    5.4109    1.0000 </r>
       <r>    5.9764    1.0000 </r>
       <r>    5.9876    1.0000 </r>
       <r>    6.2012    1.0000 </r>
       <r>    6.3335    1.0000 </r>
       <r>    6.7780    1.0009 </r>
       <r>    6.9626    1.0220 </r>
       <r>    7.5425   -0.0351 </r>
       <r>    7.6928   -0.0073 </r>
       <r>   11.7811   -0.0000 </r>
       <r>   12.4539   -0.0000 </r>
       <r>   12.4774   -0.0000 </r>
       <r>   13.6839    0.0000 </r>
       <r>   23.0691    0.0000 </r>
      </set>
      <set comment="kpoint 209">
       <r>    1.1294    1.0000 </r>
       <r>    2.5246    1.0000 </r>
       <r>    2.6192    1.0000 </r>
       <r>    3.0666    1.0000 </r>
       <r>    4.4709    1.0000 </r>
       <r>    4.5152    1.0000 </r>
       <r>    4.5658    1.0000 </r>
       <r>    4.9842    1.0000 </r>
       <r>    4.9894    1.0000 </r>
       <r>    5.0874    1.0000 </r>
       <r>    5.4455    1.0000 </r>
       <r>    6.0033    1.0000 </r>
       <r>    6.0213    1.0000 </r>
       <r>    6.1807    1.0000 </r>
       <r>    6.3709    1.0000 </r>
       <r>    6.6522    1.0000 </r>
       <r>    6.9413    1.0173 </r>
       <r>    7.5539   -0.0339 </r>
       <r>    7.5761   -0.0300 </r>
       <r>   11.8649   -0.0000 </r>
       <r>   12.2438   -0.0000 </r>
       <r>   12.6794   -0.0000 </r>
       <r>   13.3725    0.0000 </r>
       <r>   23.1653    0.0000 </r>
      </set>
      <set comment="kpoint 210">
       <r>    1.1506    1.0000 </r>
       <r>    2.6238    1.0000 </r>
       <r>    2.6238    1.0000 </r>
       <r>    2.9806    1.0000 </r>
       <r>    4.5224    1.0000 </r>
       <r>    4.5224    1.0000 </r>
       <r>    4.5907    1.0000 </r>
       <r>    5.0027    1.0000 </r>
       <r>    5.0027    1.0000 </r>
       <r>    5.0590    1.0000 </r>
       <r>    5.4730    1.0000 </r>
       <r>    6.0732    1.0000 </r>
       <r>    6.0732    1.0000 </r>
       <r>    6.1254    1.0000 </r>
       <r>    6.3521    1.0000 </r>
       <r>    6.6071    1.0000 </r>
       <r>    6.9123    1.0118 </r>
       <r>    7.4856   -0.0243 </r>
       <r>    7.4856   -0.0243 </r>
       <r>   12.0121   -0.0000 </r>
       <r>   12.4252   -0.0000 </r>
       <r>   12.4252   -0.0000 </r>
       <r>   13.0710    0.0000 </r>
       <r>   23.2667    0.0000 </r>
      </set>
      <set comment="kpoint 211">
       <r>    0.9869    1.0000 </r>
       <r>    2.2833    1.0000 </r>
       <r>    2.9933    1.0000 </r>
       <r>    2.9933    1.0000 </r>
       <r>    4.4232    1.0000 </r>
       <r>    4.4716    1.0000 </r>
       <r>    4.4716    1.0000 </r>
       <r>    4.9500    1.0000 </r>
       <r>    4.9500    1.0000 </r>
       <r>    5.1508    1.0000 </r>
       <r>    5.3750    1.0000 </r>
       <r>    5.9262    1.0000 </r>
       <r>    5.9262    1.0000 </r>
       <r>    6.2452    1.0000 </r>
       <r>    6.2452    1.0000 </r>
       <r>    7.0691    1.0321 </r>
       <r>    7.1935    0.8519 </r>
       <r>    7.6039   -0.0238 </r>
       <r>    7.6039   -0.0238 </r>
       <r>   11.9772   -0.0000 </r>
       <r>   12.1823   -0.0000 </r>
       <r>   12.1823   -0.0000 </r>
       <r>   14.1778    0.0000 </r>
       <r>   23.6493    0.0000 </r>
      </set>
      <set comment="kpoint 212">
       <r>    1.0728    1.0000 </r>
       <r>    2.4051    1.0000 </r>
       <r>    2.8053    1.0000 </r>
       <r>    3.0756    1.0000 </r>
       <r>    4.4715    1.0000 </r>
       <r>    4.5596    1.0000 </r>
       <r>    4.5643    1.0000 </r>
       <r>    4.9682    1.0000 </r>
       <r>    4.9728    1.0000 </r>
       <r>    5.0948    1.0000 </r>
       <r>    5.5198    1.0000 </r>
       <r>    5.9155    1.0000 </r>
       <r>    5.9483    1.0000 </r>
       <r>    6.2329    1.0000 </r>
       <r>    6.2638    1.0000 </r>
       <r>    6.9354    1.0161 </r>
       <r>    7.0479    1.0353 </r>
       <r>    7.5188   -0.0347 </r>
       <r>    7.5386   -0.0353 </r>
       <r>   11.7080   -0.0000 </r>
       <r>   11.9710   -0.0000 </r>
       <r>   12.4275   -0.0000 </r>
       <r>   13.5889    0.0000 </r>
       <r>   23.8299    0.0000 </r>
      </set>
      <set comment="kpoint 213">
       <r>    1.1016    1.0000 </r>
       <r>    2.5088    1.0000 </r>
       <r>    2.6805    1.0000 </r>
       <r>    3.1026    1.0000 </r>
       <r>    4.4819    1.0000 </r>
       <r>    4.5997    1.0000 </r>
       <r>    4.6145    1.0000 </r>
       <r>    4.9679    1.0000 </r>
       <r>    4.9832    1.0000 </r>
       <r>    5.0738    1.0000 </r>
       <r>    5.5553    1.0000 </r>
       <r>    5.9113    1.0000 </r>
       <r>    5.9771    1.0000 </r>
       <r>    6.2225    1.0000 </r>
       <r>    6.3241    1.0000 </r>
       <r>    6.7456    1.0004 </r>
       <r>    7.0305    1.0350 </r>
       <r>    7.4956   -0.0290 </r>
       <r>    7.5522   -0.0341 </r>
       <r>   11.5993   -0.0000 </r>
       <r>   11.9018   -0.0000 </r>
       <r>   12.6467   -0.0000 </r>
       <r>   13.2709    0.0000 </r>
       <r>   23.8964    0.0000 </r>
      </set>
      <set comment="kpoint 214">
       <r>    1.1091    1.0000 </r>
       <r>    2.5481    1.0000 </r>
       <r>    2.8127    1.0000 </r>
       <r>    2.9935    1.0000 </r>
       <r>    4.5923    1.0000 </r>
       <r>    4.6138    1.0000 </r>
       <r>    4.6764    1.0000 </r>
       <r>    4.9907    1.0000 </r>
       <r>    4.9934    1.0000 </r>
       <r>    5.0393    1.0000 </r>
       <r>    5.6618    1.0000 </r>
       <r>    5.9315    1.0000 </r>
       <r>    5.9495    1.0000 </r>
       <r>    6.1906    1.0000 </r>
       <r>    6.2436    1.0000 </r>
       <r>    6.8860    1.0079 </r>
       <r>    7.0328    1.0351 </r>
       <r>    7.3248    0.3436 </r>
       <r>    7.3922    0.1162 </r>
       <r>   11.6362   -0.0000 </r>
       <r>   12.0645   -0.0000 </r>
       <r>   12.1210   -0.0000 </r>
       <r>   13.0277    0.0000 </r>
       <r>   24.3080    0.0000 </r>
      </set>
      <set comment="kpoint 215">
       <r>    1.1206    1.0000 </r>
       <r>    2.6623    1.0000 </r>
       <r>    2.7313    1.0000 </r>
       <r>    2.9848    1.0000 </r>
       <r>    4.6168    1.0000 </r>
       <r>    4.6621    1.0000 </r>
       <r>    4.7335    1.0000 </r>
       <r>    4.9886    1.0000 </r>
       <r>    5.0064    1.0000 </r>
       <r>    5.0173    1.0000 </r>
       <r>    5.6736    1.0000 </r>
       <r>    5.9406    1.0000 </r>
       <r>    5.9921    1.0000 </r>
       <r>    6.1697    1.0000 </r>
       <r>    6.2549    1.0000 </r>
       <r>    6.7907    1.0013 </r>
       <r>    7.0147    1.0331 </r>
       <r>    7.3196    0.3646 </r>
       <r>    7.3255    0.3408 </r>
       <r>   11.6107   -0.0000 </r>
       <r>   11.9660   -0.0000 </r>
       <r>   12.2676   -0.0000 </r>
       <r>   12.7238   -0.0000 </r>
       <r>   24.4180    0.0000 </r>
      </set>
      <set comment="kpoint 216">
       <r>    1.1266    1.0000 </r>
       <r>    2.7495    1.0000 </r>
       <r>    2.7495    1.0000 </r>
       <r>    2.9094    1.0000 </r>
       <r>    4.6788    1.0000 </r>
       <r>    4.6788    1.0000 </r>
       <r>    4.8005    1.0000 </r>
       <r>    4.9909    1.0000 </r>
       <r>    5.0050    1.0000 </r>
       <r>    5.0050    1.0000 </r>
       <r>    5.6631    1.0000 </r>
       <r>    6.0168    1.0000 </r>
       <r>    6.0168    1.0000 </r>
       <r>    6.1093    1.0000 </r>
       <r>    6.2403    1.0000 </r>
       <r>    6.7789    1.0010 </r>
       <r>    6.9908    1.0285 </r>
       <r>    7.2588    0.6186 </r>
       <r>    7.2588    0.6186 </r>
       <r>   11.6554   -0.0000 </r>
       <r>   12.1015   -0.0000 </r>
       <r>   12.1015   -0.0000 </r>
       <r>   12.4286   -0.0000 </r>
       <r>   24.5505    0.0000 </r>
      </set>
      <set comment="kpoint 217">
       <r>    1.1130    1.0000 </r>
       <r>    2.6700    1.0000 </r>
       <r>    2.8903    1.0000 </r>
       <r>    2.8903    1.0000 </r>
       <r>    4.7552    1.0000 </r>
       <r>    4.7552    1.0000 </r>
       <r>    4.7565    1.0000 </r>
       <r>    4.9900    1.0000 </r>
       <r>    5.0123    1.0000 </r>
       <r>    5.0123    1.0000 </r>
       <r>    5.8411    1.0000 </r>
       <r>    5.8865    1.0000 </r>
       <r>    5.8865    1.0000 </r>
       <r>    6.1656    1.0000 </r>
       <r>    6.1656    1.0000 </r>
       <r>    6.9198    1.0131 </r>
       <r>    7.0591    1.0342 </r>
       <r>    7.1889    0.8651 </r>
       <r>    7.1889    0.8651 </r>
       <r>   11.5364   -0.0000 </r>
       <r>   11.9279   -0.0000 </r>
       <r>   11.9279   -0.0000 </r>
       <r>   12.5188   -0.0000 </r>
       <r>   25.4069    0.0000 </r>
      </set>
      <set comment="kpoint 218">
       <r>    1.1139    1.0000 </r>
       <r>    2.7651    1.0000 </r>
       <r>    2.8021    1.0000 </r>
       <r>    2.9158    1.0000 </r>
       <r>    4.7782    1.0000 </r>
       <r>    4.8200    1.0000 </r>
       <r>    4.8538    1.0000 </r>
       <r>    4.9698    1.0000 </r>
       <r>    5.0009    1.0000 </r>
       <r>    5.0299    1.0000 </r>
       <r>    5.8335    1.0000 </r>
       <r>    5.8462    1.0000 </r>
       <r>    5.9370    1.0000 </r>
       <r>    6.1413    1.0000 </r>
       <r>    6.1531    1.0000 </r>
       <r>    6.8872    1.0080 </r>
       <r>    7.0492    1.0353 </r>
       <r>    7.1470    0.9600 </r>
       <r>    7.1604    0.9345 </r>
       <r>   11.4762   -0.0000 </r>
       <r>   11.8649   -0.0000 </r>
       <r>   12.0056   -0.0000 </r>
       <r>   12.2492   -0.0000 </r>
       <r>   25.4832    0.0000 </r>
      </set>
      <set comment="kpoint 219">
       <r>    1.1114    1.0000 </r>
       <r>    2.8259    1.0000 </r>
       <r>    2.8259    1.0000 </r>
       <r>    2.8657    1.0000 </r>
       <r>    4.8562    1.0000 </r>
       <r>    4.8562    1.0000 </r>
       <r>    4.9491    1.0000 </r>
       <r>    4.9660    1.0000 </r>
       <r>    5.0135    1.0000 </r>
       <r>    5.0135    1.0000 </r>
       <r>    5.7832    1.0000 </r>
       <r>    5.8998    1.0000 </r>
       <r>    5.8998    1.0000 </r>
       <r>    6.0989    1.0000 </r>
       <r>    6.1392    1.0000 </r>
       <r>    6.9170    1.0126 </r>
       <r>    7.0393    1.0354 </r>
       <r>    7.1065    1.0119 </r>
       <r>    7.1065    1.0119 </r>
       <r>   11.4362   -0.0000 </r>
       <r>   11.9143   -0.0000 </r>
       <r>   11.9143   -0.0000 </r>
       <r>   12.0038   -0.0000 </r>
       <r>   25.7706    0.0000 </r>
      </set>
      <set comment="kpoint 220">
       <r>    1.1061    1.0000 </r>
       <r>    2.8510    1.0000 </r>
       <r>    2.8510    1.0000 </r>
       <r>    2.8510    1.0000 </r>
       <r>    4.9351    1.0000 </r>
       <r>    4.9351    1.0000 </r>
       <r>    4.9351    1.0000 </r>
       <r>    5.0324    1.0000 </r>
       <r>    5.0324    1.0000 </r>
       <r>    5.0324    1.0000 </r>
       <r>    5.8238    1.0000 </r>
       <r>    5.8238    1.0000 </r>
       <r>    5.8238    1.0000 </r>
       <r>    6.0953    1.0000 </r>
       <r>    6.0953    1.0000 </r>
       <r>    6.9716    1.0241 </r>
       <r>    7.0557    1.0347 </r>
       <r>    7.0557    1.0347 </r>
       <r>    7.0557    1.0347 </r>
       <r>   11.3622   -0.0000 </r>
       <r>   11.8533   -0.0000 </r>
       <r>   11.8533   -0.0000 </r>
       <r>   11.8533   -0.0000 </r>
       <r>   26.4645    0.0000 </r>
      </set>
     </set>
     <set comment="spin 2">
      <set comment="kpoint 1">
       <r>   -3.3941    1.0000 </r>
       <r>    2.4378    1.0000 </r>
       <r>    3.2509    1.0000 </r>
       <r>    3.2509    1.0000 </r>
       <r>    3.7794    1.0000 </r>
       <r>    3.7794    1.0000 </r>
       <r>    3.7794    1.0000 </r>
       <r>    5.9380    1.0000 </r>
       <r>    5.9380    1.0000 </r>
       <r>    5.9380    1.0000 </r>
       <r>    6.8385    1.0034 </r>
       <r>    6.8386    1.0034 </r>
       <r>    7.2985    0.4516 </r>
       <r>    7.6730   -0.0100 </r>
       <r>    7.6730   -0.0100 </r>
       <r>    7.6730   -0.0100 </r>
       <r>    8.1723   -0.0000 </r>
       <r>    8.1723   -0.0000 </r>
       <r>    8.1723   -0.0000 </r>
       <r>   14.5300    0.0000 </r>
       <r>   14.5300    0.0000 </r>
       <r>   15.6417    0.0000 </r>
       <r>   20.4833    0.0000 </r>
       <r>   20.4833    0.0000 </r>
      </set>
      <set comment="kpoint 2">
       <r>   -3.3534    1.0000 </r>
       <r>    2.4530    1.0000 </r>
       <r>    3.2265    1.0000 </r>
       <r>    3.2784    1.0000 </r>
       <r>    3.7857    1.0000 </r>
       <r>    3.7857    1.0000 </r>
       <r>    3.7905    1.0000 </r>
       <r>    5.9132    1.0000 </r>
       <r>    5.9132    1.0000 </r>
       <r>    5.9256    1.0000 </r>
       <r>    6.8134    1.0020 </r>
       <r>    6.8391    1.0034 </r>
       <r>    7.2821    0.5213 </r>
       <r>    7.4884   -0.0258 </r>
       <r>    7.4884   -0.0258 </r>
       <r>    7.6731   -0.0100 </r>
       <r>    8.0116   -0.0000 </r>
       <r>    8.4098   -0.0000 </r>
       <r>    8.4098   -0.0000 </r>
       <r>   14.5212    0.0000 </r>
       <r>   14.6821    0.0000 </r>
       <r>   15.7474    0.0000 </r>
       <r>   20.3020    0.0000 </r>
       <r>   20.3106    0.0000 </r>
      </set>
      <set comment="kpoint 3">
       <r>   -3.2317    1.0000 </r>
       <r>    2.4918    1.0000 </r>
       <r>    3.1517    1.0000 </r>
       <r>    3.3595    1.0000 </r>
       <r>    3.8043    1.0000 </r>
       <r>    3.8043    1.0000 </r>
       <r>    3.8233    1.0000 </r>
       <r>    5.8431    1.0000 </r>
       <r>    5.8431    1.0000 </r>
       <r>    5.8891    1.0000 </r>
       <r>    6.7337    1.0003 </r>
       <r>    6.8401    1.0035 </r>
       <r>    7.2139    0.7879 </r>
       <r>    7.2139    0.7879 </r>
       <r>    7.2331    0.7195 </r>
       <r>    7.6131   -0.0217 </r>
       <r>    7.6732   -0.0099 </r>
       <r>    8.8410   -0.0000 </r>
       <r>    8.8410   -0.0000 </r>
       <r>   14.4951    0.0000 </r>
       <r>   14.9656    0.0000 </r>
       <r>   16.1607    0.0000 </r>
       <r>   19.6536    0.0000 </r>
       <r>   19.6536    0.0000 </r>
      </set>
      <set comment="kpoint 4">
       <r>   -3.0303    1.0000 </r>
       <r>    2.5194    1.0000 </r>
       <r>    3.0378    1.0000 </r>
       <r>    3.4903    1.0000 </r>
       <r>    3.8336    1.0000 </r>
       <r>    3.8336    1.0000 </r>
       <r>    3.8759    1.0000 </r>
       <r>    5.7393    1.0000 </r>
       <r>    5.7393    1.0000 </r>
       <r>    5.8308    1.0000 </r>
       <r>    6.5784    1.0000 </r>
       <r>    6.8391    1.0034 </r>
       <r>    6.9654    1.0227 </r>
       <r>    6.9654    1.0227 </r>
       <r>    7.1543    0.9467 </r>
       <r>    7.1550    0.9453 </r>
       <r>    7.6734   -0.0099 </r>
       <r>    9.3430   -0.0000 </r>
       <r>    9.3430   -0.0000 </r>
       <r>   14.4526    0.0000 </r>
       <r>   15.1634    0.0000 </r>
       <r>   16.9358    0.0000 </r>
       <r>   18.7388    0.0000 </r>
       <r>   18.7388    0.0000 </r>
      </set>
      <set comment="kpoint 5">
       <r>   -2.7515    1.0000 </r>
       <r>    2.4150    1.0000 </r>
       <r>    2.9738    1.0000 </r>
       <r>    3.6634    1.0000 </r>
       <r>    3.8715    1.0000 </r>
       <r>    3.8715    1.0000 </r>
       <r>    3.9451    1.0000 </r>
       <r>    5.6187    1.0000 </r>
       <r>    5.6187    1.0000 </r>
       <r>    5.7545    1.0000 </r>
       <r>    6.3133    1.0000 </r>
       <r>    6.7517    1.0005 </r>
       <r>    6.7517    1.0005 </r>
       <r>    6.8074    1.0018 </r>
       <r>    6.8283    1.0028 </r>
       <r>    7.0547    1.0348 </r>
       <r>    7.6736   -0.0099 </r>
       <r>    9.8981   -0.0000 </r>
       <r>    9.8981   -0.0000 </r>
       <r>   14.3962    0.0000 </r>
       <r>   15.3023    0.0000 </r>
       <r>   17.7728    0.0000 </r>
       <r>   17.7728    0.0000 </r>
       <r>   17.7906    0.0000 </r>
      </set>
      <set comment="kpoint 6">
       <r>   -2.3993    1.0000 </r>
       <r>    2.0778    1.0000 </r>
       <r>    3.0373    1.0000 </r>
       <r>    3.8676    1.0000 </r>
       <r>    3.9141    1.0000 </r>
       <r>    3.9141    1.0000 </r>
       <r>    4.0258    1.0000 </r>
       <r>    5.4984    1.0000 </r>
       <r>    5.4984    1.0000 </r>
       <r>    5.6663    1.0000 </r>
       <r>    6.0116    1.0000 </r>
       <r>    6.5712    1.0000 </r>
       <r>    6.5712    1.0000 </r>
       <r>    6.5818    1.0000 </r>
       <r>    6.7792    1.0010 </r>
       <r>    6.9666    1.0229 </r>
       <r>    7.6739   -0.0098 </r>
       <r>   10.5005   -0.0000 </r>
       <r>   10.5005   -0.0000 </r>
       <r>   14.3303    0.0000 </r>
       <r>   15.4361    0.0000 </r>
       <r>   16.8183    0.0000 </r>
       <r>   16.8183    0.0000 </r>
       <r>   18.0019    0.0000 </r>
      </set>
      <set comment="kpoint 7">
       <r>   -1.9795    1.0000 </r>
       <r>    1.5824    1.0000 </r>
       <r>    3.1555    1.0000 </r>
       <r>    3.9567    1.0000 </r>
       <r>    3.9567    1.0000 </r>
       <r>    4.0857    1.0000 </r>
       <r>    4.1106    1.0000 </r>
       <r>    5.3928    1.0000 </r>
       <r>    5.3928    1.0000 </r>
       <r>    5.5744    1.0000 </r>
       <r>    5.7829    1.0000 </r>
       <r>    6.4026    1.0000 </r>
       <r>    6.4234    1.0000 </r>
       <r>    6.4234    1.0000 </r>
       <r>    6.6608    1.0000 </r>
       <r>    6.9298    1.0150 </r>
       <r>    7.6741   -0.0098 </r>
       <r>   11.1474   -0.0000 </r>
       <r>   11.1474   -0.0000 </r>
       <r>   14.2624    0.0000 </r>
       <r>   15.5865    0.0000 </r>
       <r>   15.8933    0.0000 </r>
       <r>   15.8933    0.0000 </r>
       <r>   17.6605    0.0000 </r>
      </set>
      <set comment="kpoint 8">
       <r>   -1.5034    1.0000 </r>
       <r>    1.0082    1.0000 </r>
       <r>    3.2737    1.0000 </r>
       <r>    3.9936    1.0000 </r>
       <r>    3.9936    1.0000 </r>
       <r>    4.1885    1.0000 </r>
       <r>    4.2916    1.0000 </r>
       <r>    5.3119    1.0000 </r>
       <r>    5.3119    1.0000 </r>
       <r>    5.4907    1.0000 </r>
       <r>    5.6455    1.0000 </r>
       <r>    6.2527    1.0000 </r>
       <r>    6.3115    1.0000 </r>
       <r>    6.3115    1.0000 </r>
       <r>    6.5147    1.0000 </r>
       <r>    6.9214    1.0134 </r>
       <r>    7.6743   -0.0098 </r>
       <r>   11.8368   -0.0000 </r>
       <r>   11.8368   -0.0000 </r>
       <r>   14.2025    0.0000 </r>
       <r>   15.0042    0.0000 </r>
       <r>   15.0042    0.0000 </r>
       <r>   15.7589    0.0000 </r>
       <r>   17.2605    0.0000 </r>
      </set>
      <set comment="kpoint 9">
       <r>   -1.0013    1.0000 </r>
       <r>    0.4301    1.0000 </r>
       <r>    3.3597    1.0000 </r>
       <r>    4.0189    1.0000 </r>
       <r>    4.0189    1.0000 </r>
       <r>    4.2453    1.0000 </r>
       <r>    4.4468    1.0000 </r>
       <r>    5.2614    1.0000 </r>
       <r>    5.2614    1.0000 </r>
       <r>    5.4301    1.0000 </r>
       <r>    5.5792    1.0000 </r>
       <r>    6.1469    1.0000 </r>
       <r>    6.2410    1.0000 </r>
       <r>    6.2410    1.0000 </r>
       <r>    6.3943    1.0000 </r>
       <r>    6.9200    1.0131 </r>
       <r>    7.6744   -0.0098 </r>
       <r>   12.5670   -0.0000 </r>
       <r>   12.5670   -0.0000 </r>
       <r>   14.1539    0.0000 </r>
       <r>   14.1539    0.0000 </r>
       <r>   14.1611    0.0000 </r>
       <r>   15.9365    0.0000 </r>
       <r>   16.9278    0.0000 </r>
      </set>
      <set comment="kpoint 10">
       <r>   -0.6739    1.0000 </r>
       <r>    0.0746    1.0000 </r>
       <r>    3.3913    1.0000 </r>
       <r>    4.0279    1.0000 </r>
       <r>    4.0279    1.0000 </r>
       <r>    4.2665    1.0000 </r>
       <r>    4.5062    1.0000 </r>
       <r>    5.2444    1.0000 </r>
       <r>    5.2444    1.0000 </r>
       <r>    5.4076    1.0000 </r>
       <r>    5.5605    1.0000 </r>
       <r>    6.1078    1.0000 </r>
       <r>    6.2167    1.0000 </r>
       <r>    6.2167    1.0000 </r>
       <r>    6.3466    1.0000 </r>
       <r>    6.9200    1.0131 </r>
       <r>    7.6745   -0.0097 </r>
       <r>   13.2887    0.0000 </r>
       <r>   13.2887    0.0000 </r>
       <r>   13.3921    0.0000 </r>
       <r>   13.3921    0.0000 </r>
       <r>   14.1462    0.0000 </r>
       <r>   16.0320    0.0000 </r>
       <r>   16.7783    0.0000 </r>
      </set>
      <set comment="kpoint 11">
       <r>   -3.3128    1.0000 </r>
       <r>    2.4685    1.0000 </r>
       <r>    3.2282    1.0000 </r>
       <r>    3.2797    1.0000 </r>
       <r>    3.7811    1.0000 </r>
       <r>    3.7916    1.0000 </r>
       <r>    3.8127    1.0000 </r>
       <r>    5.8528    1.0000 </r>
       <r>    5.8893    1.0000 </r>
       <r>    5.9506    1.0000 </r>
       <r>    6.8006    1.0016 </r>
       <r>    6.8270    1.0027 </r>
       <r>    7.2595    0.6157 </r>
       <r>    7.3193    0.3658 </r>
       <r>    7.3872    0.1296 </r>
       <r>    7.6532   -0.0133 </r>
       <r>    8.1005   -0.0000 </r>
       <r>    8.3838   -0.0000 </r>
       <r>    8.5821   -0.0000 </r>
       <r>   14.5887    0.0000 </r>
       <r>   14.7756    0.0000 </r>
       <r>   15.8399    0.0000 </r>
       <r>   19.8249    0.0000 </r>
       <r>   20.2137    0.0000 </r>
      </set>
      <set comment="kpoint 12">
       <r>   -3.1913    1.0000 </r>
       <r>    2.5084    1.0000 </r>
       <r>    3.1638    1.0000 </r>
       <r>    3.3500    1.0000 </r>
       <r>    3.7908    1.0000 </r>
       <r>    3.8089    1.0000 </r>
       <r>    3.8547    1.0000 </r>
       <r>    5.7558    1.0000 </r>
       <r>    5.8221    1.0000 </r>
       <r>    5.9461    1.0000 </r>
       <r>    6.7212    1.0002 </r>
       <r>    6.8231    1.0025 </r>
       <r>    7.0261    1.0346 </r>
       <r>    7.1685    0.9168 </r>
       <r>    7.2220    0.7598 </r>
       <r>    7.6420   -0.0154 </r>
       <r>    7.7981   -0.0009 </r>
       <r>    8.7171   -0.0000 </r>
       <r>    8.9629   -0.0000 </r>
       <r>   14.5910    0.0000 </r>
       <r>   15.0787    0.0000 </r>
       <r>   16.2157    0.0000 </r>
       <r>   19.0468    0.0000 </r>
       <r>   19.6839    0.0000 </r>
      </set>
      <set comment="kpoint 13">
       <r>   -2.9903    1.0000 </r>
       <r>    2.5388    1.0000 </r>
       <r>    3.0503    1.0000 </r>
       <r>    3.4780    1.0000 </r>
       <r>    3.8147    1.0000 </r>
       <r>    3.8367    1.0000 </r>
       <r>    3.9133    1.0000 </r>
       <r>    5.6375    1.0000 </r>
       <r>    5.7235    1.0000 </r>
       <r>    5.9096    1.0000 </r>
       <r>    6.5372    1.0000 </r>
       <r>    6.7753    1.0009 </r>
       <r>    6.8278    1.0027 </r>
       <r>    6.9402    1.0171 </r>
       <r>    7.1403    0.9712 </r>
       <r>    7.3799    0.1504 </r>
       <r>    7.6391   -0.0160 </r>
       <r>    9.1877   -0.0000 </r>
       <r>    9.4393   -0.0000 </r>
       <r>   14.5559    0.0000 </r>
       <r>   15.3066    0.0000 </r>
       <r>   16.9651    0.0000 </r>
       <r>   18.1631    0.0000 </r>
       <r>   18.7821    0.0000 </r>
      </set>
      <set comment="kpoint 14">
       <r>   -2.7121    1.0000 </r>
       <r>    2.4391    1.0000 </r>
       <r>    2.9844    1.0000 </r>
       <r>    3.6468    1.0000 </r>
       <r>    3.8501    1.0000 </r>
       <r>    3.8748    1.0000 </r>
       <r>    3.9855    1.0000 </r>
       <r>    5.5124    1.0000 </r>
       <r>    5.6095    1.0000 </r>
       <r>    5.8454    1.0000 </r>
       <r>    6.2431    1.0000 </r>
       <r>    6.5985    1.0000 </r>
       <r>    6.7339    1.0003 </r>
       <r>    6.8138    1.0021 </r>
       <r>    6.9986    1.0301 </r>
       <r>    7.0737    1.0307 </r>
       <r>    7.6385   -0.0161 </r>
       <r>    9.7131   -0.0000 </r>
       <r>    9.9791   -0.0000 </r>
       <r>   14.4997    0.0000 </r>
       <r>   15.4619    0.0000 </r>
       <r>   17.2213    0.0000 </r>
       <r>   17.8153    0.0000 </r>
       <r>   17.9018    0.0000 </r>
      </set>
      <set comment="kpoint 15">
       <r>   -2.3606    1.0000 </r>
       <r>    2.1043    1.0000 </r>
       <r>    3.0485    1.0000 </r>
       <r>    3.8283    1.0000 </r>
       <r>    3.8932    1.0000 </r>
       <r>    3.9359    1.0000 </r>
       <r>    4.0655    1.0000 </r>
       <r>    5.3964    1.0000 </r>
       <r>    5.4928    1.0000 </r>
       <r>    5.7583    1.0000 </r>
       <r>    5.9564    1.0000 </r>
       <r>    6.4355    1.0000 </r>
       <r>    6.5574    1.0000 </r>
       <r>    6.7328    1.0003 </r>
       <r>    6.8027    1.0016 </r>
       <r>    6.9608    1.0216 </r>
       <r>    7.6386   -0.0161 </r>
       <r>   10.2811   -0.0000 </r>
       <r>   10.5713   -0.0000 </r>
       <r>   14.4195    0.0000 </r>
       <r>   15.6089    0.0000 </r>
       <r>   16.3739    0.0000 </r>
       <r>   16.8604    0.0000 </r>
       <r>   18.2407    0.0000 </r>
      </set>
      <set comment="kpoint 16">
       <r>   -1.9419    1.0000 </r>
       <r>    1.6112    1.0000 </r>
       <r>    3.1685    1.0000 </r>
       <r>    3.9208    1.0000 </r>
       <r>    3.9392    1.0000 </r>
       <r>    4.0999    1.0000 </r>
       <r>    4.1451    1.0000 </r>
       <r>    5.3049    1.0000 </r>
       <r>    5.3805    1.0000 </r>
       <r>    5.6550    1.0000 </r>
       <r>    5.7575    1.0000 </r>
       <r>    6.2804    1.0000 </r>
       <r>    6.4148    1.0000 </r>
       <r>    6.5585    1.0000 </r>
       <r>    6.6776    1.0001 </r>
       <r>    6.9178    1.0127 </r>
       <r>    7.6389   -0.0161 </r>
       <r>   10.8858   -0.0000 </r>
       <r>   11.2108   -0.0000 </r>
       <r>   14.2947    0.0000 </r>
       <r>   15.5880    0.0000 </r>
       <r>   15.7754    0.0000 </r>
       <r>   15.9361    0.0000 </r>
       <r>   17.9292    0.0000 </r>
      </set>
      <set comment="kpoint 17">
       <r>   -1.4670    1.0000 </r>
       <r>    1.0394    1.0000 </r>
       <r>    3.2888    1.0000 </r>
       <r>    3.9586    1.0000 </r>
       <r>    3.9814    1.0000 </r>
       <r>    4.2129    1.0000 </r>
       <r>    4.3019    1.0000 </r>
       <r>    5.2509    1.0000 </r>
       <r>    5.2825    1.0000 </r>
       <r>    5.5458    1.0000 </r>
       <r>    5.6531    1.0000 </r>
       <r>    6.1444    1.0000 </r>
       <r>    6.3100    1.0000 </r>
       <r>    6.4214    1.0000 </r>
       <r>    6.5324    1.0000 </r>
       <r>    6.9083    1.0111 </r>
       <r>    7.6392   -0.0160 </r>
       <r>   11.5224   -0.0000 </r>
       <r>   11.8947   -0.0000 </r>
       <r>   14.0389    0.0000 </r>
       <r>   14.9820    0.0000 </r>
       <r>   15.0483    0.0000 </r>
       <r>   15.9637    0.0000 </r>
       <r>   17.5192    0.0000 </r>
      </set>
      <set comment="kpoint 18">
       <r>   -0.9669    1.0000 </r>
       <r>    0.4640    1.0000 </r>
       <r>    3.3772    1.0000 </r>
       <r>    3.9796    1.0000 </r>
       <r>    4.0119    1.0000 </r>
       <r>    4.2578    1.0000 </r>
       <r>    4.4609    1.0000 </r>
       <r>    5.2143    1.0000 </r>
       <r>    5.2389    1.0000 </r>
       <r>    5.4490    1.0000 </r>
       <r>    5.6119    1.0000 </r>
       <r>    6.0463    1.0000 </r>
       <r>    6.2459    1.0000 </r>
       <r>    6.3407    1.0000 </r>
       <r>    6.4075    1.0000 </r>
       <r>    6.9070    1.0109 </r>
       <r>    7.6394   -0.0159 </r>
       <r>   12.1836   -0.0000 </r>
       <r>   12.6209   -0.0000 </r>
       <r>   13.5296    0.0000 </r>
       <r>   14.1998    0.0000 </r>
       <r>   14.6907    0.0000 </r>
       <r>   16.1608    0.0000 </r>
       <r>   17.1684    0.0000 </r>
      </set>
      <set comment="kpoint 19">
       <r>   -0.6418    1.0000 </r>
       <r>    0.1110    1.0000 </r>
       <r>    3.4099    1.0000 </r>
       <r>    3.9864    1.0000 </r>
       <r>    4.0232    1.0000 </r>
       <r>    4.2733    1.0000 </r>
       <r>    4.5235    1.0000 </r>
       <r>    5.1891    1.0000 </r>
       <r>    5.2463    1.0000 </r>
       <r>    5.4035    1.0000 </r>
       <r>    5.6024    1.0000 </r>
       <r>    6.0094    1.0000 </r>
       <r>    6.2243    1.0000 </r>
       <r>    6.3229    1.0000 </r>
       <r>    6.3486    1.0000 </r>
       <r>    6.9070    1.0109 </r>
       <r>    7.6395   -0.0159 </r>
       <r>   12.7804    0.0000 </r>
       <r>   12.9552    0.0000 </r>
       <r>   13.3530    0.0000 </r>
       <r>   13.4269    0.0000 </r>
       <r>   14.6213    0.0000 </r>
       <r>   16.2694    0.0000 </r>
       <r>   17.0059    0.0000 </r>
      </set>
      <set comment="kpoint 20">
       <r>   -3.0705    1.0000 </r>
       <r>    2.5522    1.0000 </r>
       <r>    3.1580    1.0000 </r>
       <r>    3.3591    1.0000 </r>
       <r>    3.7874    1.0000 </r>
       <r>    3.8228    1.0000 </r>
       <r>    3.9108    1.0000 </r>
       <r>    5.6274    1.0000 </r>
       <r>    5.7640    1.0000 </r>
       <r>    5.9873    1.0000 </r>
       <r>    6.6124    1.0000 </r>
       <r>    6.7933    1.0013 </r>
       <r>    6.7985    1.0015 </r>
       <r>    7.0398    1.0354 </r>
       <r>    7.1757    0.8997 </r>
       <r>    7.5940   -0.0261 </r>
       <r>    7.9275   -0.0000 </r>
       <r>    8.5831   -0.0000 </r>
       <r>    9.2743   -0.0000 </r>
       <r>   14.6689    0.0000 </r>
       <r>   15.4660    0.0000 </r>
       <r>   16.4547    0.0000 </r>
       <r>   18.1546    0.0000 </r>
       <r>   19.6593    0.0000 </r>
      </set>
      <set comment="kpoint 21">
       <r>   -2.8707    1.0000 </r>
       <r>    2.5930    1.0000 </r>
       <r>    3.0695    1.0000 </r>
       <r>    3.4524    1.0000 </r>
       <r>    3.7999    1.0000 </r>
       <r>    3.8471    1.0000 </r>
       <r>    3.9826    1.0000 </r>
       <r>    5.4877    1.0000 </r>
       <r>    5.6817    1.0000 </r>
       <r>    5.9931    1.0000 </r>
       <r>    6.3373    1.0000 </r>
       <r>    6.6678    1.0001 </r>
       <r>    6.7831    1.0011 </r>
       <r>    6.8625    1.0053 </r>
       <r>    7.0974    1.0189 </r>
       <r>    7.5653   -0.0321 </r>
       <r>    7.6468   -0.0145 </r>
       <r>    8.8512   -0.0000 </r>
       <r>    9.7013   -0.0000 </r>
       <r>   14.6558    0.0000 </r>
       <r>   15.8195    0.0000 </r>
       <r>   17.0608    0.0000 </r>
       <r>   17.2700    0.0000 </r>
       <r>   18.9092    0.0000 </r>
      </set>
      <set comment="kpoint 22">
       <r>   -2.5943    1.0000 </r>
       <r>    2.5093    1.0000 </r>
       <r>    3.0040    1.0000 </r>
       <r>    3.6002    1.0000 </r>
       <r>    3.8264    1.0000 </r>
       <r>    3.8866    1.0000 </r>
       <r>    4.0652    1.0000 </r>
       <r>    5.3518    1.0000 </r>
       <r>    5.5873    1.0000 </r>
       <r>    5.9613    1.0000 </r>
       <r>    6.0422    1.0000 </r>
       <r>    6.5295    1.0000 </r>
       <r>    6.6778    1.0001 </r>
       <r>    6.7736    1.0009 </r>
       <r>    6.9894    1.0282 </r>
       <r>    7.2985    0.4518 </r>
       <r>    7.5516   -0.0342 </r>
       <r>    9.2870   -0.0000 </r>
       <r>   10.2067   -0.0000 </r>
       <r>   14.5734    0.0000 </r>
       <r>   16.0191    0.0000 </r>
       <r>   16.4134    0.0000 </r>
       <r>   17.9401    0.0000 </r>
       <r>   17.9748    0.0000 </r>
      </set>
      <set comment="kpoint 23">
       <r>   -2.2452    1.0000 </r>
       <r>    2.1824    1.0000 </r>
       <r>    3.0730    1.0000 </r>
       <r>    3.7490    1.0000 </r>
       <r>    3.8644    1.0000 </r>
       <r>    3.9654    1.0000 </r>
       <r>    4.1504    1.0000 </r>
       <r>    5.2366    1.0000 </r>
       <r>    5.4768    1.0000 </r>
       <r>    5.8091    1.0000 </r>
       <r>    5.8892    1.0000 </r>
       <r>    6.3708    1.0000 </r>
       <r>    6.5140    1.0000 </r>
       <r>    6.7234    1.0002 </r>
       <r>    6.8806    1.0072 </r>
       <r>    7.0361    1.0353 </r>
       <r>    7.5453   -0.0348 </r>
       <r>    9.7775   -0.0000 </r>
       <r>   10.7737   -0.0000 </r>
       <r>   14.3656    0.0000 </r>
       <r>   15.7200    0.0000 </r>
       <r>   16.2155    0.0000 </r>
       <r>   16.9842    0.0000 </r>
       <r>   18.5002    0.0000 </r>
      </set>
      <set comment="kpoint 24">
       <r>   -1.8295    1.0000 </r>
       <r>    1.6960    1.0000 </r>
       <r>    3.1997    1.0000 </r>
       <r>    3.8327    1.0000 </r>
       <r>    3.9098    1.0000 </r>
       <r>    4.1252    1.0000 </r>
       <r>    4.2248    1.0000 </r>
       <r>    5.1615    1.0000 </r>
       <r>    5.3383    1.0000 </r>
       <r>    5.6921    1.0000 </r>
       <r>    5.7764    1.0000 </r>
       <r>    6.2059    1.0000 </r>
       <r>    6.3886    1.0000 </r>
       <r>    6.5940    1.0000 </r>
       <r>    6.7874    1.0012 </r>
       <r>    6.8940    1.0089 </r>
       <r>    7.5425   -0.0351 </r>
       <r>   10.3025   -0.0000 </r>
       <r>   11.3940   -0.0000 </r>
       <r>   13.9386    0.0000 </r>
       <r>   15.3228    0.0000 </r>
       <r>   16.0620    0.0000 </r>
       <r>   16.3998    0.0000 </r>
       <r>   18.3049    0.0000 </r>
      </set>
      <set comment="kpoint 25">
       <r>   -1.3587    1.0000 </r>
       <r>    1.1318    1.0000 </r>
       <r>    3.3284    1.0000 </r>
       <r>    3.8639    1.0000 </r>
       <r>    3.9564    1.0000 </r>
       <r>    4.2730    1.0000 </r>
       <r>    4.3236    1.0000 </r>
       <r>    5.1456    1.0000 </r>
       <r>    5.2062    1.0000 </r>
       <r>    5.6339    1.0000 </r>
       <r>    5.6623    1.0000 </r>
       <r>    6.0536    1.0000 </r>
       <r>    6.3056    1.0000 </r>
       <r>    6.4614    1.0000 </r>
       <r>    6.6415    1.0000 </r>
       <r>    6.8707    1.0061 </r>
       <r>    7.5414   -0.0351 </r>
       <r>   10.8554   -0.0000 </r>
       <r>   12.0627   -0.0000 </r>
       <r>   13.3440    0.0000 </r>
       <r>   15.1482    0.0000 </r>
       <r>   15.1787    0.0000 </r>
       <r>   16.6136    0.0000 </r>
       <r>   17.9397    0.0000 </r>
      </set>
      <set comment="kpoint 26">
       <r>   -0.8643    1.0000 </r>
       <r>    0.5645    1.0000 </r>
       <r>    3.4265    1.0000 </r>
       <r>    3.8714    1.0000 </r>
       <r>    3.9943    1.0000 </r>
       <r>    4.2910    1.0000 </r>
       <r>    4.4930    1.0000 </r>
       <r>    5.1108    1.0000 </r>
       <r>    5.1930    1.0000 </r>
       <r>    5.4856    1.0000 </r>
       <r>    5.6706    1.0000 </r>
       <r>    5.9366    1.0000 </r>
       <r>    6.2595    1.0000 </r>
       <r>    6.3770    1.0000 </r>
       <r>    6.5188    1.0000 </r>
       <r>    6.8684    1.0058 </r>
       <r>    7.5409   -0.0352 </r>
       <r>   11.4306   -0.0000 </r>
       <r>   12.7089   -0.0000 </r>
       <r>   12.7771    0.0000 </r>
       <r>   14.3362    0.0000 </r>
       <r>   15.0780    0.0000 </r>
       <r>   16.8464    0.0000 </r>
       <r>   17.5977    0.0000 </r>
      </set>
      <set comment="kpoint 27">
       <r>   -0.5462    1.0000 </r>
       <r>    0.2194    1.0000 </r>
       <r>    3.4642    1.0000 </r>
       <r>    3.8709    1.0000 </r>
       <r>    4.0096    1.0000 </r>
       <r>    4.2931    1.0000 </r>
       <r>    4.5649    1.0000 </r>
       <r>    5.0719    1.0000 </r>
       <r>    5.2521    1.0000 </r>
       <r>    5.3928    1.0000 </r>
       <r>    5.6808    1.0000 </r>
       <r>    5.8888    1.0000 </r>
       <r>    6.2448    1.0000 </r>
       <r>    6.3521    1.0000 </r>
       <r>    6.4675    1.0000 </r>
       <r>    6.8684    1.0058 </r>
       <r>    7.5408   -0.0352 </r>
       <r>   11.9124   -0.0000 </r>
       <r>   12.2031   -0.0000 </r>
       <r>   13.5312    0.0000 </r>
       <r>   13.5394    0.0000 </r>
       <r>   15.0586    0.0000 </r>
       <r>   17.0013    0.0000 </r>
       <r>   17.4053    0.0000 </r>
      </set>
      <set comment="kpoint 28">
       <r>   -2.6729    1.0000 </r>
       <r>    2.6601    1.0000 </r>
       <r>    3.0347    1.0000 </r>
       <r>    3.4643    1.0000 </r>
       <r>    3.8009    1.0000 </r>
       <r>    3.8689    1.0000 </r>
       <r>    4.0687    1.0000 </r>
       <r>    5.3326    1.0000 </r>
       <r>    5.6271    1.0000 </r>
       <r>    6.0447    1.0000 </r>
       <r>    6.0564    1.0000 </r>
       <r>    6.6065    1.0000 </r>
       <r>    6.7351    1.0003 </r>
       <r>    6.7391    1.0004 </r>
       <r>    7.0242    1.0344 </r>
       <r>    7.4968   -0.0295 </r>
       <r>    7.7226   -0.0043 </r>
       <r>    8.6667   -0.0000 </r>
       <r>   10.0823   -0.0000 </r>
       <r>   14.6137    0.0000 </r>
       <r>   16.3896    0.0000 </r>
       <r>   16.4979    0.0000 </r>
       <r>   17.3875    0.0000 </r>
       <r>   19.0764    0.0000 </r>
      </set>
      <set comment="kpoint 29">
       <r>   -2.3995    1.0000 </r>
       <r>    2.6190    1.0000 </r>
       <r>    2.9819    1.0000 </r>
       <r>    3.5501    1.0000 </r>
       <r>    3.8174    1.0000 </r>
       <r>    3.9118    1.0000 </r>
       <r>    4.1650    1.0000 </r>
       <r>    5.1879    1.0000 </r>
       <r>    5.5656    1.0000 </r>
       <r>    5.7899    1.0000 </r>
       <r>    6.0556    1.0000 </r>
       <r>    6.4977    1.0000 </r>
       <r>    6.5795    1.0000 </r>
       <r>    6.7168    1.0002 </r>
       <r>    6.9231    1.0137 </r>
       <r>    7.4506    0.0056 </r>
       <r>    7.4960   -0.0292 </r>
       <r>    8.8609   -0.0000 </r>
       <r>   10.5498   -0.0000 </r>
       <r>   14.3674    0.0000 </r>
       <r>   15.7453    0.0000 </r>
       <r>   16.9037    0.0000 </r>
       <r>   18.0882    0.0000 </r>
       <r>   18.1369    0.0000 </r>
      </set>
      <set comment="kpoint 30">
       <r>   -2.0544    1.0000 </r>
       <r>    2.3067    1.0000 </r>
       <r>    3.0705    1.0000 </r>
       <r>    3.6566    1.0000 </r>
       <r>    3.8472    1.0000 </r>
       <r>    3.9989    1.0000 </r>
       <r>    4.2595    1.0000 </r>
       <r>    5.0726    1.0000 </r>
       <r>    5.4370    1.0000 </r>
       <r>    5.6441    1.0000 </r>
       <r>    6.0084    1.0000 </r>
       <r>    6.3493    1.0000 </r>
       <r>    6.4362    1.0000 </r>
       <r>    6.6762    1.0001 </r>
       <r>    6.8242    1.0025 </r>
       <r>    7.2167    0.7783 </r>
       <r>    7.4233    0.0469 </r>
       <r>    9.2300   -0.0000 </r>
       <r>   11.0858   -0.0000 </r>
       <r>   13.8355    0.0000 </r>
       <r>   15.4376    0.0000 </r>
       <r>   17.1284    0.0000 </r>
       <r>   17.1803    0.0000 </r>
       <r>   18.6811    0.0000 </r>
      </set>
      <set comment="kpoint 31">
       <r>   -1.6440    1.0000 </r>
       <r>    1.8321    1.0000 </r>
       <r>    3.2143    1.0000 </r>
       <r>    3.7233    1.0000 </r>
       <r>    3.8874    1.0000 </r>
       <r>    4.1516    1.0000 </r>
       <r>    4.3296    1.0000 </r>
       <r>    5.0147    1.0000 </r>
       <r>    5.2535    1.0000 </r>
       <r>    5.6316    1.0000 </r>
       <r>    5.8858    1.0000 </r>
       <r>    6.1824    1.0000 </r>
       <r>    6.3443    1.0000 </r>
       <r>    6.5645    1.0000 </r>
       <r>    6.7867    1.0011 </r>
       <r>    6.9890    1.0281 </r>
       <r>    7.4079    0.0783 </r>
       <r>    9.6627   -0.0000 </r>
       <r>   11.6804   -0.0000 </r>
       <r>   13.1567    0.0000 </r>
       <r>   15.3424    0.0000 </r>
       <r>   16.2635    0.0000 </r>
       <r>   17.3210    0.0000 </r>
       <r>   18.6261    0.0000 </r>
      </set>
      <set comment="kpoint 32">
       <r>   -1.1801    1.0000 </r>
       <r>    1.2812    1.0000 </r>
       <r>    3.3614    1.0000 </r>
       <r>    3.7400    1.0000 </r>
       <r>    3.9323    1.0000 </r>
       <r>    4.3445    1.0000 </r>
       <r>    4.3517    1.0000 </r>
       <r>    5.0422    1.0000 </r>
       <r>    5.1037    1.0000 </r>
       <r>    5.6605    1.0000 </r>
       <r>    5.7094    1.0000 </r>
       <r>    6.0185    1.0000 </r>
       <r>    6.2996    1.0000 </r>
       <r>    6.4438    1.0000 </r>
       <r>    6.7568    1.0006 </r>
       <r>    6.8338    1.0031 </r>
       <r>    7.3994    0.0979 </r>
       <r>   10.1351   -0.0000 </r>
       <r>   12.3273   -0.0000 </r>
       <r>   12.4703   -0.0000 </r>
       <r>   15.3228    0.0000 </r>
       <r>   15.3890    0.0000 </r>
       <r>   17.5017    0.0000 </r>
       <r>   18.3660    0.0000 </r>
      </set>
      <set comment="kpoint 33">
       <r>   -0.6956    1.0000 </r>
       <r>    0.7283    1.0000 </r>
       <r>    3.4869    1.0000 </r>
       <r>    3.7192    1.0000 </r>
       <r>    3.9717    1.0000 </r>
       <r>    4.3369    1.0000 </r>
       <r>    4.5251    1.0000 </r>
       <r>    4.9925    1.0000 </r>
       <r>    5.1485    1.0000 </r>
       <r>    5.5186    1.0000 </r>
       <r>    5.7060    1.0000 </r>
       <r>    5.8788    1.0000 </r>
       <r>    6.2795    1.0000 </r>
       <r>    6.3692    1.0000 </r>
       <r>    6.6540    1.0000 </r>
       <r>    6.8063    1.0018 </r>
       <r>    7.3953    0.1082 </r>
       <r>   10.6414   -0.0000 </r>
       <r>   11.8262   -0.0000 </r>
       <r>   13.0223    0.0000 </r>
       <r>   14.5584    0.0000 </r>
       <r>   15.3250    0.0000 </r>
       <r>   17.6526    0.0000 </r>
       <r>   18.1510    0.0000 </r>
      </set>
      <set comment="kpoint 34">
       <r>   -0.3890    1.0000 </r>
       <r>    0.3962    1.0000 </r>
       <r>    3.5485    1.0000 </r>
       <r>    3.6936    1.0000 </r>
       <r>    3.9885    1.0000 </r>
       <r>    4.3248    1.0000 </r>
       <r>    4.6130    1.0000 </r>
       <r>    4.9378    1.0000 </r>
       <r>    5.2617    1.0000 </r>
       <r>    5.3794    1.0000 </r>
       <r>    5.7546    1.0000 </r>
       <r>    5.7944    1.0000 </r>
       <r>    6.2735    1.0000 </r>
       <r>    6.3485    1.0000 </r>
       <r>    6.6035    1.0000 </r>
       <r>    6.8050    1.0017 </r>
       <r>    7.3941    0.1114 </r>
       <r>   11.0836   -0.0000 </r>
       <r>   11.3368   -0.0000 </r>
       <r>   13.7044    0.0000 </r>
       <r>   13.8313    0.0000 </r>
       <r>   15.3279    0.0000 </r>
       <r>   17.7232    0.0000 </r>
       <r>   18.0601    0.0000 </r>
      </set>
      <set comment="kpoint 35">
       <r>   -2.1304    1.0000 </r>
       <r>    2.7303    1.0000 </r>
       <r>    2.8529    1.0000 </r>
       <r>    3.5554    1.0000 </r>
       <r>    3.8237    1.0000 </r>
       <r>    3.9595    1.0000 </r>
       <r>    4.2775    1.0000 </r>
       <r>    5.0357    1.0000 </r>
       <r>    5.5364    1.0000 </r>
       <r>    5.5607    1.0000 </r>
       <r>    6.1174    1.0000 </r>
       <r>    6.4399    1.0000 </r>
       <r>    6.4442    1.0000 </r>
       <r>    6.6664    1.0001 </r>
       <r>    6.8270    1.0027 </r>
       <r>    7.3642    0.1991 </r>
       <r>    7.5163   -0.0344 </r>
       <r>    8.6774   -0.0000 </r>
       <r>   10.9820   -0.0000 </r>
       <r>   13.7937    0.0000 </r>
       <r>   15.4672    0.0000 </r>
       <r>   17.7687    0.0000 </r>
       <r>   18.2616    0.0000 </r>
       <r>   18.3139    0.0000 </r>
      </set>
      <set comment="kpoint 36">
       <r>   -1.7911    1.0000 </r>
       <r>    2.4676    1.0000 </r>
       <r>    2.9481    1.0000 </r>
       <r>    3.6139    1.0000 </r>
       <r>    3.8441    1.0000 </r>
       <r>    4.0452    1.0000 </r>
       <r>    4.3874    1.0000 </r>
       <r>    4.9162    1.0000 </r>
       <r>    5.3126    1.0000 </r>
       <r>    5.5771    1.0000 </r>
       <r>    6.1092    1.0000 </r>
       <r>    6.3189    1.0000 </r>
       <r>    6.3288    1.0000 </r>
       <r>    6.6203    1.0000 </r>
       <r>    6.7269    1.0003 </r>
       <r>    7.3020    0.4372 </r>
       <r>    7.3349    0.3039 </r>
       <r>    8.8133   -0.0000 </r>
       <r>   11.4864   -0.0000 </r>
       <r>   13.0486    0.0000 </r>
       <r>   15.4179    0.0000 </r>
       <r>   17.4220    0.0000 </r>
       <r>   18.1394    0.0000 </r>
       <r>   18.7648    0.0000 </r>
      </set>
      <set comment="kpoint 37">
       <r>   -1.3884    1.0000 </r>
       <r>    2.0107    1.0000 </r>
       <r>    3.1161    1.0000 </r>
       <r>    3.6675    1.0000 </r>
       <r>    3.8757    1.0000 </r>
       <r>    4.1825    1.0000 </r>
       <r>    4.4526    1.0000 </r>
       <r>    4.8766    1.0000 </r>
       <r>    5.1313    1.0000 </r>
       <r>    5.6157    1.0000 </r>
       <r>    5.9636    1.0000 </r>
       <r>    6.1807    1.0000 </r>
       <r>    6.2886    1.0000 </r>
       <r>    6.5137    1.0000 </r>
       <r>    6.6948    1.0001 </r>
       <r>    7.1118    1.0071 </r>
       <r>    7.2613    0.6080 </r>
       <r>    9.1142   -0.0000 </r>
       <r>   12.0524   -0.0000 </r>
       <r>   12.3015   -0.0000 </r>
       <r>   15.4461    0.0000 </r>
       <r>   16.5244    0.0000 </r>
       <r>   18.2141    0.0000 </r>
       <r>   19.0731    0.0000 </r>
      </set>
      <set comment="kpoint 38">
       <r>   -0.9347    1.0000 </r>
       <r>    1.4803    1.0000 </r>
       <r>    3.2753    1.0000 </r>
       <r>    3.6864    1.0000 </r>
       <r>    3.9135    1.0000 </r>
       <r>    4.3602    1.0000 </r>
       <r>    4.4356    1.0000 </r>
       <r>    4.9592    1.0000 </r>
       <r>    4.9937    1.0000 </r>
       <r>    5.6634    1.0000 </r>
       <r>    5.7562    1.0000 </r>
       <r>    6.0228    1.0000 </r>
       <r>    6.2955    1.0000 </r>
       <r>    6.4020    1.0000 </r>
       <r>    6.6971    1.0001 </r>
       <r>    6.9210    1.0133 </r>
       <r>    7.2366    0.7062 </r>
       <r>    9.4915   -0.0000 </r>
       <r>   11.6078   -0.0000 </r>
       <r>   12.6732   -0.0000 </r>
       <r>   15.4967    0.0000 </r>
       <r>   15.6671    0.0000 </r>
       <r>   18.1448    0.0000 </r>
       <r>   19.1407    0.0000 </r>
      </set>
      <set comment="kpoint 39">
       <r>   -0.4646    1.0000 </r>
       <r>    0.9490    1.0000 </r>
       <r>    3.4033    1.0000 </r>
       <r>    3.6710    1.0000 </r>
       <r>    3.9476    1.0000 </r>
       <r>    4.3881    1.0000 </r>
       <r>    4.5427    1.0000 </r>
       <r>    4.8823    1.0000 </r>
       <r>    5.1189    1.0000 </r>
       <r>    5.5397    1.0000 </r>
       <r>    5.7079    1.0000 </r>
       <r>    5.8854    1.0000 </r>
       <r>    6.3023    1.0000 </r>
       <r>    6.3401    1.0000 </r>
       <r>    6.7039    1.0001 </r>
       <r>    6.7820    1.0010 </r>
       <r>    7.2235    0.7548 </r>
       <r>    9.9232   -0.0000 </r>
       <r>   10.9846   -0.0000 </r>
       <r>   13.3418    0.0000 </r>
       <r>   14.8573    0.0000 </r>
       <r>   15.5413    0.0000 </r>
       <r>   18.0306    0.0000 </r>
       <r>   19.2211    0.0000 </r>
      </set>
      <set comment="kpoint 40">
       <r>   -0.1737    1.0000 </r>
       <r>    0.6352    1.0000 </r>
       <r>    3.4608    1.0000 </r>
       <r>    3.6518    1.0000 </r>
       <r>    3.9622    1.0000 </r>
       <r>    4.3658    1.0000 </r>
       <r>    4.6544    1.0000 </r>
       <r>    4.8054    1.0000 </r>
       <r>    5.2749    1.0000 </r>
       <r>    5.3671    1.0000 </r>
       <r>    5.7404    1.0000 </r>
       <r>    5.8134    1.0000 </r>
       <r>    6.3047    1.0000 </r>
       <r>    6.3260    1.0000 </r>
       <r>    6.7157    1.0002 </r>
       <r>    6.7185    1.0002 </r>
       <r>    7.2193    0.7693 </r>
       <r>   10.3408   -0.0000 </r>
       <r>   10.5028   -0.0000 </r>
       <r>   13.9460    0.0000 </r>
       <r>   14.2063    0.0000 </r>
       <r>   15.5591    0.0000 </r>
       <r>   17.9801    0.0000 </r>
       <r>   19.2606    0.0000 </r>
      </set>
      <set comment="kpoint 41">
       <r>   -1.4598    1.0000 </r>
       <r>    2.6198    1.0000 </r>
       <r>    2.6818    1.0000 </r>
       <r>    3.6488    1.0000 </r>
       <r>    3.8540    1.0000 </r>
       <r>    4.1172    1.0000 </r>
       <r>    4.5246    1.0000 </r>
       <r>    4.7819    1.0000 </r>
       <r>    5.1465    1.0000 </r>
       <r>    5.5954    1.0000 </r>
       <r>    6.1547    1.0000 </r>
       <r>    6.1976    1.0000 </r>
       <r>    6.2742    1.0000 </r>
       <r>    6.5760    1.0000 </r>
       <r>    6.6031    1.0000 </r>
       <r>    7.2006    0.8307 </r>
       <r>    7.3092    0.4069 </r>
       <r>    8.6555   -0.0000 </r>
       <r>   11.9600   -0.0000 </r>
       <r>   12.2415   -0.0000 </r>
       <r>   15.4847    0.0000 </r>
       <r>   17.4872    0.0000 </r>
       <r>   18.0959    0.0000 </r>
       <r>   18.7689    0.0000 </r>
      </set>
      <set comment="kpoint 42">
       <r>   -1.0676    1.0000 </r>
       <r>    2.2161    1.0000 </r>
       <r>    2.8448    1.0000 </r>
       <r>    3.7048    1.0000 </r>
       <r>    3.8744    1.0000 </r>
       <r>    4.2279    1.0000 </r>
       <r>    4.5819    1.0000 </r>
       <r>    4.7632    1.0000 </r>
       <r>    5.0032    1.0000 </r>
       <r>    5.6425    1.0000 </r>
       <r>    5.9697    1.0000 </r>
       <r>    6.1710    1.0000 </r>
       <r>    6.2555    1.0000 </r>
       <r>    6.4541    1.0000 </r>
       <r>    6.5727    1.0000 </r>
       <r>    7.1255    0.9920 </r>
       <r>    7.1603    0.9347 </r>
       <r>    8.7519   -0.0000 </r>
       <r>   11.4900   -0.0000 </r>
       <r>   12.4963   -0.0000 </r>
       <r>   15.5822    0.0000 </r>
       <r>   16.8021    0.0000 </r>
       <r>   18.2575    0.0000 </r>
       <r>   18.6959    0.0000 </r>
      </set>
      <set comment="kpoint 43">
       <r>   -0.6279    1.0000 </r>
       <r>    1.7165    1.0000 </r>
       <r>    3.0126    1.0000 </r>
       <r>    3.7409    1.0000 </r>
       <r>    3.9005    1.0000 </r>
       <r>    4.3759    1.0000 </r>
       <r>    4.5040    1.0000 </r>
       <r>    4.8927    1.0000 </r>
       <r>    4.9203    1.0000 </r>
       <r>    5.6913    1.0000 </r>
       <r>    5.7607    1.0000 </r>
       <r>    6.0381    1.0000 </r>
       <r>    6.2992    1.0000 </r>
       <r>    6.3392    1.0000 </r>
       <r>    6.5787    1.0000 </r>
       <r>    6.9889    1.0281 </r>
       <r>    7.0752    1.0302 </r>
       <r>    8.9966   -0.0000 </r>
       <r>   10.8195   -0.0000 </r>
       <r>   13.0876    0.0000 </r>
       <r>   15.6843    0.0000 </r>
       <r>   15.9914    0.0000 </r>
       <r>   18.4883    0.0000 </r>
       <r>   18.5923    0.0000 </r>
      </set>
      <set comment="kpoint 44">
       <r>   -0.1770    1.0000 </r>
       <r>    1.2157    1.0000 </r>
       <r>    3.1325    1.0000 </r>
       <r>    3.7523    1.0000 </r>
       <r>    3.9241    1.0000 </r>
       <r>    4.4374    1.0000 </r>
       <r>    4.5387    1.0000 </r>
       <r>    4.7975    1.0000 </r>
       <r>    5.1133    1.0000 </r>
       <r>    5.5442    1.0000 </r>
       <r>    5.7232    1.0000 </r>
       <r>    5.9143    1.0000 </r>
       <r>    6.2847    1.0000 </r>
       <r>    6.3252    1.0000 </r>
       <r>    6.5891    1.0000 </r>
       <r>    6.8548    1.0046 </r>
       <r>    7.0464    1.0354 </r>
       <r>    9.3307   -0.0000 </r>
       <r>   10.2388   -0.0000 </r>
       <r>   13.7236    0.0000 </r>
       <r>   15.2166    0.0000 </r>
       <r>   15.7648    0.0000 </r>
       <r>   18.3032    0.0000 </r>
       <r>   18.8799    0.0000 </r>
      </set>
      <set comment="kpoint 45">
       <r>    0.0943    1.0000 </r>
       <r>    0.9253    1.0000 </r>
       <r>    3.1769    1.0000 </r>
       <r>    3.7528    1.0000 </r>
       <r>    3.9340    1.0000 </r>
       <r>    4.4125    1.0000 </r>
       <r>    4.6799    1.0000 </r>
       <r>    4.6900    1.0000 </r>
       <r>    5.2915    1.0000 </r>
       <r>    5.3581    1.0000 </r>
       <r>    5.7367    1.0000 </r>
       <r>    5.8574    1.0000 </r>
       <r>    6.2753    1.0000 </r>
       <r>    6.3338    1.0000 </r>
       <r>    6.5949    1.0000 </r>
       <r>    6.8007    1.0016 </r>
       <r>    7.0370    1.0354 </r>
       <r>    9.7087   -0.0000 </r>
       <r>    9.7793   -0.0000 </r>
       <r>   14.2546    0.0000 </r>
       <r>   14.6388    0.0000 </r>
       <r>   15.7961    0.0000 </r>
       <r>   18.2314    0.0000 </r>
       <r>   18.9994    0.0000 </r>
      </set>
      <set comment="kpoint 46">
       <r>   -0.6894    1.0000 </r>
       <r>    2.3666    1.0000 </r>
       <r>    2.5163    1.0000 </r>
       <r>    3.7663    1.0000 </r>
       <r>    3.8812    1.0000 </r>
       <r>    4.3014    1.0000 </r>
       <r>    4.6037    1.0000 </r>
       <r>    4.7921    1.0000 </r>
       <r>    4.8946    1.0000 </r>
       <r>    5.6944    1.0000 </r>
       <r>    5.8731    1.0000 </r>
       <r>    6.1266    1.0000 </r>
       <r>    6.2757    1.0000 </r>
       <r>    6.3783    1.0000 </r>
       <r>    6.4630    1.0000 </r>
       <r>    7.0144    1.0330 </r>
       <r>    7.1064    1.0120 </r>
       <r>    8.6251   -0.0000 </r>
       <r>   10.7623   -0.0000 </r>
       <r>   13.0018    0.0000 </r>
       <r>   15.7337    0.0000 </r>
       <r>   16.8623    0.0000 </r>
       <r>   17.7063    0.0000 </r>
       <r>   18.8419    0.0000 </r>
      </set>
      <set comment="kpoint 47">
       <r>   -0.2681    1.0000 </r>
       <r>    1.9682    1.0000 </r>
       <r>    2.6533    1.0000 </r>
       <r>    3.8044    1.0000 </r>
       <r>    3.8925    1.0000 </r>
       <r>    4.4085    1.0000 </r>
       <r>    4.5313    1.0000 </r>
       <r>    4.8122    1.0000 </r>
       <r>    4.9534    1.0000 </r>
       <r>    5.7139    1.0000 </r>
       <r>    5.7465    1.0000 </r>
       <r>    6.0411    1.0000 </r>
       <r>    6.2640    1.0000 </r>
       <r>    6.3151    1.0000 </r>
       <r>    6.4354    1.0000 </r>
       <r>    6.9333    1.0157 </r>
       <r>    6.9910    1.0285 </r>
       <r>    8.6977   -0.0000 </r>
       <r>   10.1372   -0.0000 </r>
       <r>   13.5609    0.0000 </r>
       <r>   15.8815    0.0000 </r>
       <r>   16.3087    0.0000 </r>
       <r>   17.8226    0.0000 </r>
       <r>   18.7445    0.0000 </r>
      </set>
      <set comment="kpoint 48">
       <r>    0.1581    1.0000 </r>
       <r>    1.5099    1.0000 </r>
       <r>    2.7955    1.0000 </r>
       <r>    3.8142    1.0000 </r>
       <r>    3.9030    1.0000 </r>
       <r>    4.4784    1.0000 </r>
       <r>    4.5314    1.0000 </r>
       <r>    4.7438    1.0000 </r>
       <r>    5.1370    1.0000 </r>
       <r>    5.5282    1.0000 </r>
       <r>    5.7749    1.0000 </r>
       <r>    5.9396    1.0000 </r>
       <r>    6.2058    1.0000 </r>
       <r>    6.3463    1.0000 </r>
       <r>    6.4351    1.0000 </r>
       <r>    6.8834    1.0075 </r>
       <r>    6.8837    1.0076 </r>
       <r>    8.9039   -0.0000 </r>
       <r>    9.6215   -0.0000 </r>
       <r>   14.1594    0.0000 </r>
       <r>   15.6076    0.0000 </r>
       <r>   15.9957    0.0000 </r>
       <r>   18.0827    0.0000 </r>
       <r>   18.5787    0.0000 </r>
      </set>
      <set comment="kpoint 49">
       <r>    0.4071    1.0000 </r>
       <r>    1.2478    1.0000 </r>
       <r>    2.8491    1.0000 </r>
       <r>    3.8137    1.0000 </r>
       <r>    3.9073    1.0000 </r>
       <r>    4.4596    1.0000 </r>
       <r>    4.6162    1.0000 </r>
       <r>    4.6873    1.0000 </r>
       <r>    5.3104    1.0000 </r>
       <r>    5.3530    1.0000 </r>
       <r>    5.7825    1.0000 </r>
       <r>    5.8894    1.0000 </r>
       <r>    6.1979    1.0000 </r>
       <r>    6.3579    1.0000 </r>
       <r>    6.4369    1.0000 </r>
       <r>    6.8393    1.0034 </r>
       <r>    6.8664    1.0056 </r>
       <r>    9.2069   -0.0000 </r>
       <r>    9.2182   -0.0000 </r>
       <r>   14.6289    0.0000 </r>
       <r>   15.0979    0.0000 </r>
       <r>   16.0400    0.0000 </r>
       <r>   18.2002    0.0000 </r>
       <r>   18.5062    0.0000 </r>
      </set>
      <set comment="kpoint 50">
       <r>    0.1293    1.0000 </r>
       <r>    2.1411    1.0000 </r>
       <r>    2.3082    1.0000 </r>
       <r>    3.8256    1.0000 </r>
       <r>    3.8881    1.0000 </r>
       <r>    4.4737    1.0000 </r>
       <r>    4.5229    1.0000 </r>
       <r>    4.7544    1.0000 </r>
       <r>    5.0534    1.0000 </r>
       <r>    5.6187    1.0000 </r>
       <r>    5.8112    1.0000 </r>
       <r>    6.0138    1.0000 </r>
       <r>    6.1813    1.0000 </r>
       <r>    6.3139    1.0000 </r>
       <r>    6.3404    1.0000 </r>
       <r>    6.8228    1.0025 </r>
       <r>    6.9345    1.0159 </r>
       <r>    8.5984   -0.0000 </r>
       <r>    9.5789   -0.0000 </r>
       <r>   14.0845    0.0000 </r>
       <r>   16.0696    0.0000 </r>
       <r>   16.4010    0.0000 </r>
       <r>   17.3355    0.0000 </r>
       <r>   18.8853    0.0000 </r>
      </set>
      <set comment="kpoint 51">
       <r>    0.5258    1.0000 </r>
       <r>    1.7986    1.0000 </r>
       <r>    2.4225    1.0000 </r>
       <r>    3.8087    1.0000 </r>
       <r>    3.8860    1.0000 </r>
       <r>    4.5072    1.0000 </r>
       <r>    4.5576    1.0000 </r>
       <r>    4.7113    1.0000 </r>
       <r>    5.1895    1.0000 </r>
       <r>    5.4887    1.0000 </r>
       <r>    5.8522    1.0000 </r>
       <r>    5.9540    1.0000 </r>
       <r>    6.1163    1.0000 </r>
       <r>    6.2668    1.0000 </r>
       <r>    6.3649    1.0000 </r>
       <r>    6.7510    1.0005 </r>
       <r>    6.8631    1.0053 </r>
       <r>    8.6595   -0.0000 </r>
       <r>    9.1504   -0.0000 </r>
       <r>   14.6426    0.0000 </r>
       <r>   15.9700    0.0000 </r>
       <r>   16.2140    0.0000 </r>
       <r>   17.3717    0.0000 </r>
       <r>   18.8588    0.0000 </r>
      </set>
      <set comment="kpoint 52">
       <r>    0.7514    1.0000 </r>
       <r>    1.5690    1.0000 </r>
       <r>    2.4915    1.0000 </r>
       <r>    3.7947    1.0000 </r>
       <r>    3.8855    1.0000 </r>
       <r>    4.5005    1.0000 </r>
       <r>    4.6091    1.0000 </r>
       <r>    4.6826    1.0000 </r>
       <r>    5.3295    1.0000 </r>
       <r>    5.3508    1.0000 </r>
       <r>    5.8624    1.0000 </r>
       <r>    5.9133    1.0000 </r>
       <r>    6.1062    1.0000 </r>
       <r>    6.2579    1.0000 </r>
       <r>    6.3754    1.0000 </r>
       <r>    6.7256    1.0003 </r>
       <r>    6.8303    1.0029 </r>
       <r>    8.8425   -0.0000 </r>
       <r>    8.8500   -0.0000 </r>
       <r>   15.0669    0.0000 </r>
       <r>   15.5386    0.0000 </r>
       <r>   16.2698    0.0000 </r>
       <r>   17.4585    0.0000 </r>
       <r>   18.8159    0.0000 </r>
      </set>
      <set comment="kpoint 53">
       <r>    0.8899    1.0000 </r>
       <r>    1.9874    1.0000 </r>
       <r>    2.0941    1.0000 </r>
       <r>    3.7511    1.0000 </r>
       <r>    3.8750    1.0000 </r>
       <r>    4.5235    1.0000 </r>
       <r>    4.6128    1.0000 </r>
       <r>    4.6897    1.0000 </r>
       <r>    5.2637    1.0000 </r>
       <r>    5.4263    1.0000 </r>
       <r>    5.9212    1.0000 </r>
       <r>    5.9493    1.0000 </r>
       <r>    6.0390    1.0000 </r>
       <r>    6.1488    1.0000 </r>
       <r>    6.3797    1.0000 </r>
       <r>    6.6631    1.0000 </r>
       <r>    6.8167    1.0022 </r>
       <r>    8.5809   -0.0000 </r>
       <r>    8.8270   -0.0000 </r>
       <r>   15.1594    0.0000 </r>
       <r>   16.1173    0.0000 </r>
       <r>   16.3802    0.0000 </r>
       <r>   16.8721    0.0000 </r>
       <r>   19.0812    0.0000 </r>
      </set>
      <set comment="kpoint 54">
       <r>    1.0957    1.0000 </r>
       <r>    1.8280    1.0000 </r>
       <r>    2.1375    1.0000 </r>
       <r>    3.7161    1.0000 </r>
       <r>    3.8712    1.0000 </r>
       <r>    4.5287    1.0000 </r>
       <r>    4.6480    1.0000 </r>
       <r>    4.6751    1.0000 </r>
       <r>    5.3444    1.0000 </r>
       <r>    5.3502    1.0000 </r>
       <r>    5.9309    1.0000 </r>
       <r>    5.9438    1.0000 </r>
       <r>    6.0182    1.0000 </r>
       <r>    6.1161    1.0000 </r>
       <r>    6.3860    1.0000 </r>
       <r>    6.6317    1.0000 </r>
       <r>    6.7916    1.0013 </r>
       <r>    8.6382   -0.0000 </r>
       <r>    8.6421   -0.0000 </r>
       <r>   15.5642    0.0000 </r>
       <r>   15.8840    0.0000 </r>
       <r>   16.4442    0.0000 </r>
       <r>   16.7790    0.0000 </r>
       <r>   19.1514    0.0000 </r>
      </set>
      <set comment="kpoint 55">
       <r>    1.2965    1.0000 </r>
       <r>    1.9331    1.0000 </r>
       <r>    1.9331    1.0000 </r>
       <r>    3.6699    1.0000 </r>
       <r>    3.8662    1.0000 </r>
       <r>    4.5387    1.0000 </r>
       <r>    4.6718    1.0000 </r>
       <r>    4.6718    1.0000 </r>
       <r>    5.3502    1.0000 </r>
       <r>    5.3502    1.0000 </r>
       <r>    5.9353    1.0000 </r>
       <r>    5.9802    1.0000 </r>
       <r>    5.9802    1.0000 </r>
       <r>    6.0647    1.0000 </r>
       <r>    6.3895    1.0000 </r>
       <r>    6.5985    1.0000 </r>
       <r>    6.7685    1.0008 </r>
       <r>    8.5749   -0.0000 </r>
       <r>    8.5749   -0.0000 </r>
       <r>   16.0214    0.0000 </r>
       <r>   16.0214    0.0000 </r>
       <r>   16.2612    0.0000 </r>
       <r>   16.5112    0.0000 </r>
       <r>   19.3734    0.0000 </r>
      </set>
      <set comment="kpoint 56">
       <r>   -3.2722    1.0000 </r>
       <r>    2.4842    1.0000 </r>
       <r>    3.2555    1.0000 </r>
       <r>    3.2555    1.0000 </r>
       <r>    3.7705    1.0000 </r>
       <r>    3.8190    1.0000 </r>
       <r>    3.8190    1.0000 </r>
       <r>    5.7850    1.0000 </r>
       <r>    5.9250    1.0000 </r>
       <r>    5.9250    1.0000 </r>
       <r>    6.8013    1.0016 </r>
       <r>    6.8013    1.0016 </r>
       <r>    7.2362    0.7077 </r>
       <r>    7.2362    0.7077 </r>
       <r>    7.2458    0.6708 </r>
       <r>    7.6380   -0.0162 </r>
       <r>    8.1846   -0.0000 </r>
       <r>    8.5303   -0.0000 </r>
       <r>    8.5303   -0.0000 </r>
       <r>   14.7689    0.0000 </r>
       <r>   14.7689    0.0000 </r>
       <r>   15.9242    0.0000 </r>
       <r>   19.6441    0.0000 </r>
       <r>   20.1172    0.0000 </r>
      </set>
      <set comment="kpoint 57">
       <r>   -3.1510    1.0000 </r>
       <r>    2.5249    1.0000 </r>
       <r>    3.1810    1.0000 </r>
       <r>    3.3360    1.0000 </r>
       <r>    3.7714    1.0000 </r>
       <r>    3.8375    1.0000 </r>
       <r>    3.8673    1.0000 </r>
       <r>    5.6773    1.0000 </r>
       <r>    5.8527    1.0000 </r>
       <r>    5.9414    1.0000 </r>
       <r>    6.7123    1.0002 </r>
       <r>    6.8022    1.0016 </r>
       <r>    6.9625    1.0220 </r>
       <r>    7.0558    1.0347 </r>
       <r>    7.2017    0.8274 </r>
       <r>    7.6225   -0.0196 </r>
       <r>    7.9349   -0.0000 </r>
       <r>    8.7907   -0.0000 </r>
       <r>    8.8726   -0.0000 </r>
       <r>   14.7481    0.0000 </r>
       <r>   15.1345    0.0000 </r>
       <r>   16.2709    0.0000 </r>
       <r>   18.9705    0.0000 </r>
       <r>   19.2600    0.0000 </r>
      </set>
      <set comment="kpoint 58">
       <r>   -2.9503    1.0000 </r>
       <r>    2.5579    1.0000 </r>
       <r>    3.0650    1.0000 </r>
       <r>    3.4651    1.0000 </r>
       <r>    3.7862    1.0000 </r>
       <r>    3.8677    1.0000 </r>
       <r>    3.9311    1.0000 </r>
       <r>    5.5555    1.0000 </r>
       <r>    5.7458    1.0000 </r>
       <r>    5.9264    1.0000 </r>
       <r>    6.4988    1.0000 </r>
       <r>    6.7364    1.0003 </r>
       <r>    6.7906    1.0013 </r>
       <r>    6.8703    1.0060 </r>
       <r>    7.1299    0.9864 </r>
       <r>    7.5173   -0.0345 </r>
       <r>    7.6149   -0.0213 </r>
       <r>    9.2449   -0.0000 </r>
       <r>    9.3118   -0.0000 </r>
       <r>   14.7109    0.0000 </r>
       <r>   15.4012    0.0000 </r>
       <r>   16.9934    0.0000 </r>
       <r>   18.1190    0.0000 </r>
       <r>   18.3231    0.0000 </r>
      </set>
      <set comment="kpoint 59">
       <r>   -2.6728    1.0000 </r>
       <r>    2.4626    1.0000 </r>
       <r>    2.9963    1.0000 </r>
       <r>    3.6332    1.0000 </r>
       <r>    3.8125    1.0000 </r>
       <r>    3.9097    1.0000 </r>
       <r>    4.0066    1.0000 </r>
       <r>    5.4347    1.0000 </r>
       <r>    5.6210    1.0000 </r>
       <r>    5.8831    1.0000 </r>
       <r>    6.1867    1.0000 </r>
       <r>    6.5728    1.0000 </r>
       <r>    6.6604    1.0000 </r>
       <r>    6.8118    1.0020 </r>
       <r>    7.0357    1.0353 </r>
       <r>    7.1490    0.9565 </r>
       <r>    7.6111   -0.0222 </r>
       <r>    9.7663   -0.0000 </r>
       <r>    9.8113   -0.0000 </r>
       <r>   14.6516    0.0000 </r>
       <r>   15.5758    0.0000 </r>
       <r>   17.1535    0.0000 </r>
       <r>   17.4126    0.0000 </r>
       <r>   17.9811    0.0000 </r>
      </set>
      <set comment="kpoint 60">
       <r>   -2.3221    1.0000 </r>
       <r>    2.1305    1.0000 </r>
       <r>    3.0603    1.0000 </r>
       <r>    3.8158    1.0000 </r>
       <r>    3.8465    1.0000 </r>
       <r>    3.9738    1.0000 </r>
       <r>    4.0877    1.0000 </r>
       <r>    5.3281    1.0000 </r>
       <r>    5.4944    1.0000 </r>
       <r>    5.8086    1.0000 </r>
       <r>    5.9072    1.0000 </r>
       <r>    6.4111    1.0000 </r>
       <r>    6.5045    1.0000 </r>
       <r>    6.7728    1.0008 </r>
       <r>    6.8678    1.0058 </r>
       <r>    6.9449    1.0181 </r>
       <r>    7.6091   -0.0226 </r>
       <r>   10.3365   -0.0000 </r>
       <r>   10.3558   -0.0000 </r>
       <r>   14.5559    0.0000 </r>
       <r>   15.7335    0.0000 </r>
       <r>   16.2892    0.0000 </r>
       <r>   16.5732    0.0000 </r>
       <r>   18.4720    0.0000 </r>
      </set>
      <set comment="kpoint 61">
       <r>   -1.9044    1.0000 </r>
       <r>    1.6396    1.0000 </r>
       <r>    3.1814    1.0000 </r>
       <r>    3.8827    1.0000 </r>
       <r>    3.9359    1.0000 </r>
       <r>    4.1163    1.0000 </r>
       <r>    4.1652    1.0000 </r>
       <r>    5.2467    1.0000 </r>
       <r>    5.3780    1.0000 </r>
       <r>    5.6586    1.0000 </r>
       <r>    5.7699    1.0000 </r>
       <r>    6.2515    1.0000 </r>
       <r>    6.3756    1.0000 </r>
       <r>    6.6579    1.0000 </r>
       <r>    6.6682    1.0001 </r>
       <r>    6.9031    1.0103 </r>
       <r>    7.6082   -0.0228 </r>
       <r>   10.9357   -0.0000 </r>
       <r>   10.9489   -0.0000 </r>
       <r>   14.3850    0.0000 </r>
       <r>   15.4152    0.0000 </r>
       <r>   15.8579    0.0000 </r>
       <r>   15.9247    0.0000 </r>
       <r>   18.2163    0.0000 </r>
      </set>
      <set comment="kpoint 62">
       <r>   -1.4309    1.0000 </r>
       <r>    1.0703    1.0000 </r>
       <r>    3.3038    1.0000 </r>
       <r>    3.9138    1.0000 </r>
       <r>    3.9882    1.0000 </r>
       <r>    4.2280    1.0000 </r>
       <r>    4.3126    1.0000 </r>
       <r>    5.2014    1.0000 </r>
       <r>    5.2792    1.0000 </r>
       <r>    5.5234    1.0000 </r>
       <r>    5.6991    1.0000 </r>
       <r>    6.1100    1.0000 </r>
       <r>    6.2836    1.0000 </r>
       <r>    6.5061    1.0000 </r>
       <r>    6.5279    1.0000 </r>
       <r>    6.8941    1.0089 </r>
       <r>    7.6078   -0.0229 </r>
       <r>   11.5410   -0.0000 </r>
       <r>   11.5995   -0.0000 </r>
       <r>   14.0583    0.0000 </r>
       <r>   14.5900    0.0000 </r>
       <r>   15.3588    0.0000 </r>
       <r>   16.1234    0.0000 </r>
       <r>   17.7943    0.0000 </r>
      </set>
      <set comment="kpoint 63">
       <r>   -0.9326    1.0000 </r>
       <r>    0.4976    1.0000 </r>
       <r>    3.3947    1.0000 </r>
       <r>    3.9333    1.0000 </r>
       <r>    4.0167    1.0000 </r>
       <r>    4.2673    1.0000 </r>
       <r>    4.4756    1.0000 </r>
       <r>    5.1961    1.0000 </r>
       <r>    5.2052    1.0000 </r>
       <r>    5.4322    1.0000 </r>
       <r>    5.6586    1.0000 </r>
       <r>    6.0068    1.0000 </r>
       <r>    6.2367    1.0000 </r>
       <r>    6.4037    1.0000 </r>
       <r>    6.4122    1.0000 </r>
       <r>    6.8931    1.0088 </r>
       <r>    7.6077   -0.0229 </r>
       <r>   12.1491   -0.0000 </r>
       <r>   12.2829   -0.0000 </r>
       <r>   13.5589    0.0000 </r>
       <r>   13.8001    0.0000 </r>
       <r>   15.1168    0.0000 </r>
       <r>   16.3318    0.0000 </r>
       <r>   17.4255    0.0000 </r>
      </set>
      <set comment="kpoint 64">
       <r>   -0.6100    1.0000 </r>
       <r>    0.1473    1.0000 </r>
       <r>    3.4287    1.0000 </r>
       <r>    3.9395    1.0000 </r>
       <r>    4.0262    1.0000 </r>
       <r>    4.2803    1.0000 </r>
       <r>    4.5419    1.0000 </r>
       <r>    5.1748    1.0000 </r>
       <r>    5.2053    1.0000 </r>
       <r>    5.3929    1.0000 </r>
       <r>    5.6474    1.0000 </r>
       <r>    5.9674    1.0000 </r>
       <r>    6.2284    1.0000 </r>
       <r>    6.3484    1.0000 </r>
       <r>    6.3803    1.0000 </r>
       <r>    6.8933    1.0088 </r>
       <r>    7.6077   -0.0229 </r>
       <r>   12.5659   -0.0000 </r>
       <r>   12.8779    0.0000 </r>
       <r>   13.1630    0.0000 </r>
       <r>   13.1697    0.0000 </r>
       <r>   15.0514    0.0000 </r>
       <r>   16.4454    0.0000 </r>
       <r>   17.2554    0.0000 </r>
      </set>
      <set comment="kpoint 65">
       <r>   -3.0304    1.0000 </r>
       <r>    2.5689    1.0000 </r>
       <r>    3.1852    1.0000 </r>
       <r>    3.3368    1.0000 </r>
       <r>    3.7595    1.0000 </r>
       <r>    3.8649    1.0000 </r>
       <r>    3.9166    1.0000 </r>
       <r>    5.5528    1.0000 </r>
       <r>    5.8141    1.0000 </r>
       <r>    5.9563    1.0000 </r>
       <r>    6.6107    1.0000 </r>
       <r>    6.7614    1.0006 </r>
       <r>    6.7898    1.0012 </r>
       <r>    6.9271    1.0144 </r>
       <r>    7.1414    0.9694 </r>
       <r>    7.5891   -0.0272 </r>
       <r>    8.0446   -0.0000 </r>
       <r>    8.6679   -0.0000 </r>
       <r>    9.1307   -0.0000 </r>
       <r>   14.8993    0.0000 </r>
       <r>   15.4622    0.0000 </r>
       <r>   16.5043    0.0000 </r>
       <r>   18.1938    0.0000 </r>
       <r>   19.1776    0.0000 </r>
      </set>
      <set comment="kpoint 66">
       <r>   -2.8310    1.0000 </r>
       <r>    2.6109    1.0000 </r>
       <r>    3.0915    1.0000 </r>
       <r>    3.4367    1.0000 </r>
       <r>    3.7623    1.0000 </r>
       <r>    3.8950    1.0000 </r>
       <r>    3.9891    1.0000 </r>
       <r>    5.4205    1.0000 </r>
       <r>    5.7205    1.0000 </r>
       <r>    5.9624    1.0000 </r>
       <r>    6.3387    1.0000 </r>
       <r>    6.6643    1.0000 </r>
       <r>    6.7236    1.0002 </r>
       <r>    6.8049    1.0017 </r>
       <r>    7.0677    1.0325 </r>
       <r>    7.5626   -0.0326 </r>
       <r>    7.7507   -0.0025 </r>
       <r>    8.9207   -0.0000 </r>
       <r>    9.5301   -0.0000 </r>
       <r>   14.8937    0.0000 </r>
       <r>   15.8349    0.0000 </r>
       <r>   17.0783    0.0000 </r>
       <r>   17.3260    0.0000 </r>
       <r>   18.3789    0.0000 </r>
      </set>
      <set comment="kpoint 67">
       <r>   -2.5552    1.0000 </r>
       <r>    2.5311    1.0000 </r>
       <r>    3.0198    1.0000 </r>
       <r>    3.5910    1.0000 </r>
       <r>    3.7796    1.0000 </r>
       <r>    3.9377    1.0000 </r>
       <r>    4.0724    1.0000 </r>
       <r>    5.2968    1.0000 </r>
       <r>    5.6058    1.0000 </r>
       <r>    5.9300    1.0000 </r>
       <r>    6.0516    1.0000 </r>
       <r>    6.5280    1.0000 </r>
       <r>    6.5927    1.0000 </r>
       <r>    6.7732    1.0008 </r>
       <r>    6.9776    1.0255 </r>
       <r>    7.3734    0.1699 </r>
       <r>    7.5452   -0.0349 </r>
       <r>    9.3472   -0.0000 </r>
       <r>   10.0034   -0.0000 </r>
       <r>   14.8036    0.0000 </r>
       <r>   16.0536    0.0000 </r>
       <r>   16.4518    0.0000 </r>
       <r>   17.4449    0.0000 </r>
       <r>   18.0549    0.0000 </r>
      </set>
      <set comment="kpoint 68">
       <r>   -2.2069    1.0000 </r>
       <r>    2.2074    1.0000 </r>
       <r>    3.0861    1.0000 </r>
       <r>    3.7449    1.0000 </r>
       <r>    3.8203    1.0000 </r>
       <r>    4.0070    1.0000 </r>
       <r>    4.1571    1.0000 </r>
       <r>    5.1958    1.0000 </r>
       <r>    5.4788    1.0000 </r>
       <r>    5.7713    1.0000 </r>
       <r>    5.9127    1.0000 </r>
       <r>    6.3720    1.0000 </r>
       <r>    6.4538    1.0000 </r>
       <r>    6.7390    1.0004 </r>
       <r>    6.8859    1.0078 </r>
       <r>    7.0668    1.0327 </r>
       <r>    7.5330   -0.0355 </r>
       <r>    9.8300   -0.0000 </r>
       <r>   10.5315   -0.0000 </r>
       <r>   14.5622    0.0000 </r>
       <r>   15.7749    0.0000 </r>
       <r>   16.1928    0.0000 </r>
       <r>   16.6793    0.0000 </r>
       <r>   18.7066    0.0000 </r>
      </set>
      <set comment="kpoint 69">
       <r>   -1.7923    1.0000 </r>
       <r>    1.7235    1.0000 </r>
       <r>    3.2122    1.0000 </r>
       <r>    3.8054    1.0000 </r>
       <r>    3.9100    1.0000 </r>
       <r>    4.1420    1.0000 </r>
       <r>    4.2304    1.0000 </r>
       <r>    5.1321    1.0000 </r>
       <r>    5.3402    1.0000 </r>
       <r>    5.6165    1.0000 </r>
       <r>    5.8379    1.0000 </r>
       <r>    6.2078    1.0000 </r>
       <r>    6.3440    1.0000 </r>
       <r>    6.6348    1.0000 </r>
       <r>    6.8093    1.0019 </r>
       <r>    6.8739    1.0064 </r>
       <r>    7.5255   -0.0353 </r>
       <r>   10.3468   -0.0000 </r>
       <r>   11.1023   -0.0000 </r>
       <r>   14.0902    0.0000 </r>
       <r>   15.2300    0.0000 </r>
       <r>   15.9222    0.0000 </r>
       <r>   16.5173    0.0000 </r>
       <r>   18.6237    0.0000 </r>
      </set>
      <set comment="kpoint 70">
       <r>   -1.3229    1.0000 </r>
       <r>    1.1619    1.0000 </r>
       <r>    3.3421    1.0000 </r>
       <r>    3.8247    1.0000 </r>
       <r>    3.9719    1.0000 </r>
       <r>    4.2748    1.0000 </r>
       <r>    4.3359    1.0000 </r>
       <r>    5.1202    1.0000 </r>
       <r>    5.2109    1.0000 </r>
       <r>    5.5141    1.0000 </r>
       <r>    5.7716    1.0000 </r>
       <r>    6.0549    1.0000 </r>
       <r>    6.2734    1.0000 </r>
       <r>    6.5019    1.0000 </r>
       <r>    6.6530    1.0000 </r>
       <r>    6.8523    1.0044 </r>
       <r>    7.5212   -0.0350 </r>
       <r>   10.8883   -0.0000 </r>
       <r>   11.7002   -0.0000 </r>
       <r>   13.4911    0.0000 </r>
       <r>   14.5868    0.0000 </r>
       <r>   15.6593    0.0000 </r>
       <r>   16.7152    0.0000 </r>
       <r>   18.2499    0.0000 </r>
      </set>
      <set comment="kpoint 71">
       <r>   -0.8306    1.0000 </r>
       <r>    0.5975    1.0000 </r>
       <r>    3.4433    1.0000 </r>
       <r>    3.8265    1.0000 </r>
       <r>    4.0075    1.0000 </r>
       <r>    4.2965    1.0000 </r>
       <r>    4.5083    1.0000 </r>
       <r>    5.1042    1.0000 </r>
       <r>    5.1650    1.0000 </r>
       <r>    5.4220    1.0000 </r>
       <r>    5.7381    1.0000 </r>
       <r>    5.9377    1.0000 </r>
       <r>    6.2458    1.0000 </r>
       <r>    6.3944    1.0000 </r>
       <r>    6.5368    1.0000 </r>
       <r>    6.8516    1.0043 </r>
       <r>    7.5190   -0.0347 </r>
       <r>   11.4402   -0.0000 </r>
       <r>   12.2383   -0.0000 </r>
       <r>   12.9715    0.0000 </r>
       <r>   13.8797    0.0000 </r>
       <r>   15.5713    0.0000 </r>
       <r>   16.9442    0.0000 </r>
       <r>   17.8890    0.0000 </r>
      </set>
      <set comment="kpoint 72">
       <r>   -0.5150    1.0000 </r>
       <r>    0.2551    1.0000 </r>
       <r>    3.4834    1.0000 </r>
       <r>    3.8230    1.0000 </r>
       <r>    4.0201    1.0000 </r>
       <r>    4.3011    1.0000 </r>
       <r>    4.5856    1.0000 </r>
       <r>    5.0593    1.0000 </r>
       <r>    5.2044    1.0000 </r>
       <r>    5.3656    1.0000 </r>
       <r>    5.7334    1.0000 </r>
       <r>    5.8897    1.0000 </r>
       <r>    6.2475    1.0000 </r>
       <r>    6.3457    1.0000 </r>
       <r>    6.4939    1.0000 </r>
       <r>    6.8520    1.0044 </r>
       <r>    7.5184   -0.0347 </r>
       <r>   11.8495   -0.0000 </r>
       <r>   12.2057   -0.0000 </r>
       <r>   13.1539    0.0000 </r>
       <r>   13.2672    0.0000 </r>
       <r>   15.5505    0.0000 </r>
       <r>   17.0805    0.0000 </r>
       <r>   17.7061    0.0000 </r>
      </set>
      <set comment="kpoint 73">
       <r>   -2.6337    1.0000 </r>
       <r>    2.6763    1.0000 </r>
       <r>    3.0623    1.0000 </r>
       <r>    3.4486    1.0000 </r>
       <r>    3.7555    1.0000 </r>
       <r>    3.9224    1.0000 </r>
       <r>    4.0729    1.0000 </r>
       <r>    5.2795    1.0000 </r>
       <r>    5.6577    1.0000 </r>
       <r>    5.9393    1.0000 </r>
       <r>    6.1411    1.0000 </r>
       <r>    6.6084    1.0000 </r>
       <r>    6.6267    1.0000 </r>
       <r>    6.7442    1.0004 </r>
       <r>    6.9804    1.0261 </r>
       <r>    7.5099   -0.0333 </r>
       <r>    7.8169   -0.0006 </r>
       <r>    8.7158   -0.0000 </r>
       <r>    9.8858   -0.0000 </r>
       <r>   14.8685    0.0000 </r>
       <r>   16.4538    0.0000 </r>
       <r>   16.4875    0.0000 </r>
       <r>   17.3945    0.0000 </r>
       <r>   18.6115    0.0000 </r>
      </set>
      <set comment="kpoint 74">
       <r>   -2.3610    1.0000 </r>
       <r>    2.6374    1.0000 </r>
       <r>    3.0040    1.0000 </r>
       <r>    3.5426    1.0000 </r>
       <r>    3.7692    1.0000 </r>
       <r>    3.9629    1.0000 </r>
       <r>    4.1681    1.0000 </r>
       <r>    5.1502    1.0000 </r>
       <r>    5.5762    1.0000 </r>
       <r>    5.7582    1.0000 </r>
       <r>    6.0721    1.0000 </r>
       <r>    6.4911    1.0000 </r>
       <r>    6.5151    1.0000 </r>
       <r>    6.7146    1.0002 </r>
       <r>    6.8849    1.0077 </r>
       <r>    7.4640   -0.0086 </r>
       <r>    7.5692   -0.0314 </r>
       <r>    8.9027   -0.0000 </r>
       <r>   10.3200   -0.0000 </r>
       <r>   14.5835    0.0000 </r>
       <r>   15.8681    0.0000 </r>
       <r>   16.8579    0.0000 </r>
       <r>   17.6501    0.0000 </r>
       <r>   18.1380    0.0000 </r>
      </set>
      <set comment="kpoint 75">
       <r>   -2.0168    1.0000 </r>
       <r>    2.3294    1.0000 </r>
       <r>    3.0850    1.0000 </r>
       <r>    3.6535    1.0000 </r>
       <r>    3.8135    1.0000 </r>
       <r>    4.0337    1.0000 </r>
       <r>    4.2609    1.0000 </r>
       <r>    5.0500    1.0000 </r>
       <r>    5.4333    1.0000 </r>
       <r>    5.6177    1.0000 </r>
       <r>    6.0174    1.0000 </r>
       <r>    6.3508    1.0000 </r>
       <r>    6.3933    1.0000 </r>
       <r>    6.6814    1.0001 </r>
       <r>    6.7985    1.0015 </r>
       <r>    7.2532    0.6412 </r>
       <r>    7.4372    0.0237 </r>
       <r>    9.2675   -0.0000 </r>
       <r>   10.8110   -0.0000 </r>
       <r>   13.9987    0.0000 </r>
       <r>   15.6101    0.0000 </r>
       <r>   16.6362    0.0000 </r>
       <r>   17.3083    0.0000 </r>
       <r>   18.6962    0.0000 </r>
      </set>
      <set comment="kpoint 76">
       <r>   -1.6075    1.0000 </r>
       <r>    1.8578    1.0000 </r>
       <r>    3.2239    1.0000 </r>
       <r>    3.7104    1.0000 </r>
       <r>    3.8864    1.0000 </r>
       <r>    4.1635    1.0000 </r>
       <r>    4.3300    1.0000 </r>
       <r>    5.0034    1.0000 </r>
       <r>    5.2530    1.0000 </r>
       <r>    5.5669    1.0000 </r>
       <r>    5.9240    1.0000 </r>
       <r>    6.1926    1.0000 </r>
       <r>    6.3127    1.0000 </r>
       <r>    6.5814    1.0000 </r>
       <r>    6.7691    1.0008 </r>
       <r>    7.0006    1.0305 </r>
       <r>    7.4131    0.0670 </r>
       <r>    9.6945   -0.0000 </r>
       <r>   11.3366   -0.0000 </r>
       <r>   13.3187    0.0000 </r>
       <r>   15.3823    0.0000 </r>
       <r>   16.0537    0.0000 </r>
       <r>   17.4499    0.0000 </r>
       <r>   18.8566    0.0000 </r>
      </set>
      <set comment="kpoint 77">
       <r>   -1.1452    1.0000 </r>
       <r>    1.3098    1.0000 </r>
       <r>    3.3679    1.0000 </r>
       <r>    3.7184    1.0000 </r>
       <r>    3.9478    1.0000 </r>
       <r>    4.3281    1.0000 </r>
       <r>    4.3743    1.0000 </r>
       <r>    5.0332    1.0000 </r>
       <r>    5.1033    1.0000 </r>
       <r>    5.5172    1.0000 </r>
       <r>    5.8304    1.0000 </r>
       <r>    6.0343    1.0000 </r>
       <r>    6.2748    1.0000 </r>
       <r>    6.4622    1.0000 </r>
       <r>    6.7567    1.0006 </r>
       <r>    6.8198    1.0023 </r>
       <r>    7.3982    0.1008 </r>
       <r>   10.1586   -0.0000 </r>
       <r>   11.8131   -0.0000 </r>
       <r>   12.7446   -0.0000 </r>
       <r>   14.8153    0.0000 </r>
       <r>   15.8563    0.0000 </r>
       <r>   17.6484    0.0000 </r>
       <r>   18.6250    0.0000 </r>
      </set>
      <set comment="kpoint 78">
       <r>   -0.6630    1.0000 </r>
       <r>    0.7601    1.0000 </r>
       <r>    3.4949    1.0000 </r>
       <r>    3.6897    1.0000 </r>
       <r>    3.9891    1.0000 </r>
       <r>    4.3409    1.0000 </r>
       <r>    4.5388    1.0000 </r>
       <r>    4.9834    1.0000 </r>
       <r>    5.1283    1.0000 </r>
       <r>    5.4223    1.0000 </r>
       <r>    5.7929    1.0000 </r>
       <r>    5.9024    1.0000 </r>
       <r>    6.2672    1.0000 </r>
       <r>    6.3733    1.0000 </r>
       <r>    6.6631    1.0000 </r>
       <r>    6.7839    1.0011 </r>
       <r>    7.3902    0.1215 </r>
       <r>   10.6501   -0.0000 </r>
       <r>   11.7354   -0.0000 </r>
       <r>   12.8145    0.0000 </r>
       <r>   14.1161    0.0000 </r>
       <r>   15.8421    0.0000 </r>
       <r>   17.8588    0.0000 </r>
       <r>   18.3351    0.0000 </r>
      </set>
      <set comment="kpoint 79">
       <r>   -0.3590    1.0000 </r>
       <r>    0.4311    1.0000 </r>
       <r>    3.5684    1.0000 </r>
       <r>    3.6503    1.0000 </r>
       <r>    4.0048    1.0000 </r>
       <r>    4.3342    1.0000 </r>
       <r>    4.6348    1.0000 </r>
       <r>    4.9178    1.0000 </r>
       <r>    5.2162    1.0000 </r>
       <r>    5.3333    1.0000 </r>
       <r>    5.8145    1.0000 </r>
       <r>    5.8229    1.0000 </r>
       <r>    6.2761    1.0000 </r>
       <r>    6.3348    1.0000 </r>
       <r>    6.6145    1.0000 </r>
       <r>    6.7835    1.0011 </r>
       <r>    7.3877    0.1283 </r>
       <r>   11.0529   -0.0000 </r>
       <r>   11.3477   -0.0000 </r>
       <r>   13.2961    0.0000 </r>
       <r>   13.5406    0.0000 </r>
       <r>   15.8468    0.0000 </r>
       <r>   18.0598    0.0000 </r>
       <r>   18.1040    0.0000 </r>
      </set>
      <set comment="kpoint 80">
       <r>   -2.0926    1.0000 </r>
       <r>    2.7404    1.0000 </r>
       <r>    2.8814    1.0000 </r>
       <r>    3.5527    1.0000 </r>
       <r>    3.7825    1.0000 </r>
       <r>    4.0013    1.0000 </r>
       <r>    4.2785    1.0000 </r>
       <r>    5.0135    1.0000 </r>
       <r>    5.5207    1.0000 </r>
       <r>    5.5565    1.0000 </r>
       <r>    6.1216    1.0000 </r>
       <r>    6.3922    1.0000 </r>
       <r>    6.4448    1.0000 </r>
       <r>    6.6627    1.0000 </r>
       <r>    6.7776    1.0009 </r>
       <r>    7.3928    0.1146 </r>
       <r>    7.5826   -0.0286 </r>
       <r>    8.7013   -0.0000 </r>
       <r>   10.7127   -0.0000 </r>
       <r>   13.9579    0.0000 </r>
       <r>   15.6780    0.0000 </r>
       <r>   17.5360    0.0000 </r>
       <r>   17.7767    0.0000 </r>
       <r>   18.0381    0.0000 </r>
      </set>
      <set comment="kpoint 81">
       <r>   -1.7543    1.0000 </r>
       <r>    2.4870    1.0000 </r>
       <r>    2.9618    1.0000 </r>
       <r>    3.6166    1.0000 </r>
       <r>    3.8203    1.0000 </r>
       <r>    4.0690    1.0000 </r>
       <r>    4.3858    1.0000 </r>
       <r>    4.9075    1.0000 </r>
       <r>    5.3065    1.0000 </r>
       <r>    5.5495    1.0000 </r>
       <r>    6.1097    1.0000 </r>
       <r>    6.2918    1.0000 </r>
       <r>    6.3381    1.0000 </r>
       <r>    6.6167    1.0000 </r>
       <r>    6.6851    1.0001 </r>
       <r>    7.3222    0.3541 </r>
       <r>    7.3891    0.1243 </r>
       <r>    8.8325   -0.0000 </r>
       <r>   11.1517   -0.0000 </r>
       <r>   13.2153    0.0000 </r>
       <r>   15.6627    0.0000 </r>
       <r>   16.9222    0.0000 </r>
       <r>   18.0927    0.0000 </r>
       <r>   18.3023    0.0000 </r>
      </set>
      <set comment="kpoint 82">
       <r>   -1.3529    1.0000 </r>
       <r>    2.0337    1.0000 </r>
       <r>    3.1196    1.0000 </r>
       <r>    3.6708    1.0000 </r>
       <r>    3.8757    1.0000 </r>
       <r>    4.1865    1.0000 </r>
       <r>    4.4509    1.0000 </r>
       <r>    4.8755    1.0000 </r>
       <r>    5.1313    1.0000 </r>
       <r>    5.5513    1.0000 </r>
       <r>    5.9918    1.0000 </r>
       <r>    6.1967    1.0000 </r>
       <r>    6.2728    1.0000 </r>
       <r>    6.5099    1.0000 </r>
       <r>    6.6678    1.0001 </r>
       <r>    7.1240    0.9939 </r>
       <r>    7.2945    0.4686 </r>
       <r>    9.1313   -0.0000 </r>
       <r>   11.5517   -0.0000 </r>
       <r>   12.5837   -0.0000 </r>
       <r>   15.5970    0.0000 </r>
       <r>   16.2426    0.0000 </r>
       <r>   18.3513    0.0000 </r>
       <r>   18.5954    0.0000 </r>
      </set>
      <set comment="kpoint 83">
       <r>   -0.9010    1.0000 </r>
       <r>    1.5068    1.0000 </r>
       <r>    3.2665    1.0000 </r>
       <r>    3.6911    1.0000 </r>
       <r>    3.9284    1.0000 </r>
       <r>    4.3461    1.0000 </r>
       <r>    4.4500    1.0000 </r>
       <r>    4.9407    1.0000 </r>
       <r>    5.0077    1.0000 </r>
       <r>    5.5242    1.0000 </r>
       <r>    5.8652    1.0000 </r>
       <r>    6.0500    1.0000 </r>
       <r>    6.2782    1.0000 </r>
       <r>    6.4035    1.0000 </r>
       <r>    6.6732    1.0001 </r>
       <r>    6.9219    1.0135 </r>
       <r>    7.2600    0.6135 </r>
       <r>    9.5044   -0.0000 </r>
       <r>   11.4633   -0.0000 </r>
       <r>   12.5486   -0.0000 </r>
       <r>   15.1062    0.0000 </r>
       <r>   16.0377    0.0000 </r>
       <r>   18.4209    0.0000 </r>
       <r>   18.9388    0.0000 </r>
      </set>
      <set comment="kpoint 84">
       <r>   -0.4335    1.0000 </r>
       <r>    0.9792    1.0000 </r>
       <r>    3.3795    1.0000 </r>
       <r>    3.6832    1.0000 </r>
       <r>    3.9676    1.0000 </r>
       <r>    4.3913    1.0000 </r>
       <r>    4.5509    1.0000 </r>
       <r>    4.8699    1.0000 </r>
       <r>    5.1051    1.0000 </r>
       <r>    5.4270    1.0000 </r>
       <r>    5.7991    1.0000 </r>
       <r>    5.9283    1.0000 </r>
       <r>    6.2869    1.0000 </r>
       <r>    6.3393    1.0000 </r>
       <r>    6.6807    1.0001 </r>
       <r>    6.7790    1.0010 </r>
       <r>    7.2409    0.6898 </r>
       <r>    9.9277   -0.0000 </r>
       <r>   10.9511   -0.0000 </r>
       <r>   13.0481    0.0000 </r>
       <r>   14.4221    0.0000 </r>
       <r>   16.0644    0.0000 </r>
       <r>   18.3651    0.0000 </r>
       <r>   19.2007    0.0000 </r>
      </set>
      <set comment="kpoint 85">
       <r>   -0.1455    1.0000 </r>
       <r>    0.6688    1.0000 </r>
       <r>    3.4261    1.0000 </r>
       <r>    3.6720    1.0000 </r>
       <r>    3.9830    1.0000 </r>
       <r>    4.3771    1.0000 </r>
       <r>    4.6737    1.0000 </r>
       <r>    4.7782    1.0000 </r>
       <r>    5.2336    1.0000 </r>
       <r>    5.3101    1.0000 </r>
       <r>    5.7846    1.0000 </r>
       <r>    5.8763    1.0000 </r>
       <r>    6.3067    1.0000 </r>
       <r>    6.3069    1.0000 </r>
       <r>    6.6873    1.0001 </r>
       <r>    6.7207    1.0002 </r>
       <r>    7.2347    0.7133 </r>
       <r>   10.3199   -0.0000 </r>
       <r>   10.5118   -0.0000 </r>
       <r>   13.5179    0.0000 </r>
       <r>   13.9006    0.0000 </r>
       <r>   16.0857    0.0000 </r>
       <r>   18.3236    0.0000 </r>
       <r>   19.2731    0.0000 </r>
      </set>
      <set comment="kpoint 86">
       <r>   -1.4242    1.0000 </r>
       <r>    2.6491    1.0000 </r>
       <r>    2.6803    1.0000 </r>
       <r>    3.6581    1.0000 </r>
       <r>    3.8429    1.0000 </r>
       <r>    4.1264    1.0000 </r>
       <r>    4.5186    1.0000 </r>
       <r>    4.7849    1.0000 </r>
       <r>    5.1456    1.0000 </r>
       <r>    5.5507    1.0000 </r>
       <r>    6.1566    1.0000 </r>
       <r>    6.1898    1.0000 </r>
       <r>    6.2871    1.0000 </r>
       <r>    6.5526    1.0000 </r>
       <r>    6.5755    1.0000 </r>
       <r>    7.2394    0.6956 </r>
       <r>    7.3503    0.2466 </r>
       <r>    8.6609   -0.0000 </r>
       <r>   11.4633   -0.0000 </r>
       <r>   12.5267   -0.0000 </r>
       <r>   15.7648    0.0000 </r>
       <r>   17.0490    0.0000 </r>
       <r>   17.4796    0.0000 </r>
       <r>   19.2583    0.0000 </r>
      </set>
      <set comment="kpoint 87">
       <r>   -1.0335    1.0000 </r>
       <r>    2.2361    1.0000 </r>
       <r>    2.8470    1.0000 </r>
       <r>    3.7169    1.0000 </r>
       <r>    3.8788    1.0000 </r>
       <r>    4.2211    1.0000 </r>
       <r>    4.5816    1.0000 </r>
       <r>    4.7622    1.0000 </r>
       <r>    5.0115    1.0000 </r>
       <r>    5.5629    1.0000 </r>
       <r>    6.0121    1.0000 </r>
       <r>    6.1814    1.0000 </r>
       <r>    6.2545    1.0000 </r>
       <r>    6.4269    1.0000 </r>
       <r>    6.5561    1.0000 </r>
       <r>    7.1470    0.9600 </r>
       <r>    7.2023    0.8255 </r>
       <r>    8.7538   -0.0000 </r>
       <r>   11.3188   -0.0000 </r>
       <r>   12.4129   -0.0000 </r>
       <r>   15.8209    0.0000 </r>
       <r>   16.4619    0.0000 </r>
       <r>   17.6955    0.0000 </r>
       <r>   19.2053    0.0000 </r>
      </set>
      <set comment="kpoint 88">
       <r>   -0.5960    1.0000 </r>
       <r>    1.7402    1.0000 </r>
       <r>    3.0044    1.0000 </r>
       <r>    3.7547    1.0000 </r>
       <r>    3.9168    1.0000 </r>
       <r>    4.3528    1.0000 </r>
       <r>    4.5255    1.0000 </r>
       <r>    4.8488    1.0000 </r>
       <r>    4.9605    1.0000 </r>
       <r>    5.5371    1.0000 </r>
       <r>    5.8834    1.0000 </r>
       <r>    6.0684    1.0000 </r>
       <r>    6.2801    1.0000 </r>
       <r>    6.3325    1.0000 </r>
       <r>    6.5563    1.0000 </r>
       <r>    6.9867    1.0276 </r>
       <r>    7.1226    0.9956 </r>
       <r>    8.9973   -0.0000 </r>
       <r>   10.7661   -0.0000 </r>
       <r>   12.8391    0.0000 </r>
       <r>   15.4437    0.0000 </r>
       <r>   16.2213    0.0000 </r>
       <r>   18.0520    0.0000 </r>
       <r>   18.9796    0.0000 </r>
      </set>
      <set comment="kpoint 89">
       <r>   -0.1482    1.0000 </r>
       <r>    1.2439    1.0000 </r>
       <r>    3.1138    1.0000 </r>
       <r>    3.7690    1.0000 </r>
       <r>    3.9460    1.0000 </r>
       <r>    4.4341    1.0000 </r>
       <r>    4.5444    1.0000 </r>
       <r>    4.7852    1.0000 </r>
       <r>    5.1057    1.0000 </r>
       <r>    5.4361    1.0000 </r>
       <r>    5.8079    1.0000 </r>
       <r>    5.9616    1.0000 </r>
       <r>    6.2591    1.0000 </r>
       <r>    6.3291    1.0000 </r>
       <r>    6.5607    1.0000 </r>
       <r>    6.8511    1.0043 </r>
       <r>    7.0862    1.0256 </r>
       <r>    9.3280   -0.0000 </r>
       <r>   10.2181   -0.0000 </r>
       <r>   13.3842    0.0000 </r>
       <r>   14.7868    0.0000 </r>
       <r>   16.2821    0.0000 </r>
       <r>   18.3712    0.0000 </r>
       <r>   18.7536    0.0000 </r>
      </set>
      <set comment="kpoint 90">
       <r>    0.1199    1.0000 </r>
       <r>    0.9573    1.0000 </r>
       <r>    3.1535    1.0000 </r>
       <r>    3.7712    1.0000 </r>
       <r>    3.9576    1.0000 </r>
       <r>    4.4245    1.0000 </r>
       <r>    4.6603    1.0000 </r>
       <r>    4.6924    1.0000 </r>
       <r>    5.2559    1.0000 </r>
       <r>    5.3047    1.0000 </r>
       <r>    5.7836    1.0000 </r>
       <r>    5.9155    1.0000 </r>
       <r>    6.2546    1.0000 </r>
       <r>    6.3351    1.0000 </r>
       <r>    6.5632    1.0000 </r>
       <r>    6.7979    1.0015 </r>
       <r>    7.0744    1.0305 </r>
       <r>    9.6904   -0.0000 </r>
       <r>    9.7813   -0.0000 </r>
       <r>   13.8080    0.0000 </r>
       <r>   14.3194    0.0000 </r>
       <r>   16.3180    0.0000 </r>
       <r>   18.5453    0.0000 </r>
       <r>   18.6249    0.0000 </r>
      </set>
      <set comment="kpoint 91">
       <r>   -0.6572    1.0000 </r>
       <r>    2.3962    1.0000 </r>
       <r>    2.5077    1.0000 </r>
       <r>    3.7791    1.0000 </r>
       <r>    3.8940    1.0000 </r>
       <r>    4.2822    1.0000 </r>
       <r>    4.6276    1.0000 </r>
       <r>    4.7514    1.0000 </r>
       <r>    4.9288    1.0000 </r>
       <r>    5.5748    1.0000 </r>
       <r>    5.9667    1.0000 </r>
       <r>    6.1282    1.0000 </r>
       <r>    6.2793    1.0000 </r>
       <r>    6.3308    1.0000 </r>
       <r>    6.4706    1.0000 </r>
       <r>    7.0584    1.0343 </r>
       <r>    7.1256    0.9920 </r>
       <r>    8.6177   -0.0000 </r>
       <r>   10.7023   -0.0000 </r>
       <r>   12.7678    0.0000 </r>
       <r>   16.0136    0.0000 </r>
       <r>   16.4906    0.0000 </r>
       <r>   17.2333    0.0000 </r>
       <r>   19.3370    0.0000 </r>
      </set>
      <set comment="kpoint 92">
       <r>   -0.2386    1.0000 </r>
       <r>    1.9893    1.0000 </r>
       <r>    2.6514    1.0000 </r>
       <r>    3.8141    1.0000 </r>
       <r>    3.9133    1.0000 </r>
       <r>    4.3751    1.0000 </r>
       <r>    4.5677    1.0000 </r>
       <r>    4.7797    1.0000 </r>
       <r>    4.9787    1.0000 </r>
       <r>    5.5426    1.0000 </r>
       <r>    5.8974    1.0000 </r>
       <r>    6.0575    1.0000 </r>
       <r>    6.2278    1.0000 </r>
       <r>    6.3155    1.0000 </r>
       <r>    6.4336    1.0000 </r>
       <r>    6.9667    1.0230 </r>
       <r>    7.0097    1.0322 </r>
       <r>    8.6877   -0.0000 </r>
       <r>   10.1071   -0.0000 </r>
       <r>   13.2521    0.0000 </r>
       <r>   15.8046    0.0000 </r>
       <r>   16.3451    0.0000 </r>
       <r>   17.4097    0.0000 </r>
       <r>   19.1427    0.0000 </r>
      </set>
      <set comment="kpoint 93">
       <r>    0.1838    1.0000 </r>
       <r>    1.5357    1.0000 </r>
       <r>    2.7876    1.0000 </r>
       <r>    3.8233    1.0000 </r>
       <r>    3.9270    1.0000 </r>
       <r>    4.4576    1.0000 </r>
       <r>    4.5537    1.0000 </r>
       <r>    4.7323    1.0000 </r>
       <r>    5.1341    1.0000 </r>
       <r>    5.4429    1.0000 </r>
       <r>    5.8442    1.0000 </r>
       <r>    5.9748    1.0000 </r>
       <r>    6.1820    1.0000 </r>
       <r>    6.3449    1.0000 </r>
       <r>    6.4199    1.0000 </r>
       <r>    6.8755    1.0066 </r>
       <r>    6.9370    1.0164 </r>
       <r>    8.8929   -0.0000 </r>
       <r>    9.6033   -0.0000 </r>
       <r>   13.7823    0.0000 </r>
       <r>   15.1887    0.0000 </r>
       <r>   16.4639    0.0000 </r>
       <r>   17.7301    0.0000 </r>
       <r>   18.8534    0.0000 </r>
      </set>
      <set comment="kpoint 94">
       <r>    0.4288    1.0000 </r>
       <r>    1.2781    1.0000 </r>
       <r>    2.8382    1.0000 </r>
       <r>    3.8231    1.0000 </r>
       <r>    3.9321    1.0000 </r>
       <r>    4.4687    1.0000 </r>
       <r>    4.5971    1.0000 </r>
       <r>    4.6910    1.0000 </r>
       <r>    5.2822    1.0000 </r>
       <r>    5.3143    1.0000 </r>
       <r>    5.8225    1.0000 </r>
       <r>    5.9326    1.0000 </r>
       <r>    6.1798    1.0000 </r>
       <r>    6.3578    1.0000 </r>
       <r>    6.4147    1.0000 </r>
       <r>    6.8338    1.0031 </r>
       <r>    6.9160    1.0124 </r>
       <r>    9.1882   -0.0000 </r>
       <r>    9.2108   -0.0000 </r>
       <r>   14.1622    0.0000 </r>
       <r>   14.7694    0.0000 </r>
       <r>   16.5185    0.0000 </r>
       <r>   17.9055    0.0000 </r>
       <r>   18.6956    0.0000 </r>
      </set>
      <set comment="kpoint 95">
       <r>    0.1555    1.0000 </r>
       <r>    2.1706    1.0000 </r>
       <r>    2.3016    1.0000 </r>
       <r>    3.8248    1.0000 </r>
       <r>    3.9135    1.0000 </r>
       <r>    4.4317    1.0000 </r>
       <r>    4.5752    1.0000 </r>
       <r>    4.7334    1.0000 </r>
       <r>    5.0648    1.0000 </r>
       <r>    5.5118    1.0000 </r>
       <r>    5.9130    1.0000 </r>
       <r>    6.0163    1.0000 </r>
       <r>    6.1417    1.0000 </r>
       <r>    6.3310    1.0000 </r>
       <r>    6.3408    1.0000 </r>
       <r>    6.8688    1.0059 </r>
       <r>    6.9360    1.0162 </r>
       <r>    8.5828   -0.0000 </r>
       <r>    9.5570   -0.0000 </r>
       <r>   13.7260    0.0000 </r>
       <r>   16.0701    0.0000 </r>
       <r>   16.2118    0.0000 </r>
       <r>   17.1662    0.0000 </r>
       <r>   19.0690    0.0000 </r>
      </set>
      <set comment="kpoint 96">
       <r>    0.5469    1.0000 </r>
       <r>    1.8225    1.0000 </r>
       <r>    2.4254    1.0000 </r>
       <r>    3.8016    1.0000 </r>
       <r>    3.9115    1.0000 </r>
       <r>    4.4948    1.0000 </r>
       <r>    4.5841    1.0000 </r>
       <r>    4.6992    1.0000 </r>
       <r>    5.1884    1.0000 </r>
       <r>    5.4329    1.0000 </r>
       <r>    5.9060    1.0000 </r>
       <r>    5.9632    1.0000 </r>
       <r>    6.0945    1.0000 </r>
       <r>    6.2741    1.0000 </r>
       <r>    6.3644    1.0000 </r>
       <r>    6.7984    1.0015 </r>
       <r>    6.8595    1.0050 </r>
       <r>    8.6423   -0.0000 </r>
       <r>    9.1316   -0.0000 </r>
       <r>   14.2299    0.0000 </r>
       <r>   15.5848    0.0000 </r>
       <r>   16.4295    0.0000 </r>
       <r>   17.3109    0.0000 </r>
       <r>   18.7905    0.0000 </r>
      </set>
      <set comment="kpoint 97">
       <r>    0.7672    1.0000 </r>
       <r>    1.5981    1.0000 </r>
       <r>    2.4936    1.0000 </r>
       <r>    3.7859    1.0000 </r>
       <r>    3.9105    1.0000 </r>
       <r>    4.5146    1.0000 </r>
       <r>    4.6048    1.0000 </r>
       <r>    4.6789    1.0000 </r>
       <r>    5.3098    1.0000 </r>
       <r>    5.3282    1.0000 </r>
       <r>    5.8931    1.0000 </r>
       <r>    5.9293    1.0000 </r>
       <r>    6.0953    1.0000 </r>
       <r>    6.2581    1.0000 </r>
       <r>    6.3738    1.0000 </r>
       <r>    6.7755    1.0009 </r>
       <r>    6.8238    1.0025 </r>
       <r>    8.8269   -0.0000 </r>
       <r>    8.8301   -0.0000 </r>
       <r>   14.5769    0.0000 </r>
       <r>   15.2112    0.0000 </r>
       <r>   16.5276    0.0000 </r>
       <r>   17.4283    0.0000 </r>
       <r>   18.6263    0.0000 </r>
      </set>
      <set comment="kpoint 98">
       <r>    0.9037    1.0000 </r>
       <r>    2.0167    1.0000 </r>
       <r>    2.1015    1.0000 </r>
       <r>    3.7310    1.0000 </r>
       <r>    3.9002    1.0000 </r>
       <r>    4.5444    1.0000 </r>
       <r>    4.6186    1.0000 </r>
       <r>    4.6780    1.0000 </r>
       <r>    5.2605    1.0000 </r>
       <r>    5.3966    1.0000 </r>
       <r>    5.9309    1.0000 </r>
       <r>    5.9634    1.0000 </r>
       <r>    6.0295    1.0000 </r>
       <r>    6.1695    1.0000 </r>
       <r>    6.3774    1.0000 </r>
       <r>    6.7104    1.0002 </r>
       <r>    6.8106    1.0019 </r>
       <r>    8.5608   -0.0000 </r>
       <r>    8.8070   -0.0000 </r>
       <r>   14.7070    0.0000 </r>
       <r>   15.8097    0.0000 </r>
       <r>   16.1161    0.0000 </r>
       <r>   17.3062    0.0000 </r>
       <r>   18.5155    0.0000 </r>
      </set>
      <set comment="kpoint 99">
       <r>    1.1020    1.0000 </r>
       <r>    1.8569    1.0000 </r>
       <r>    2.1539    1.0000 </r>
       <r>    3.6913    1.0000 </r>
       <r>    3.8962    1.0000 </r>
       <r>    4.5637    1.0000 </r>
       <r>    4.6413    1.0000 </r>
       <r>    4.6668    1.0000 </r>
       <r>    5.3326    1.0000 </r>
       <r>    5.3383    1.0000 </r>
       <r>    5.9079    1.0000 </r>
       <r>    5.9682    1.0000 </r>
       <r>    6.0266    1.0000 </r>
       <r>    6.1345    1.0000 </r>
       <r>    6.3829    1.0000 </r>
       <r>    6.6795    1.0001 </r>
       <r>    6.7849    1.0011 </r>
       <r>    8.6180   -0.0000 </r>
       <r>    8.6210   -0.0000 </r>
       <r>   15.0439    0.0000 </r>
       <r>   15.5716    0.0000 </r>
       <r>   16.1405    0.0000 </r>
       <r>   17.3617    0.0000 </r>
       <r>   18.3597    0.0000 </r>
      </set>
      <set comment="kpoint 100">
       <r>    1.2916    1.0000 </r>
       <r>    1.9624    1.0000 </r>
       <r>    1.9624    1.0000 </r>
       <r>    3.6394    1.0000 </r>
       <r>    3.8911    1.0000 </r>
       <r>    4.5837    1.0000 </r>
       <r>    4.6620    1.0000 </r>
       <r>    4.6620    1.0000 </r>
       <r>    5.3419    1.0000 </r>
       <r>    5.3419    1.0000 </r>
       <r>    5.8901    1.0000 </r>
       <r>    6.0025    1.0000 </r>
       <r>    6.0025    1.0000 </r>
       <r>    6.0888    1.0000 </r>
       <r>    6.3856    1.0000 </r>
       <r>    6.6462    1.0000 </r>
       <r>    6.7618    1.0006 </r>
       <r>    8.5533   -0.0000 </r>
       <r>    8.5533   -0.0000 </r>
       <r>   15.4478    0.0000 </r>
       <r>   15.7215    0.0000 </r>
       <r>   15.7215    0.0000 </r>
       <r>   17.3929    0.0000 </r>
       <r>   18.2174    0.0000 </r>
      </set>
      <set comment="kpoint 101">
       <r>   -2.9106    1.0000 </r>
       <r>    2.6137    1.0000 </r>
       <r>    3.2652    1.0000 </r>
       <r>    3.2652    1.0000 </r>
       <r>    3.7331    1.0000 </r>
       <r>    3.9338    1.0000 </r>
       <r>    3.9338    1.0000 </r>
       <r>    5.4259    1.0000 </r>
       <r>    5.8713    1.0000 </r>
       <r>    5.8713    1.0000 </r>
       <r>    6.5964    1.0000 </r>
       <r>    6.5964    1.0000 </r>
       <r>    6.7676    1.0007 </r>
       <r>    6.7676    1.0007 </r>
       <r>    7.0648    1.0332 </r>
       <r>    7.5744   -0.0304 </r>
       <r>    8.1898   -0.0000 </r>
       <r>    8.8951   -0.0000 </r>
       <r>    8.8951   -0.0000 </r>
       <r>   15.4445    0.0000 </r>
       <r>   15.4445    0.0000 </r>
       <r>   16.6967    0.0000 </r>
       <r>   18.1571    0.0000 </r>
       <r>   18.4925    0.0000 </r>
      </set>
      <set comment="kpoint 102">
       <r>   -2.7126    1.0000 </r>
       <r>    2.6603    1.0000 </r>
       <r>    3.1448    1.0000 </r>
       <r>    3.3930    1.0000 </r>
       <r>    3.7210    1.0000 </r>
       <r>    3.9628    1.0000 </r>
       <r>    4.0153    1.0000 </r>
       <r>    5.2969    1.0000 </r>
       <r>    5.7501    1.0000 </r>
       <r>    5.8920    1.0000 </r>
       <r>    6.3139    1.0000 </r>
       <r>    6.5476    1.0000 </r>
       <r>    6.6571    1.0000 </r>
       <r>    6.7477    1.0005 </r>
       <r>    6.9818    1.0265 </r>
       <r>    7.5516   -0.0342 </r>
       <r>    7.9557   -0.0000 </r>
       <r>    9.0462   -0.0000 </r>
       <r>    9.2169   -0.0000 </r>
       <r>   15.3859    0.0000 </r>
       <r>   15.9466    0.0000 </r>
       <r>   17.0921    0.0000 </r>
       <r>   17.4641    0.0000 </r>
       <r>   17.6015    0.0000 </r>
      </set>
      <set comment="kpoint 103">
       <r>   -2.4386    1.0000 </r>
       <r>    2.5942    1.0000 </r>
       <r>    3.0572    1.0000 </r>
       <r>    3.5581    1.0000 </r>
       <r>    3.7230    1.0000 </r>
       <r>    4.0051    1.0000 </r>
       <r>    4.1035    1.0000 </r>
       <r>    5.1851    1.0000 </r>
       <r>    5.6107    1.0000 </r>
       <r>    5.8375    1.0000 </r>
       <r>    6.0727    1.0000 </r>
       <r>    6.4633    1.0000 </r>
       <r>    6.5270    1.0000 </r>
       <r>    6.7391    1.0004 </r>
       <r>    6.9005    1.0099 </r>
       <r>    7.5253   -0.0353 </r>
       <r>    7.5569   -0.0335 </r>
       <r>    9.4530   -0.0000 </r>
       <r>    9.5990   -0.0000 </r>
       <r>   15.2132    0.0000 </r>
       <r>   16.1085    0.0000 </r>
       <r>   16.5482    0.0000 </r>
       <r>   16.8873    0.0000 </r>
       <r>   18.0510    0.0000 </r>
      </set>
      <set comment="kpoint 104">
       <r>   -2.0928    1.0000 </r>
       <r>    2.2803    1.0000 </r>
       <r>    3.1162    1.0000 </r>
       <r>    3.7345    1.0000 </r>
       <r>    3.7396    1.0000 </r>
       <r>    4.0691    1.0000 </r>
       <r>    4.1886    1.0000 </r>
       <r>    5.1032    1.0000 </r>
       <r>    5.4665    1.0000 </r>
       <r>    5.6666    1.0000 </r>
       <r>    5.9711    1.0000 </r>
       <r>    6.3691    1.0000 </r>
       <r>    6.3747    1.0000 </r>
       <r>    6.7185    1.0002 </r>
       <r>    6.8272    1.0027 </r>
       <r>    7.2027    0.8244 </r>
       <r>    7.5005   -0.0308 </r>
       <r>    9.9405   -0.0000 </r>
       <r>   10.0205   -0.0000 </r>
       <r>   14.8201    0.0000 </r>
       <r>   15.4486    0.0000 </r>
       <r>   16.4732    0.0000 </r>
       <r>   16.5772    0.0000 </r>
       <r>   18.7028    0.0000 </r>
      </set>
      <set comment="kpoint 105">
       <r>   -1.6815    1.0000 </r>
       <r>    1.8041    1.0000 </r>
       <r>    3.2405    1.0000 </r>
       <r>    3.7469    1.0000 </r>
       <r>    3.8928    1.0000 </r>
       <r>    4.1816    1.0000 </r>
       <r>    4.2569    1.0000 </r>
       <r>    5.0623    1.0000 </r>
       <r>    5.3244    1.0000 </r>
       <r>    5.5049    1.0000 </r>
       <r>    5.9182    1.0000 </r>
       <r>    6.2123    1.0000 </r>
       <r>    6.2890    1.0000 </r>
       <r>    6.6370    1.0000 </r>
       <r>    6.7992    1.0015 </r>
       <r>    6.9250    1.0140 </r>
       <r>    7.4807   -0.0215 </r>
       <r>   10.4662   -0.0000 </r>
       <r>   10.4746   -0.0000 </r>
       <r>   14.2468    0.0000 </r>
       <r>   14.6420    0.0000 </r>
       <r>   16.3265    0.0000 </r>
       <r>   16.7913    0.0000 </r>
       <r>   18.9782    0.0000 </r>
      </set>
      <set comment="kpoint 106">
       <r>   -1.2165    1.0000 </r>
       <r>    1.2508    1.0000 </r>
       <r>    3.3730    1.0000 </r>
       <r>    3.7474    1.0000 </r>
       <r>    3.9798    1.0000 </r>
       <r>    4.2990    1.0000 </r>
       <r>    4.3566    1.0000 </r>
       <r>    5.0709    1.0000 </r>
       <r>    5.1862    1.0000 </r>
       <r>    5.3999    1.0000 </r>
       <r>    5.8716    1.0000 </r>
       <r>    6.0596    1.0000 </r>
       <r>    6.2406    1.0000 </r>
       <r>    6.5163    1.0000 </r>
       <r>    6.7246    1.0003 </r>
       <r>    6.7986    1.0015 </r>
       <r>    7.4670   -0.0113 </r>
       <r>   10.9176   -0.0000 </r>
       <r>   11.0424   -0.0000 </r>
       <r>   13.6433    0.0000 </r>
       <r>   13.8731    0.0000 </r>
       <r>   16.3030    0.0000 </r>
       <r>   17.0382    0.0000 </r>
       <r>   18.7952    0.0000 </r>
      </set>
      <set comment="kpoint 107">
       <r>   -0.7304    1.0000 </r>
       <r>    0.6953    1.0000 </r>
       <r>    3.4860    1.0000 </r>
       <r>    3.7268    1.0000 </r>
       <r>    4.0204    1.0000 </r>
       <r>    4.3188    1.0000 </r>
       <r>    4.5402    1.0000 </r>
       <r>    5.0557    1.0000 </r>
       <r>    5.1177    1.0000 </r>
       <r>    5.3329    1.0000 </r>
       <r>    5.8412    1.0000 </r>
       <r>    5.9400    1.0000 </r>
       <r>    6.2363    1.0000 </r>
       <r>    6.3969    1.0000 </r>
       <r>    6.6020    1.0000 </r>
       <r>    6.8017    1.0016 </r>
       <r>    7.4592   -0.0040 </r>
       <r>   11.3281   -0.0000 </r>
       <r>   11.6206   -0.0000 </r>
       <r>   13.1266    0.0000 </r>
       <r>   13.1740    0.0000 </r>
       <r>   16.3155    0.0000 </r>
       <r>   17.2874    0.0000 </r>
       <r>   18.4673    0.0000 </r>
      </set>
      <set comment="kpoint 108">
       <r>   -0.4221    1.0000 </r>
       <r>    0.3613    1.0000 </r>
       <r>    3.5395    1.0000 </r>
       <r>    3.7059    1.0000 </r>
       <r>    4.0326    1.0000 </r>
       <r>    4.3245    1.0000 </r>
       <r>    4.6362    1.0000 </r>
       <r>    4.9827    1.0000 </r>
       <r>    5.1522    1.0000 </r>
       <r>    5.3004    1.0000 </r>
       <r>    5.8386    1.0000 </r>
       <r>    5.8855    1.0000 </r>
       <r>    6.2615    1.0000 </r>
       <r>    6.3262    1.0000 </r>
       <r>    6.5606    1.0000 </r>
       <r>    6.8031    1.0016 </r>
       <r>    7.4567   -0.0014 </r>
       <r>   11.5311   -0.0000 </r>
       <r>   12.0059   -0.0000 </r>
       <r>   12.7483    0.0000 </r>
       <r>   12.8864    0.0000 </r>
       <r>   16.3238    0.0000 </r>
       <r>   17.4207    0.0000 </r>
       <r>   18.2967    0.0000 </r>
      </set>
      <set comment="kpoint 109">
       <r>   -2.5167    1.0000 </r>
       <r>    2.7209    1.0000 </r>
       <r>    3.1436    1.0000 </r>
       <r>    3.3918    1.0000 </r>
       <r>    3.6972    1.0000 </r>
       <r>    4.0091    1.0000 </r>
       <r>    4.0856    1.0000 </r>
       <r>    5.1717    1.0000 </r>
       <r>    5.6947    1.0000 </r>
       <r>    5.8114    1.0000 </r>
       <r>    6.2079    1.0000 </r>
       <r>    6.4339    1.0000 </r>
       <r>    6.6135    1.0000 </r>
       <r>    6.6990    1.0001 </r>
       <r>    6.8778    1.0069 </r>
       <r>    7.5275   -0.0354 </r>
       <r>    8.0209   -0.0000 </r>
       <r>    8.8555   -0.0000 </r>
       <r>    9.4421   -0.0000 </r>
       <r>   15.4622    0.0000 </r>
       <r>   16.4056    0.0000 </r>
       <r>   16.6297    0.0000 </r>
       <r>   17.3191    0.0000 </r>
       <r>   17.7779    0.0000 </r>
      </set>
      <set comment="kpoint 110">
       <r>   -2.2459    1.0000 </r>
       <r>    2.6888    1.0000 </r>
       <r>    3.0660    1.0000 </r>
       <r>    3.5125    1.0000 </r>
       <r>    3.6952    1.0000 </r>
       <r>    4.0503    1.0000 </r>
       <r>    4.1788    1.0000 </r>
       <r>    5.0660    1.0000 </r>
       <r>    5.5752    1.0000 </r>
       <r>    5.6779    1.0000 </r>
       <r>    6.1057    1.0000 </r>
       <r>    6.3681    1.0000 </r>
       <r>    6.5101    1.0000 </r>
       <r>    6.6832    1.0001 </r>
       <r>    6.7820    1.0010 </r>
       <r>    7.4922   -0.0276 </r>
       <r>    7.7393   -0.0031 </r>
       <r>    9.0203   -0.0000 </r>
       <r>    9.8001   -0.0000 </r>
       <r>   15.0076    0.0000 </r>
       <r>   16.1067    0.0000 </r>
       <r>   16.6270    0.0000 </r>
       <r>   17.2230    0.0000 </r>
       <r>   17.7347    0.0000 </r>
      </set>
      <set comment="kpoint 111">
       <r>   -1.9044    1.0000 </r>
       <r>    2.3948    1.0000 </r>
       <r>    3.1214    1.0000 </r>
       <r>    3.6496    1.0000 </r>
       <r>    3.7363    1.0000 </r>
       <r>    4.1080    1.0000 </r>
       <r>    4.2679    1.0000 </r>
       <r>    4.9943    1.0000 </r>
       <r>    5.4160    1.0000 </r>
       <r>    5.5361    1.0000 </r>
       <r>    6.0437    1.0000 </r>
       <r>    6.3055    1.0000 </r>
       <r>    6.3737    1.0000 </r>
       <r>    6.6605    1.0000 </r>
       <r>    6.7132    1.0002 </r>
       <r>    7.3711    0.1770 </r>
       <r>    7.4596   -0.0044 </r>
       <r>    9.3730   -0.0000 </r>
       <r>   10.2080   -0.0000 </r>
       <r>   14.2992    0.0000 </r>
       <r>   15.4791    0.0000 </r>
       <r>   16.5380    0.0000 </r>
       <r>   17.3930    0.0000 </r>
       <r>   18.0529    0.0000 </r>
      </set>
      <set comment="kpoint 112">
       <r>   -1.4988    1.0000 </r>
       <r>    1.9327    1.0000 </r>
       <r>    3.2419    1.0000 </r>
       <r>    3.6878    1.0000 </r>
       <r>    3.8677    1.0000 </r>
       <r>    4.2041    1.0000 </r>
       <r>    4.3330    1.0000 </r>
       <r>    4.9733    1.0000 </r>
       <r>    5.2487    1.0000 </r>
       <r>    5.4317    1.0000 </r>
       <r>    5.9877    1.0000 </r>
       <r>    6.2201    1.0000 </r>
       <r>    6.2608    1.0000 </r>
       <r>    6.5731    1.0000 </r>
       <r>    6.7077    1.0002 </r>
       <r>    7.0685    1.0323 </r>
       <r>    7.4203    0.0526 </r>
       <r>    9.7830   -0.0000 </r>
       <r>   10.6443   -0.0000 </r>
       <r>   13.5859    0.0000 </r>
       <r>   14.7401    0.0000 </r>
       <r>   16.5839    0.0000 </r>
       <r>   17.6190    0.0000 </r>
       <r>   18.4215    0.0000 </r>
      </set>
      <set comment="kpoint 113">
       <r>   -1.0412    1.0000 </r>
       <r>    1.3942    1.0000 </r>
       <r>    3.3683    1.0000 </r>
       <r>    3.6881    1.0000 </r>
       <r>    3.9692    1.0000 </r>
       <r>    4.3356    1.0000 </r>
       <r>    4.3883    1.0000 </r>
       <r>    5.0118    1.0000 </r>
       <r>    5.0987    1.0000 </r>
       <r>    5.3496    1.0000 </r>
       <r>    5.9339    1.0000 </r>
       <r>    6.0822    1.0000 </r>
       <r>    6.2345    1.0000 </r>
       <r>    6.4678    1.0000 </r>
       <r>    6.7142    1.0002 </r>
       <r>    6.8411    1.0036 </r>
       <r>    7.3921    0.1166 </r>
       <r>   10.2176   -0.0000 </r>
       <r>   11.0692   -0.0000 </r>
       <r>   12.9746    0.0000 </r>
       <r>   14.0229    0.0000 </r>
       <r>   16.6783    0.0000 </r>
       <r>   17.8611    0.0000 </r>
       <r>   18.7529    0.0000 </r>
      </set>
      <set comment="kpoint 114">
       <r>   -0.5659    1.0000 </r>
       <r>    0.8546    1.0000 </r>
       <r>    3.4792    1.0000 </r>
       <r>    3.6604    1.0000 </r>
       <r>    4.0208    1.0000 </r>
       <r>    4.3601    1.0000 </r>
       <r>    4.5606    1.0000 </r>
       <r>    4.9506    1.0000 </r>
       <r>    5.0924    1.0000 </r>
       <r>    5.2789    1.0000 </r>
       <r>    5.8913    1.0000 </r>
       <r>    5.9794    1.0000 </r>
       <r>    6.2432    1.0000 </r>
       <r>    6.3687    1.0000 </r>
       <r>    6.6938    1.0001 </r>
       <r>    6.7229    1.0002 </r>
       <r>    7.3749    0.1652 </r>
       <r>   10.6470   -0.0000 </r>
       <r>   11.3428   -0.0000 </r>
       <r>   12.6266   -0.0000 </r>
       <r>   13.3784    0.0000 </r>
       <r>   16.7632    0.0000 </r>
       <r>   18.1032    0.0000 </r>
       <r>   18.8451    0.0000 </r>
      </set>
      <set comment="kpoint 115">
       <r>   -0.2698    1.0000 </r>
       <r>    0.5344    1.0000 </r>
       <r>    3.5417    1.0000 </r>
       <r>    3.6263    1.0000 </r>
       <r>    4.0368    1.0000 </r>
       <r>    4.3625    1.0000 </r>
       <r>    4.6925    1.0000 </r>
       <r>    4.8397    1.0000 </r>
       <r>    5.1508    1.0000 </r>
       <r>    5.2306    1.0000 </r>
       <r>    5.8737    1.0000 </r>
       <r>    5.9409    1.0000 </r>
       <r>    6.2874    1.0000 </r>
       <r>    6.2931    1.0000 </r>
       <r>    6.6448    1.0000 </r>
       <r>    6.7234    1.0002 </r>
       <r>    7.3692    0.1829 </r>
       <r>   10.9136   -0.0000 </r>
       <r>   11.3187   -0.0000 </r>
       <r>   12.7016   -0.0000 </r>
       <r>   12.9636    0.0000 </r>
       <r>   16.7974    0.0000 </r>
       <r>   18.2429    0.0000 </r>
       <r>   18.7516    0.0000 </r>
      </set>
      <set comment="kpoint 116">
       <r>   -1.9798    1.0000 </r>
       <r>    2.7666    1.0000 </r>
       <r>    2.9654    1.0000 </r>
       <r>    3.5384    1.0000 </r>
       <r>    3.7019    1.0000 </r>
       <r>    4.0860    1.0000 </r>
       <r>    4.2816    1.0000 </r>
       <r>    4.9601    1.0000 </r>
       <r>    5.4758    1.0000 </r>
       <r>    5.5253    1.0000 </r>
       <r>    6.1331    1.0000 </r>
       <r>    6.2918    1.0000 </r>
       <r>    6.4585    1.0000 </r>
       <r>    6.6354    1.0000 </r>
       <r>    6.6620    1.0000 </r>
       <r>    7.4466    0.0106 </r>
       <r>    7.7489   -0.0026 </r>
       <r>    8.7720   -0.0000 </r>
       <r>   10.1189   -0.0000 </r>
       <r>   14.2662    0.0000 </r>
       <r>   16.1764    0.0000 </r>
       <r>   16.7047    0.0000 </r>
       <r>   17.0656    0.0000 </r>
       <r>   18.0373    0.0000 </r>
      </set>
      <set comment="kpoint 117">
       <r>   -1.6446    1.0000 </r>
       <r>    2.5397    1.0000 </r>
       <r>    3.0020    1.0000 </r>
       <r>    3.6290    1.0000 </r>
       <r>    3.7505    1.0000 </r>
       <r>    4.1335    1.0000 </r>
       <r>    4.3817    1.0000 </r>
       <r>    4.8853    1.0000 </r>
       <r>    5.2880    1.0000 </r>
       <r>    5.4667    1.0000 </r>
       <r>    6.1139    1.0000 </r>
       <r>    6.2446    1.0000 </r>
       <r>    6.3592    1.0000 </r>
       <r>    6.5566    1.0000 </r>
       <r>    6.6170    1.0000 </r>
       <r>    7.3870    0.1302 </r>
       <r>    7.5082   -0.0329 </r>
       <r>    8.8890   -0.0000 </r>
       <r>   10.4716   -0.0000 </r>
       <r>   13.4971    0.0000 </r>
       <r>   15.7795    0.0000 </r>
       <r>   16.5742    0.0000 </r>
       <r>   17.2618    0.0000 </r>
       <r>   18.4464    0.0000 </r>
      </set>
      <set comment="kpoint 118">
       <r>   -1.2473    1.0000 </r>
       <r>    2.0997    1.0000 </r>
       <r>    3.1245    1.0000 </r>
       <r>    3.6904    1.0000 </r>
       <r>    3.8559    1.0000 </r>
       <r>    4.2117    1.0000 </r>
       <r>    4.4446    1.0000 </r>
       <r>    4.8731    1.0000 </r>
       <r>    5.1310    1.0000 </r>
       <r>    5.4098    1.0000 </r>
       <r>    6.0383    1.0000 </r>
       <r>    6.2369    1.0000 </r>
       <r>    6.2409    1.0000 </r>
       <r>    6.4644    1.0000 </r>
       <r>    6.6138    1.0000 </r>
       <r>    7.1876    0.8686 </r>
       <r>    7.3549    0.2304 </r>
       <r>    9.1801   -0.0000 </r>
       <r>   10.8057   -0.0000 </r>
       <r>   12.8443    0.0000 </r>
       <r>   15.0457    0.0000 </r>
       <r>   16.7081    0.0000 </r>
       <r>   17.6196    0.0000 </r>
       <r>   18.7053    0.0000 </r>
      </set>
      <set comment="kpoint 119">
       <r>   -0.8009    1.0000 </r>
       <r>    1.5844    1.0000 </r>
       <r>    3.2339    1.0000 </r>
       <r>    3.7201    1.0000 </r>
       <r>    3.9549    1.0000 </r>
       <r>    4.3331    1.0000 </r>
       <r>    4.4642    1.0000 </r>
       <r>    4.9190    1.0000 </r>
       <r>    5.0243    1.0000 </r>
       <r>    5.3439    1.0000 </r>
       <r>    5.9569    1.0000 </r>
       <r>    6.1286    1.0000 </r>
       <r>    6.2374    1.0000 </r>
       <r>    6.3869    1.0000 </r>
       <r>    6.6153    1.0000 </r>
       <r>    6.9470    1.0185 </r>
       <r>    7.3068    0.4170 </r>
       <r>    9.5372   -0.0000 </r>
       <r>   10.9753   -0.0000 </r>
       <r>   12.4730   -0.0000 </r>
       <r>   14.3262    0.0000 </r>
       <r>   16.8704    0.0000 </r>
       <r>   18.0142    0.0000 </r>
       <r>   18.9090    0.0000 </r>
      </set>
      <set comment="kpoint 120">
       <r>   -0.3412    1.0000 </r>
       <r>    1.0687    1.0000 </r>
       <r>    3.3092    1.0000 </r>
       <r>    3.7303    1.0000 </r>
       <r>    4.0128    1.0000 </r>
       <r>    4.4077    1.0000 </r>
       <r>    4.5485    1.0000 </r>
       <r>    4.8489    1.0000 </r>
       <r>    5.0784    1.0000 </r>
       <r>    5.2665    1.0000 </r>
       <r>    5.8916    1.0000 </r>
       <r>    6.0460    1.0000 </r>
       <r>    6.2408    1.0000 </r>
       <r>    6.3366    1.0000 </r>
       <r>    6.6175    1.0000 </r>
       <r>    6.7858    1.0011 </r>
       <r>    7.2774    0.5411 </r>
       <r>    9.9276   -0.0000 </r>
       <r>   10.7937   -0.0000 </r>
       <r>   12.5713   -0.0000 </r>
       <r>   13.6767    0.0000 </r>
       <r>   17.0020    0.0000 </r>
       <r>   18.3956    0.0000 </r>
       <r>   19.0048    0.0000 </r>
      </set>
      <set comment="kpoint 121">
       <r>   -0.0620    1.0000 </r>
       <r>    0.7683    1.0000 </r>
       <r>    3.3365    1.0000 </r>
       <r>    3.7311    1.0000 </r>
       <r>    4.0319    1.0000 </r>
       <r>    4.4114    1.0000 </r>
       <r>    4.6883    1.0000 </r>
       <r>    4.7285    1.0000 </r>
       <r>    5.1687    1.0000 </r>
       <r>    5.1889    1.0000 </r>
       <r>    5.8654    1.0000 </r>
       <r>    6.0115    1.0000 </r>
       <r>    6.2502    1.0000 </r>
       <r>    6.3165    1.0000 </r>
       <r>    6.6188    1.0000 </r>
       <r>    6.7269    1.0003 </r>
       <r>    7.2673    0.5831 </r>
       <r>   10.2367   -0.0000 </r>
       <r>   10.5118   -0.0000 </r>
       <r>   12.8481    0.0000 </r>
       <r>   13.2579    0.0000 </r>
       <r>   17.0541    0.0000 </r>
       <r>   18.6199    0.0000 </r>
       <r>   18.9497    0.0000 </r>
      </set>
      <set comment="kpoint 122">
       <r>   -1.3180    1.0000 </r>
       <r>    2.6735    1.0000 </r>
       <r>    2.7356    1.0000 </r>
       <r>    3.6903    1.0000 </r>
       <r>    3.7914    1.0000 </r>
       <r>    4.1656    1.0000 </r>
       <r>    4.5019    1.0000 </r>
       <r>    4.7927    1.0000 </r>
       <r>    5.1425    1.0000 </r>
       <r>    5.4359    1.0000 </r>
       <r>    6.1629    1.0000 </r>
       <r>    6.1747    1.0000 </r>
       <r>    6.3162    1.0000 </r>
       <r>    6.4355    1.0000 </r>
       <r>    6.5646    1.0000 </r>
       <r>    7.3217    0.3560 </r>
       <r>    7.4655   -0.0100 </r>
       <r>    8.6774   -0.0000 </r>
       <r>   10.7177   -0.0000 </r>
       <r>   12.7973    0.0000 </r>
       <r>   16.0811    0.0000 </r>
       <r>   16.1874    0.0000 </r>
       <r>   17.0287    0.0000 </r>
       <r>   19.3757    0.0000 </r>
      </set>
      <set comment="kpoint 123">
       <r>   -0.9322    1.0000 </r>
       <r>    2.2903    1.0000 </r>
       <r>    2.8574    1.0000 </r>
       <r>    3.7558    1.0000 </r>
       <r>    3.8699    1.0000 </r>
       <r>    4.2214    1.0000 </r>
       <r>    4.5697    1.0000 </r>
       <r>    4.7705    1.0000 </r>
       <r>    5.0312    1.0000 </r>
       <r>    5.4052    1.0000 </r>
       <r>    6.0684    1.0000 </r>
       <r>    6.1984    1.0000 </r>
       <r>    6.2592    1.0000 </r>
       <r>    6.3406    1.0000 </r>
       <r>    6.5383    1.0000 </r>
       <r>    7.2179    0.7741 </r>
       <r>    7.2926    0.4768 </r>
       <r>    8.7592   -0.0000 </r>
       <r>   10.7971   -0.0000 </r>
       <r>   12.3877   -0.0000 </r>
       <r>   15.4005    0.0000 </r>
       <r>   16.4845    0.0000 </r>
       <r>   17.2045    0.0000 </r>
       <r>   19.6838    0.0000 </r>
      </set>
      <set comment="kpoint 124">
       <r>   -0.5011    1.0000 </r>
       <r>    1.8085    1.0000 </r>
       <r>    2.9824    1.0000 </r>
       <r>    3.7979    1.0000 </r>
       <r>    3.9503    1.0000 </r>
       <r>    4.3154    1.0000 </r>
       <r>    4.5531    1.0000 </r>
       <r>    4.8104    1.0000 </r>
       <r>    5.0020    1.0000 </r>
       <r>    5.3548    1.0000 </r>
       <r>    5.9718    1.0000 </r>
       <r>    6.1521    1.0000 </r>
       <r>    6.2166    1.0000 </r>
       <r>    6.3155    1.0000 </r>
       <r>    6.5218    1.0000 </r>
       <r>    7.0100    1.0323 </r>
       <r>    7.2116    0.7955 </r>
       <r>    8.9971   -0.0000 </r>
       <r>   10.5495   -0.0000 </r>
       <r>   12.4388   -0.0000 </r>
       <r>   14.6816    0.0000 </r>
       <r>   16.8109    0.0000 </r>
       <r>   17.4811    0.0000 </r>
       <r>   19.4405    0.0000 </r>
      </set>
      <set comment="kpoint 125">
       <r>   -0.0628    1.0000 </r>
       <r>    1.3268    1.0000 </r>
       <r>    3.0637    1.0000 </r>
       <r>    3.8191    1.0000 </r>
       <r>    4.0013    1.0000 </r>
       <r>    4.4184    1.0000 </r>
       <r>    4.5474    1.0000 </r>
       <r>    4.7720    1.0000 </r>
       <r>    5.0907    1.0000 </r>
       <r>    5.2826    1.0000 </r>
       <r>    5.8992    1.0000 </r>
       <r>    6.0669    1.0000 </r>
       <r>    6.2064    1.0000 </r>
       <r>    6.3328    1.0000 </r>
       <r>    6.5076    1.0000 </r>
       <r>    6.8490    1.0041 </r>
       <r>    7.1683    0.9172 </r>
       <r>    9.3135   -0.0000 </r>
       <r>   10.1318   -0.0000 </r>
       <r>   12.7855    0.0000 </r>
       <r>   14.0361    0.0000 </r>
       <r>   17.0448    0.0000 </r>
       <r>   17.8117    0.0000 </r>
       <r>   19.0429    0.0000 </r>
      </set>
      <set comment="kpoint 126">
       <r>    0.1952    1.0000 </r>
       <r>    1.0520    1.0000 </r>
       <r>    3.0917    1.0000 </r>
       <r>    3.8246    1.0000 </r>
       <r>    4.0190    1.0000 </r>
       <r>    4.4525    1.0000 </r>
       <r>    4.5790    1.0000 </r>
       <r>    4.7276    1.0000 </r>
       <r>    5.1944    1.0000 </r>
       <r>    5.1966    1.0000 </r>
       <r>    5.8734    1.0000 </r>
       <r>    6.0224    1.0000 </r>
       <r>    6.2128    1.0000 </r>
       <r>    6.3417    1.0000 </r>
       <r>    6.5010    1.0000 </r>
       <r>    6.7893    1.0012 </r>
       <r>    7.1534    0.9483 </r>
       <r>    9.6251   -0.0000 </r>
       <r>    9.7742   -0.0000 </r>
       <r>   13.0957    0.0000 </r>
       <r>   13.6389    0.0000 </r>
       <r>   17.1300    0.0000 </r>
       <r>   18.0215    0.0000 </r>
       <r>   18.8038    0.0000 </r>
      </set>
      <set comment="kpoint 127">
       <r>   -0.5617    1.0000 </r>
       <r>    2.4832    1.0000 </r>
       <r>    2.4835    1.0000 </r>
       <r>    3.8105    1.0000 </r>
       <r>    3.9186    1.0000 </r>
       <r>    4.2529    1.0000 </r>
       <r>    4.6807    1.0000 </r>
       <r>    4.6845    1.0000 </r>
       <r>    4.9815    1.0000 </r>
       <r>    5.3970    1.0000 </r>
       <r>    6.0724    1.0000 </r>
       <r>    6.1262    1.0000 </r>
       <r>    6.2153    1.0000 </r>
       <r>    6.3001    1.0000 </r>
       <r>    6.4867    1.0000 </r>
       <r>    7.1579    0.9396 </r>
       <r>    7.1874    0.8693 </r>
       <r>    8.5948   -0.0000 </r>
       <r>   10.4680   -0.0000 </r>
       <r>   12.3928   -0.0000 </r>
       <r>   15.7096    0.0000 </r>
       <r>   15.8783    0.0000 </r>
       <r>   17.3283    0.0000 </r>
       <r>   19.6081    0.0000 </r>
      </set>
      <set comment="kpoint 128">
       <r>   -0.1512    1.0000 </r>
       <r>    2.0471    1.0000 </r>
       <r>    2.6522    1.0000 </r>
       <r>    3.8361    1.0000 </r>
       <r>    3.9670    1.0000 </r>
       <r>    4.3241    1.0000 </r>
       <r>    4.6260    1.0000 </r>
       <r>    4.7280    1.0000 </r>
       <r>    5.0222    1.0000 </r>
       <r>    5.3675    1.0000 </r>
       <r>    5.9955    1.0000 </r>
       <r>    6.0912    1.0000 </r>
       <r>    6.1541    1.0000 </r>
       <r>    6.3190    1.0000 </r>
       <r>    6.4484    1.0000 </r>
       <r>    7.0091    1.0321 </r>
       <r>    7.0966    1.0194 </r>
       <r>    8.6565   -0.0000 </r>
       <r>    9.9912   -0.0000 </r>
       <r>   12.6959   -0.0000 </r>
       <r>   15.0717    0.0000 </r>
       <r>   16.2127    0.0000 </r>
       <r>   17.5481    0.0000 </r>
       <r>   19.1092    0.0000 </r>
      </set>
      <set comment="kpoint 129">
       <r>    0.2592    1.0000 </r>
       <r>    1.6109    1.0000 </r>
       <r>    2.7685    1.0000 </r>
       <r>    3.8455    1.0000 </r>
       <r>    3.9925    1.0000 </r>
       <r>    4.4110    1.0000 </r>
       <r>    4.5980    1.0000 </r>
       <r>    4.7146    1.0000 </r>
       <r>    5.1293    1.0000 </r>
       <r>    5.3116    1.0000 </r>
       <r>    5.9253    1.0000 </r>
       <r>    6.0143    1.0000 </r>
       <r>    6.1678    1.0000 </r>
       <r>    6.3411    1.0000 </r>
       <r>    6.4122    1.0000 </r>
       <r>    6.8699    1.0060 </r>
       <r>    7.0432    1.0355 </r>
       <r>    8.8570   -0.0000 </r>
       <r>    9.5368   -0.0000 </r>
       <r>   13.1143    0.0000 </r>
       <r>   14.4396    0.0000 </r>
       <r>   16.5600    0.0000 </r>
       <r>   17.7828    0.0000 </r>
       <r>   18.6060    0.0000 </r>
      </set>
      <set comment="kpoint 130">
       <r>    0.4920    1.0000 </r>
       <r>    1.3677    1.0000 </r>
       <r>    2.8101    1.0000 </r>
       <r>    3.8468    1.0000 </r>
       <r>    4.0010    1.0000 </r>
       <r>    4.4530    1.0000 </r>
       <r>    4.5909    1.0000 </r>
       <r>    4.7001    1.0000 </r>
       <r>    5.2320    1.0000 </r>
       <r>    5.2339    1.0000 </r>
       <r>    5.9065    1.0000 </r>
       <r>    5.9674    1.0000 </r>
       <r>    6.1814    1.0000 </r>
       <r>    6.3600    1.0000 </r>
       <r>    6.3876    1.0000 </r>
       <r>    6.8172    1.0022 </r>
       <r>    7.0238    1.0343 </r>
       <r>    9.1268   -0.0000 </r>
       <r>    9.1823   -0.0000 </r>
       <r>   13.4193    0.0000 </r>
       <r>   14.0659    0.0000 </r>
       <r>   16.7132    0.0000 </r>
       <r>   17.9556    0.0000 </r>
       <r>   18.3141    0.0000 </r>
      </set>
      <set comment="kpoint 131">
       <r>    0.2323    1.0000 </r>
       <r>    2.2575    1.0000 </r>
       <r>    2.2846    1.0000 </r>
       <r>    3.8168    1.0000 </r>
       <r>    3.9812    1.0000 </r>
       <r>    4.3880    1.0000 </r>
       <r>    4.6589    1.0000 </r>
       <r>    4.6824    1.0000 </r>
       <r>    5.0905    1.0000 </r>
       <r>    5.3651    1.0000 </r>
       <r>    5.9791    1.0000 </r>
       <r>    6.0365    1.0000 </r>
       <r>    6.0924    1.0000 </r>
       <r>    6.3444    1.0000 </r>
       <r>    6.3851    1.0000 </r>
       <r>    6.9454    1.0182 </r>
       <r>    6.9766    1.0253 </r>
       <r>    8.5345   -0.0000 </r>
       <r>    9.4788   -0.0000 </r>
       <r>   13.0774    0.0000 </r>
       <r>   15.3503    0.0000 </r>
       <r>   15.6619    0.0000 </r>
       <r>   17.7416    0.0000 </r>
       <r>   18.5833    0.0000 </r>
      </set>
      <set comment="kpoint 132">
       <r>    0.6077    1.0000 </r>
       <r>    1.8908    1.0000 </r>
       <r>    2.4391    1.0000 </r>
       <r>    3.7779    1.0000 </r>
       <r>    3.9829    1.0000 </r>
       <r>    4.4692    1.0000 </r>
       <r>    4.6504    1.0000 </r>
       <r>    4.6749    1.0000 </r>
       <r>    5.1869    1.0000 </r>
       <r>    5.3356    1.0000 </r>
       <r>    5.9091    1.0000 </r>
       <r>    5.9947    1.0000 </r>
       <r>    6.1091    1.0000 </r>
       <r>    6.3187    1.0000 </r>
       <r>    6.3654    1.0000 </r>
       <r>    6.8445    1.0038 </r>
       <r>    6.9134    1.0119 </r>
       <r>    8.5887   -0.0000 </r>
       <r>    9.0688   -0.0000 </r>
       <r>   13.5128    0.0000 </r>
       <r>   14.8545    0.0000 </r>
       <r>   15.9087    0.0000 </r>
       <r>   17.8232    0.0000 </r>
       <r>   18.2092    0.0000 </r>
      </set>
      <set comment="kpoint 133">
       <r>    0.8123    1.0000 </r>
       <r>    1.6837    1.0000 </r>
       <r>    2.5028    1.0000 </r>
       <r>    3.7584    1.0000 </r>
       <r>    3.9828    1.0000 </r>
       <r>    4.5057    1.0000 </r>
       <r>    4.6502    1.0000 </r>
       <r>    4.6678    1.0000 </r>
       <r>    5.2717    1.0000 </r>
       <r>    5.2793    1.0000 </r>
       <r>    5.8847    1.0000 </r>
       <r>    5.9644    1.0000 </r>
       <r>    6.1302    1.0000 </r>
       <r>    6.2894    1.0000 </r>
       <r>    6.3707    1.0000 </r>
       <r>    6.8038    1.0017 </r>
       <r>    6.8902    1.0084 </r>
       <r>    8.7671   -0.0000 </r>
       <r>    8.7769   -0.0000 </r>
       <r>   13.8090    0.0000 </r>
       <r>   14.5032    0.0000 </r>
       <r>   16.0740    0.0000 </r>
       <r>   17.7344    0.0000 </r>
       <r>   18.1639    0.0000 </r>
      </set>
      <set comment="kpoint 134">
       <r>    0.9418    1.0000 </r>
       <r>    2.1029    1.0000 </r>
       <r>    2.1269    1.0000 </r>
       <r>    3.6761    1.0000 </r>
       <r>    3.9732    1.0000 </r>
       <r>    4.5539    1.0000 </r>
       <r>    4.6472    1.0000 </r>
       <r>    4.6881    1.0000 </r>
       <r>    5.2533    1.0000 </r>
       <r>    5.3379    1.0000 </r>
       <r>    5.8408    1.0000 </r>
       <r>    6.0434    1.0000 </r>
       <r>    6.0581    1.0000 </r>
       <r>    6.2416    1.0000 </r>
       <r>    6.3716    1.0000 </r>
       <r>    6.7925    1.0013 </r>
       <r>    6.8222    1.0024 </r>
       <r>    8.4988   -0.0000 </r>
       <r>    8.7436   -0.0000 </r>
       <r>   13.9506    0.0000 </r>
       <r>   15.1285    0.0000 </r>
       <r>   15.4000    0.0000 </r>
       <r>   17.4494    0.0000 </r>
       <r>   18.2953    0.0000 </r>
      </set>
      <set comment="kpoint 135">
       <r>    1.1178    1.0000 </r>
       <r>    1.9418    1.0000 </r>
       <r>    2.2053    1.0000 </r>
       <r>    3.6264    1.0000 </r>
       <r>    3.9694    1.0000 </r>
       <r>    4.5918    1.0000 </r>
       <r>    4.6445    1.0000 </r>
       <r>    4.6948    1.0000 </r>
       <r>    5.3074    1.0000 </r>
       <r>    5.3115    1.0000 </r>
       <r>    5.8130    1.0000 </r>
       <r>    6.0291    1.0000 </r>
       <r>    6.0785    1.0000 </r>
       <r>    6.2012    1.0000 </r>
       <r>    6.3745    1.0000 </r>
       <r>    6.7642    1.0007 </r>
       <r>    6.7927    1.0013 </r>
       <r>    8.5554   -0.0000 </r>
       <r>    8.5557   -0.0000 </r>
       <r>   14.2511    0.0000 </r>
       <r>   14.8833    0.0000 </r>
       <r>   15.4578    0.0000 </r>
       <r>   17.2487    0.0000 </r>
       <r>   18.3668    0.0000 </r>
      </set>
      <set comment="kpoint 136">
       <r>    1.2775    1.0000 </r>
       <r>    2.0483    1.0000 </r>
       <r>    2.0483    1.0000 </r>
       <r>    3.5613    1.0000 </r>
       <r>    3.9645    1.0000 </r>
       <r>    4.6362    1.0000 </r>
       <r>    4.6362    1.0000 </r>
       <r>    4.7070    1.0000 </r>
       <r>    5.3229    1.0000 </r>
       <r>    5.3229    1.0000 </r>
       <r>    5.7839    1.0000 </r>
       <r>    6.0601    1.0000 </r>
       <r>    6.0601    1.0000 </r>
       <r>    6.1572    1.0000 </r>
       <r>    6.3744    1.0000 </r>
       <r>    6.7412    1.0004 </r>
       <r>    6.7594    1.0006 </r>
       <r>    8.4871   -0.0000 </r>
       <r>    8.4871   -0.0000 </r>
       <r>   14.5953    0.0000 </r>
       <r>   15.0534    0.0000 </r>
       <r>   15.0534    0.0000 </r>
       <r>   17.0413    0.0000 </r>
       <r>   18.4511    0.0000 </r>
      </set>
      <set comment="kpoint 137">
       <r>   -2.3231    1.0000 </r>
       <r>    2.7759    1.0000 </r>
       <r>    3.2737    1.0000 </r>
       <r>    3.2737    1.0000 </r>
       <r>    3.6595    1.0000 </r>
       <r>    4.1072    1.0000 </r>
       <r>    4.1072    1.0000 </r>
       <r>    5.0620    1.0000 </r>
       <r>    5.6715    1.0000 </r>
       <r>    5.6715    1.0000 </r>
       <r>    6.2490    1.0000 </r>
       <r>    6.2490    1.0000 </r>
       <r>    6.6197    1.0000 </r>
       <r>    6.6197    1.0000 </r>
       <r>    6.7593    1.0006 </r>
       <r>    7.5259   -0.0353 </r>
       <r>    8.1483   -0.0000 </r>
       <r>    9.0668   -0.0000 </r>
       <r>    9.0668   -0.0000 </r>
       <r>   16.0286    0.0000 </r>
       <r>   16.0286    0.0000 </r>
       <r>   16.4559    0.0000 </r>
       <r>   17.2607    0.0000 </r>
       <r>   17.2607    0.0000 </r>
      </set>
      <set comment="kpoint 138">
       <r>   -2.0559    1.0000 </r>
       <r>    2.7586    1.0000 </r>
       <r>    3.1392    1.0000 </r>
       <r>    3.4435    1.0000 </r>
       <r>    3.6506    1.0000 </r>
       <r>    4.1389    1.0000 </r>
       <r>    4.2081    1.0000 </r>
       <r>    4.9748    1.0000 </r>
       <r>    5.5250    1.0000 </r>
       <r>    5.5602    1.0000 </r>
       <r>    6.1372    1.0000 </r>
       <r>    6.2619    1.0000 </r>
       <r>    6.5126    1.0000 </r>
       <r>    6.6251    1.0000 </r>
       <r>    6.6512    1.0000 </r>
       <r>    7.5019   -0.0312 </r>
       <r>    7.9239   -0.0000 </r>
       <r>    9.1251   -0.0000 </r>
       <r>    9.3276   -0.0000 </r>
       <r>   15.3062    0.0000 </r>
       <r>   15.5549    0.0000 </r>
       <r>   16.6156    0.0000 </r>
       <r>   17.1761    0.0000 </r>
       <r>   17.5457    0.0000 </r>
      </set>
      <set comment="kpoint 139">
       <r>   -1.7191    1.0000 </r>
       <r>    2.4938    1.0000 </r>
       <r>    3.1452    1.0000 </r>
       <r>    3.6375    1.0000 </r>
       <r>    3.6642    1.0000 </r>
       <r>    4.1846    1.0000 </r>
       <r>    4.2970    1.0000 </r>
       <r>    4.9256    1.0000 </r>
       <r>    5.3757    1.0000 </r>
       <r>    5.4136    1.0000 </r>
       <r>    6.0824    1.0000 </r>
       <r>    6.2483    1.0000 </r>
       <r>    6.3867    1.0000 </r>
       <r>    6.5640    1.0000 </r>
       <r>    6.6287    1.0000 </r>
       <r>    7.4622   -0.0069 </r>
       <r>    7.5375   -0.0353 </r>
       <r>    9.4654   -0.0000 </r>
       <r>    9.6188   -0.0000 </r>
       <r>   14.5239    0.0000 </r>
       <r>   14.7347    0.0000 </r>
       <r>   17.0311    0.0000 </r>
       <r>   17.2595    0.0000 </r>
       <r>   17.7884    0.0000 </r>
      </set>
      <set comment="kpoint 140">
       <r>   -1.3196    1.0000 </r>
       <r>    2.0504    1.0000 </r>
       <r>    3.2271    1.0000 </r>
       <r>    3.6888    1.0000 </r>
       <r>    3.8278    1.0000 </r>
       <r>    4.2557    1.0000 </r>
       <r>    4.3560    1.0000 </r>
       <r>    4.9290    1.0000 </r>
       <r>    5.2252    1.0000 </r>
       <r>    5.2962    1.0000 </r>
       <r>    6.0400    1.0000 </r>
       <r>    6.2219    1.0000 </r>
       <r>    6.2590    1.0000 </r>
       <r>    6.4909    1.0000 </r>
       <r>    6.6311    1.0000 </r>
       <r>    7.1888    0.8655 </r>
       <r>    7.4168    0.0594 </r>
       <r>    9.8940   -0.0000 </r>
       <r>    9.9234   -0.0000 </r>
       <r>   13.8056    0.0000 </r>
       <r>   13.9506    0.0000 </r>
       <r>   17.3959    0.0000 </r>
       <r>   17.4517    0.0000 </r>
       <r>   18.0387    0.0000 </r>
      </set>
      <set comment="kpoint 141">
       <r>   -0.8704    1.0000 </r>
       <r>    1.5295    1.0000 </r>
       <r>    3.3101    1.0000 </r>
       <r>    3.7095    1.0000 </r>
       <r>    3.9714    1.0000 </r>
       <r>    4.3752    1.0000 </r>
       <r>    4.3853    1.0000 </r>
       <r>    4.9838    1.0000 </r>
       <r>    5.0715    1.0000 </r>
       <r>    5.2216    1.0000 </r>
       <r>    5.9882    1.0000 </r>
       <r>    6.1555    1.0000 </r>
       <r>    6.2042    1.0000 </r>
       <r>    6.4192    1.0000 </r>
       <r>    6.6333    1.0000 </r>
       <r>    6.9202    1.0131 </r>
       <r>    7.3762    0.1614 </r>
       <r>   10.2194   -0.0000 </r>
       <r>   10.3568   -0.0000 </r>
       <r>   13.2026    0.0000 </r>
       <r>   13.2376    0.0000 </r>
       <r>   17.5390    0.0000 </r>
       <r>   17.8626    0.0000 </r>
       <r>   18.3213    0.0000 </r>
      </set>
      <set comment="kpoint 142">
       <r>   -0.4070    1.0000 </r>
       <r>    1.0079    1.0000 </r>
       <r>    3.3704    1.0000 </r>
       <r>    3.7165    1.0000 </r>
       <r>    4.0456    1.0000 </r>
       <r>    4.4024    1.0000 </r>
       <r>    4.5437    1.0000 </r>
       <r>    4.9104    1.0000 </r>
       <r>    5.0593    1.0000 </r>
       <r>    5.1722    1.0000 </r>
       <r>    5.9341    1.0000 </r>
       <r>    6.0945    1.0000 </r>
       <r>    6.2095    1.0000 </r>
       <r>    6.3491    1.0000 </r>
       <r>    6.6351    1.0000 </r>
       <r>    6.7484    1.0005 </r>
       <r>    7.3488    0.2523 </r>
       <r>   10.4615   -0.0000 </r>
       <r>   10.7983   -0.0000 </r>
       <r>   12.6468   -0.0000 </r>
       <r>   12.7724    0.0000 </r>
       <r>   17.6496    0.0000 </r>
       <r>   18.1955    0.0000 </r>
       <r>   18.6526    0.0000 </r>
      </set>
      <set comment="kpoint 143">
       <r>   -0.1240    1.0000 </r>
       <r>    0.7029    1.0000 </r>
       <r>    3.3931    1.0000 </r>
       <r>    3.7162    1.0000 </r>
       <r>    4.0668    1.0000 </r>
       <r>    4.4098    1.0000 </r>
       <r>    4.6980    1.0000 </r>
       <r>    4.7653    1.0000 </r>
       <r>    5.1203    1.0000 </r>
       <r>    5.1277    1.0000 </r>
       <r>    5.9106    1.0000 </r>
       <r>    6.0744    1.0000 </r>
       <r>    6.2243    1.0000 </r>
       <r>    6.3102    1.0000 </r>
       <r>    6.6359    1.0000 </r>
       <r>    6.6887    1.0001 </r>
       <r>    7.3392    0.2876 </r>
       <r>   10.5628   -0.0000 </r>
       <r>   11.0279   -0.0000 </r>
       <r>   12.3676   -0.0000 </r>
       <r>   12.6077   -0.0000 </r>
       <r>   17.6919    0.0000 </r>
       <r>   18.3279    0.0000 </r>
       <r>   18.9746    0.0000 </r>
      </set>
      <set comment="kpoint 144">
       <r>   -1.7936    1.0000 </r>
       <r>    2.7951    1.0000 </r>
       <r>    3.1004    1.0000 </r>
       <r>    3.4566    1.0000 </r>
       <r>    3.6550    1.0000 </r>
       <r>    4.1888    1.0000 </r>
       <r>    4.2875    1.0000 </r>
       <r>    4.8992    1.0000 </r>
       <r>    5.4069    1.0000 </r>
       <r>    5.4413    1.0000 </r>
       <r>    6.1501    1.0000 </r>
       <r>    6.2128    1.0000 </r>
       <r>    6.4775    1.0000 </r>
       <r>    6.5246    1.0000 </r>
       <r>    6.5783    1.0000 </r>
       <r>    7.4845   -0.0238 </r>
       <r>    7.9482   -0.0000 </r>
       <r>    8.8855   -0.0000 </r>
       <r>    9.4830   -0.0000 </r>
       <r>   14.5812    0.0000 </r>
       <r>   15.7638    0.0000 </r>
       <r>   15.8241    0.0000 </r>
       <r>   17.4270    0.0000 </r>
       <r>   18.1511    0.0000 </r>
      </set>
      <set comment="kpoint 145">
       <r>   -1.4637    1.0000 </r>
       <r>    2.6071    1.0000 </r>
       <r>    3.0646    1.0000 </r>
       <r>    3.6082    1.0000 </r>
       <r>    3.6917    1.0000 </r>
       <r>    4.2232    1.0000 </r>
       <r>    4.3780    1.0000 </r>
       <r>    4.8566    1.0000 </r>
       <r>    5.2572    1.0000 </r>
       <r>    5.3435    1.0000 </r>
       <r>    6.1247    1.0000 </r>
       <r>    6.2088    1.0000 </r>
       <r>    6.3857    1.0000 </r>
       <r>    6.4232    1.0000 </r>
       <r>    6.5698    1.0000 </r>
       <r>    7.4439    0.0142 </r>
       <r>    7.6688   -0.0106 </r>
       <r>    8.9773   -0.0000 </r>
       <r>    9.7520   -0.0000 </r>
       <r>   13.7883    0.0000 </r>
       <r>   14.9630    0.0000 </r>
       <r>   16.1736    0.0000 </r>
       <r>   17.6060    0.0000 </r>
       <r>   18.6193    0.0000 </r>
      </set>
      <set comment="kpoint 146">
       <r>   -1.0735    1.0000 </r>
       <r>    2.1990    1.0000 </r>
       <r>    3.1166    1.0000 </r>
       <r>    3.7428    1.0000 </r>
       <r>    3.7945    1.0000 </r>
       <r>    4.2685    1.0000 </r>
       <r>    4.4358    1.0000 </r>
       <r>    4.8680    1.0000 </r>
       <r>    5.1298    1.0000 </r>
       <r>    5.2549    1.0000 </r>
       <r>    6.0744    1.0000 </r>
       <r>    6.2008    1.0000 </r>
       <r>    6.2916    1.0000 </r>
       <r>    6.3603    1.0000 </r>
       <r>    6.5655    1.0000 </r>
       <r>    7.3036    0.4305 </r>
       <r>    7.4019    0.0919 </r>
       <r>    9.2514   -0.0000 </r>
       <r>   10.0360   -0.0000 </r>
       <r>   13.1014    0.0000 </r>
       <r>   14.1944    0.0000 </r>
       <r>   16.5849    0.0000 </r>
       <r>   17.8040    0.0000 </r>
       <r>   18.9091    0.0000 </r>
      </set>
      <set comment="kpoint 147">
       <r>   -0.6367    1.0000 </r>
       <r>    1.7070    1.0000 </r>
       <r>    3.1686    1.0000 </r>
       <r>    3.7901    1.0000 </r>
       <r>    3.9579    1.0000 </r>
       <r>    4.3406    1.0000 </r>
       <r>    4.4631    1.0000 </r>
       <r>    4.9147    1.0000 </r>
       <r>    5.0310    1.0000 </r>
       <r>    5.1876    1.0000 </r>
       <r>    6.0086    1.0000 </r>
       <r>    6.1713    1.0000 </r>
       <r>    6.2282    1.0000 </r>
       <r>    6.3390    1.0000 </r>
       <r>    6.5548    1.0000 </r>
       <r>    7.0101    1.0323 </r>
       <r>    7.3465    0.2604 </r>
       <r>    9.5700   -0.0000 </r>
       <r>   10.2861   -0.0000 </r>
       <r>   12.5833   -0.0000 </r>
       <r>   13.5127    0.0000 </r>
       <r>   17.0112    0.0000 </r>
       <r>   18.0052    0.0000 </r>
       <r>   19.1015    0.0000 </r>
      </set>
      <set comment="kpoint 148">
       <r>   -0.1909    1.0000 </r>
       <r>    1.2132    1.0000 </r>
       <r>    3.2025    1.0000 </r>
       <r>    3.8164    1.0000 </r>
       <r>    4.0581    1.0000 </r>
       <r>    4.4348    1.0000 </r>
       <r>    4.4944    1.0000 </r>
       <r>    4.8693    1.0000 </r>
       <r>    5.0322    1.0000 </r>
       <r>    5.1476    1.0000 </r>
       <r>    5.9526    1.0000 </r>
       <r>    6.1328    1.0000 </r>
       <r>    6.2068    1.0000 </r>
       <r>    6.3368    1.0000 </r>
       <r>    6.5413    1.0000 </r>
       <r>    6.8095    1.0019 </r>
       <r>    7.3093    0.4066 </r>
       <r>    9.8736   -0.0000 </r>
       <r>   10.4138   -0.0000 </r>
       <r>   12.3303   -0.0000 </r>
       <r>   12.9552    0.0000 </r>
       <r>   17.3965    0.0000 </r>
       <r>   18.1835    0.0000 </r>
       <r>   19.0139    0.0000 </r>
      </set>
      <set comment="kpoint 149">
       <r>    0.0737    1.0000 </r>
       <r>    0.9302    1.0000 </r>
       <r>    3.2142    1.0000 </r>
       <r>    3.8236    1.0000 </r>
       <r>    4.0889    1.0000 </r>
       <r>    4.4677    1.0000 </r>
       <r>    4.5403    1.0000 </r>
       <r>    4.8107    1.0000 </r>
       <r>    5.0529    1.0000 </r>
       <r>    5.1358    1.0000 </r>
       <r>    5.9324    1.0000 </r>
       <r>    6.1129    1.0000 </r>
       <r>    6.2065    1.0000 </r>
       <r>    6.3374    1.0000 </r>
       <r>    6.5349    1.0000 </r>
       <r>    6.7366    1.0003 </r>
       <r>    7.2959    0.4626 </r>
       <r>   10.0357   -0.0000 </r>
       <r>   10.4069   -0.0000 </r>
       <r>   12.3353   -0.0000 </r>
       <r>   12.6682   -0.0000 </r>
       <r>   17.5777    0.0000 </r>
       <r>   18.2837    0.0000 </r>
       <r>   18.8303    0.0000 </r>
      </set>
      <set comment="kpoint 150">
       <r>   -1.1433    1.0000 </r>
       <r>    2.6562    1.0000 </r>
       <r>    2.8746    1.0000 </r>
       <r>    3.6760    1.0000 </r>
       <r>    3.7548    1.0000 </r>
       <r>    4.2406    1.0000 </r>
       <r>    4.4773    1.0000 </r>
       <r>    4.8022    1.0000 </r>
       <r>    5.1354    1.0000 </r>
       <r>    5.2942    1.0000 </r>
       <r>    6.1605    1.0000 </r>
       <r>    6.1708    1.0000 </r>
       <r>    6.2841    1.0000 </r>
       <r>    6.3641    1.0000 </r>
       <r>    6.5330    1.0000 </r>
       <r>    7.4008    0.0947 </r>
       <r>    7.6310   -0.0177 </r>
       <r>    8.7051   -0.0000 </r>
       <r>    9.9508   -0.0000 </r>
       <r>   13.0596    0.0000 </r>
       <r>   15.2743    0.0000 </r>
       <r>   15.3898    0.0000 </r>
       <r>   17.8272    0.0000 </r>
       <r>   19.5333    0.0000 </r>
      </set>
      <set comment="kpoint 151">
       <r>   -0.7659    1.0000 </r>
       <r>    2.3581    1.0000 </r>
       <r>    2.8892    1.0000 </r>
       <r>    3.7792    1.0000 </r>
       <r>    3.8517    1.0000 </r>
       <r>    4.2617    1.0000 </r>
       <r>    4.5385    1.0000 </r>
       <r>    4.7958    1.0000 </r>
       <r>    5.0535    1.0000 </r>
       <r>    5.2467    1.0000 </r>
       <r>    6.0971    1.0000 </r>
       <r>    6.1709    1.0000 </r>
       <r>    6.2144    1.0000 </r>
       <r>    6.3237    1.0000 </r>
       <r>    6.5177    1.0000 </r>
       <r>    7.3223    0.3535 </r>
       <r>    7.3966    0.1048 </r>
       <r>    8.7667   -0.0000 </r>
       <r>   10.0963   -0.0000 </r>
       <r>   12.5147   -0.0000 </r>
       <r>   14.5515    0.0000 </r>
       <r>   15.7465    0.0000 </r>
       <r>   18.0483    0.0000 </r>
       <r>   19.5568    0.0000 </r>
      </set>
      <set comment="kpoint 152">
       <r>   -0.3464    1.0000 </r>
       <r>    1.9124    1.0000 </r>
       <r>    2.9537    1.0000 </r>
       <r>    3.8590    1.0000 </r>
       <r>    3.9684    1.0000 </r>
       <r>    4.3007    1.0000 </r>
       <r>    4.5539    1.0000 </r>
       <r>    4.8148    1.0000 </r>
       <r>    5.0332    1.0000 </r>
       <r>    5.2017    1.0000 </r>
       <r>    6.0141    1.0000 </r>
       <r>    6.1020    1.0000 </r>
       <r>    6.2385    1.0000 </r>
       <r>    6.3137    1.0000 </r>
       <r>    6.4985    1.0000 </r>
       <r>    7.0710    1.0316 </r>
       <r>    7.2967    0.4592 </r>
       <r>    8.9884   -0.0000 </r>
       <r>   10.0959   -0.0000 </r>
       <r>   12.2568   -0.0000 </r>
       <r>   13.8596    0.0000 </r>
       <r>   16.1774    0.0000 </r>
       <r>   18.2463    0.0000 </r>
       <r>   19.0177    0.0000 </r>
      </set>
      <set comment="kpoint 153">
       <r>    0.0750    1.0000 </r>
       <r>    1.4595    1.0000 </r>
       <r>    2.9942    1.0000 </r>
       <r>    3.8976    1.0000 </r>
       <r>    4.0642    1.0000 </r>
       <r>    4.3535    1.0000 </r>
       <r>    4.5652    1.0000 </r>
       <r>    4.7948    1.0000 </r>
       <r>    5.0664    1.0000 </r>
       <r>    5.1687    1.0000 </r>
       <r>    5.9621    1.0000 </r>
       <r>    6.0373    1.0000 </r>
       <r>    6.2634    1.0000 </r>
       <r>    6.3367    1.0000 </r>
       <r>    6.4663    1.0000 </r>
       <r>    6.8570    1.0048 </r>
       <r>    7.2498    0.6548 </r>
       <r>    9.2657   -0.0000 </r>
       <r>    9.9146   -0.0000 </r>
       <r>   12.3185   -0.0000 </r>
       <r>   13.2747    0.0000 </r>
       <r>   16.5798    0.0000 </r>
       <r>   18.2771    0.0000 </r>
       <r>   18.6492    0.0000 </r>
      </set>
      <set comment="kpoint 154">
       <r>    0.3159    1.0000 </r>
       <r>    1.2056    1.0000 </r>
       <r>    3.0076    1.0000 </r>
       <r>    3.9073    1.0000 </r>
       <r>    4.1004    1.0000 </r>
       <r>    4.3815    1.0000 </r>
       <r>    4.5737    1.0000 </r>
       <r>    4.7761    1.0000 </r>
       <r>    5.0822    1.0000 </r>
       <r>    5.1607    1.0000 </r>
       <r>    5.9538    1.0000 </r>
       <r>    6.0020    1.0000 </r>
       <r>    6.2764    1.0000 </r>
       <r>    6.3589    1.0000 </r>
       <r>    6.4423    1.0000 </r>
       <r>    6.7752    1.0009 </r>
       <r>    7.2328    0.7204 </r>
       <r>    9.4843   -0.0000 </r>
       <r>    9.7133   -0.0000 </r>
       <r>   12.4874   -0.0000 </r>
       <r>   12.9469    0.0000 </r>
       <r>   16.7799    0.0000 </r>
       <r>   18.1317    0.0000 </r>
       <r>   18.6241    0.0000 </r>
      </set>
      <set comment="kpoint 155">
       <r>   -0.4058    1.0000 </r>
       <r>    2.4467    1.0000 </r>
       <r>    2.6235    1.0000 </r>
       <r>    3.7990    1.0000 </r>
       <r>    3.9609    1.0000 </r>
       <r>    4.2670    1.0000 </r>
       <r>    4.6077    1.0000 </r>
       <r>    4.7545    1.0000 </r>
       <r>    5.0291    1.0000 </r>
       <r>    5.2406    1.0000 </r>
       <r>    6.0588    1.0000 </r>
       <r>    6.1339    1.0000 </r>
       <r>    6.1397    1.0000 </r>
       <r>    6.3317    1.0000 </r>
       <r>    6.4946    1.0000 </r>
       <r>    7.2680    0.5803 </r>
       <r>    7.2955    0.4643 </r>
       <r>    8.5548   -0.0000 </r>
       <r>    9.9977   -0.0000 </r>
       <r>   12.2284   -0.0000 </r>
       <r>   14.8584    0.0000 </r>
       <r>   15.0663    0.0000 </r>
       <r>   18.2404    0.0000 </r>
       <r>   19.0200    0.0000 </r>
      </set>
      <set comment="kpoint 156">
       <r>   -0.0098    1.0000 </r>
       <r>    2.1237    1.0000 </r>
       <r>    2.6746    1.0000 </r>
       <r>    3.8329    1.0000 </r>
       <r>    4.0396    1.0000 </r>
       <r>    4.3047    1.0000 </r>
       <r>    4.6188    1.0000 </r>
       <r>    4.7557    1.0000 </r>
       <r>    5.0625    1.0000 </r>
       <r>    5.2284    1.0000 </r>
       <r>    5.9601    1.0000 </r>
       <r>    6.0685    1.0000 </r>
       <r>    6.1761    1.0000 </r>
       <r>    6.3405    1.0000 </r>
       <r>    6.4754    1.0000 </r>
       <r>    7.0706    1.0317 </r>
       <r>    7.2096    0.8023 </r>
       <r>    8.6006   -0.0000 </r>
       <r>    9.7266   -0.0000 </r>
       <r>   12.2684   -0.0000 </r>
       <r>   14.2488    0.0000 </r>
       <r>   15.4078    0.0000 </r>
       <r>   18.0960    0.0000 </r>
       <r>   18.7657    0.0000 </r>
      </set>
      <set comment="kpoint 157">
       <r>    0.3790    1.0000 </r>
       <r>    1.7289    1.0000 </r>
       <r>    2.7491    1.0000 </r>
       <r>    3.8601    1.0000 </r>
       <r>    4.0839    1.0000 </r>
       <r>    4.3490    1.0000 </r>
       <r>    4.6404    1.0000 </r>
       <r>    4.7379    1.0000 </r>
       <r>    5.1254    1.0000 </r>
       <r>    5.2102    1.0000 </r>
       <r>    5.8986    1.0000 </r>
       <r>    6.0120    1.0000 </r>
       <r>    6.2250    1.0000 </r>
       <r>    6.3550    1.0000 </r>
       <r>    6.4409    1.0000 </r>
       <r>    6.8695    1.0060 </r>
       <r>    7.1594    0.9365 </r>
       <r>    8.7869   -0.0000 </r>
       <r>    9.3876   -0.0000 </r>
       <r>   12.5223   -0.0000 </r>
       <r>   13.6554    0.0000 </r>
       <r>   15.8108    0.0000 </r>
       <r>   17.6350    0.0000 </r>
       <r>   18.8791    0.0000 </r>
      </set>
      <set comment="kpoint 158">
       <r>    0.5910    1.0000 </r>
       <r>    1.5122    1.0000 </r>
       <r>    2.7752    1.0000 </r>
       <r>    3.8692    1.0000 </r>
       <r>    4.1009    1.0000 </r>
       <r>    4.3640    1.0000 </r>
       <r>    4.6747    1.0000 </r>
       <r>    4.7086    1.0000 </r>
       <r>    5.1590    1.0000 </r>
       <r>    5.1970    1.0000 </r>
       <r>    5.8812    1.0000 </r>
       <r>    5.9885    1.0000 </r>
       <r>    6.2508    1.0000 </r>
       <r>    6.3702    1.0000 </r>
       <r>    6.4116    1.0000 </r>
       <r>    6.7892    1.0012 </r>
       <r>    7.1404    0.9710 </r>
       <r>    9.0071   -0.0000 </r>
       <r>    9.1124   -0.0000 </r>
       <r>   12.7514    0.0000 </r>
       <r>   13.3206    0.0000 </r>
       <r>   16.0151    0.0000 </r>
       <r>   17.3961    0.0000 </r>
       <r>   18.9446    0.0000 </r>
      </set>
      <set comment="kpoint 159">
       <r>    0.3543    1.0000 </r>
       <r>    2.2646    1.0000 </r>
       <r>    2.3963    1.0000 </r>
       <r>    3.7773    1.0000 </r>
       <r>    4.0779    1.0000 </r>
       <r>    4.3754    1.0000 </r>
       <r>    4.6216    1.0000 </r>
       <r>    4.7660    1.0000 </r>
       <r>    5.1191    1.0000 </r>
       <r>    5.2507    1.0000 </r>
       <r>    5.8631    1.0000 </r>
       <r>    6.1005    1.0000 </r>
       <r>    6.1066    1.0000 </r>
       <r>    6.3572    1.0000 </r>
       <r>    6.4598    1.0000 </r>
       <r>    6.9794    1.0259 </r>
       <r>    7.1037    1.0142 </r>
       <r>    8.4502   -0.0000 </r>
       <r>    9.3092   -0.0000 </r>
       <r>   12.5009   -0.0000 </r>
       <r>   14.5530    0.0000 </r>
       <r>   14.8271    0.0000 </r>
       <r>   17.5066    0.0000 </r>
       <r>   18.9619    0.0000 </r>
      </set>
      <set comment="kpoint 160">
       <r>    0.7007    1.0000 </r>
       <r>    1.9924    1.0000 </r>
       <r>    2.4771    1.0000 </r>
       <r>    3.7289    1.0000 </r>
       <r>    4.0904    1.0000 </r>
       <r>    4.4415    1.0000 </r>
       <r>    4.6311    1.0000 </r>
       <r>    4.7798    1.0000 </r>
       <r>    5.1878    1.0000 </r>
       <r>    5.2561    1.0000 </r>
       <r>    5.7942    1.0000 </r>
       <r>    6.0547    1.0000 </r>
       <r>    6.1504    1.0000 </r>
       <r>    6.3661    1.0000 </r>
       <r>    6.4236    1.0000 </r>
       <r>    6.8336    1.0031 </r>
       <r>    7.0441    1.0354 </r>
       <r>    8.4938   -0.0000 </r>
       <r>    8.9441   -0.0000 </r>
       <r>   12.8444    0.0000 </r>
       <r>   14.0658    0.0000 </r>
       <r>   15.1146    0.0000 </r>
       <r>   16.9695    0.0000 </r>
       <r>   19.1624    0.0000 </r>
      </set>
      <set comment="kpoint 161">
       <r>    0.8789    1.0000 </r>
       <r>    1.8207    1.0000 </r>
       <r>    2.5264    1.0000 </r>
       <r>    3.7097    1.0000 </r>
       <r>    4.0940    1.0000 </r>
       <r>    4.4587    1.0000 </r>
       <r>    4.6518    1.0000 </r>
       <r>    4.7785    1.0000 </r>
       <r>    5.2331    1.0000 </r>
       <r>    5.2410    1.0000 </r>
       <r>    5.7705    1.0000 </r>
       <r>    6.0415    1.0000 </r>
       <r>    6.1734    1.0000 </r>
       <r>    6.3713    1.0000 </r>
       <r>    6.3943    1.0000 </r>
       <r>    6.7694    1.0008 </r>
       <r>    7.0239    1.0343 </r>
       <r>    8.6528   -0.0000 </r>
       <r>    8.6830   -0.0000 </r>
       <r>   13.0980    0.0000 </r>
       <r>   13.7339    0.0000 </r>
       <r>   15.3126    0.0000 </r>
       <r>   16.7193    0.0000 </r>
       <r>   19.2450    0.0000 </r>
      </set>
      <set comment="kpoint 162">
       <r>    0.9946    1.0000 </r>
       <r>    2.1778    1.0000 </r>
       <r>    2.2403    1.0000 </r>
       <r>    3.5967    1.0000 </r>
       <r>    4.0876    1.0000 </r>
       <r>    4.5360    1.0000 </r>
       <r>    4.6085    1.0000 </r>
       <r>    4.8374    1.0000 </r>
       <r>    5.2466    1.0000 </r>
       <r>    5.2858    1.0000 </r>
       <r>    5.7172    1.0000 </r>
       <r>    6.1031    1.0000 </r>
       <r>    6.1090    1.0000 </r>
       <r>    6.3666    1.0000 </r>
       <r>    6.3672    1.0000 </r>
       <r>    6.7641    1.0007 </r>
       <r>    6.9569    1.0207 </r>
       <r>    8.3912   -0.0000 </r>
       <r>    8.6276   -0.0000 </r>
       <r>   13.2312    0.0000 </r>
       <r>   14.3673    0.0000 </r>
       <r>   14.5968    0.0000 </r>
       <r>   16.4221    0.0000 </r>
       <r>   19.3888    0.0000 </r>
      </set>
      <set comment="kpoint 163">
       <r>    1.1364    1.0000 </r>
       <r>    2.0769    1.0000 </r>
       <r>    2.2958    1.0000 </r>
       <r>    3.5386    1.0000 </r>
       <r>    4.0858    1.0000 </r>
       <r>    4.5610    1.0000 </r>
       <r>    4.6164    1.0000 </r>
       <r>    4.8580    1.0000 </r>
       <r>    5.2834    1.0000 </r>
       <r>    5.2845    1.0000 </r>
       <r>    5.6888    1.0000 </r>
       <r>    6.1019    1.0000 </r>
       <r>    6.1297    1.0000 </r>
       <r>    6.3228    1.0000 </r>
       <r>    6.3640    1.0000 </r>
       <r>    6.7279    1.0003 </r>
       <r>    6.9289    1.0148 </r>
       <r>    8.4414   -0.0000 </r>
       <r>    8.4453   -0.0000 </r>
       <r>   13.5058    0.0000 </r>
       <r>   14.1191    0.0000 </r>
       <r>   14.6916    0.0000 </r>
       <r>   16.1756    0.0000 </r>
       <r>   19.4790    0.0000 </r>
      </set>
      <set comment="kpoint 164">
       <r>    1.2566    1.0000 </r>
       <r>    2.1851    1.0000 </r>
       <r>    2.1851    1.0000 </r>
       <r>    3.4597    1.0000 </r>
       <r>    4.0822    1.0000 </r>
       <r>    4.6045    1.0000 </r>
       <r>    4.6045    1.0000 </r>
       <r>    4.8873    1.0000 </r>
       <r>    5.3027    1.0000 </r>
       <r>    5.3027    1.0000 </r>
       <r>    5.6577    1.0000 </r>
       <r>    6.1327    1.0000 </r>
       <r>    6.1327    1.0000 </r>
       <r>    6.2610    1.0000 </r>
       <r>    6.3574    1.0000 </r>
       <r>    6.7050    1.0002 </r>
       <r>    6.8963    1.0093 </r>
       <r>    8.3724   -0.0000 </r>
       <r>    8.3724   -0.0000 </r>
       <r>   13.8213    0.0000 </r>
       <r>   14.3050    0.0000 </r>
       <r>   14.3050    0.0000 </r>
       <r>   15.9369    0.0000 </r>
       <r>   19.5714    0.0000 </r>
      </set>
      <set comment="kpoint 165">
       <r>   -1.5371    1.0000 </r>
       <r>    2.7910    1.0000 </r>
       <r>    3.2785    1.0000 </r>
       <r>    3.2785    1.0000 </r>
       <r>    3.6850    1.0000 </r>
       <r>    4.2965    1.0000 </r>
       <r>    4.2965    1.0000 </r>
       <r>    4.8491    1.0000 </r>
       <r>    5.3206    1.0000 </r>
       <r>    5.3206    1.0000 </r>
       <r>    6.1703    1.0000 </r>
       <r>    6.1703    1.0000 </r>
       <r>    6.3893    1.0000 </r>
       <r>    6.4986    1.0000 </r>
       <r>    6.4986    1.0000 </r>
       <r>    7.4907   -0.0269 </r>
       <r>    8.0460   -0.0000 </r>
       <r>    9.0323   -0.0000 </r>
       <r>    9.0323   -0.0000 </r>
       <r>   14.8685    0.0000 </r>
       <r>   14.8685    0.0000 </r>
       <r>   15.0404    0.0000 </r>
       <r>   18.3165    0.0000 </r>
       <r>   18.3165    0.0000 </r>
      </set>
      <set comment="kpoint 166">
       <r>   -1.2151    1.0000 </r>
       <r>    2.6544    1.0000 </r>
       <r>    3.1213    1.0000 </r>
       <r>    3.4872    1.0000 </r>
       <r>    3.7536    1.0000 </r>
       <r>    4.3085    1.0000 </r>
       <r>    4.3890    1.0000 </r>
       <r>    4.8271    1.0000 </r>
       <r>    5.2105    1.0000 </r>
       <r>    5.2233    1.0000 </r>
       <r>    6.1403    1.0000 </r>
       <r>    6.1858    1.0000 </r>
       <r>    6.2787    1.0000 </r>
       <r>    6.4116    1.0000 </r>
       <r>    6.5139    1.0000 </r>
       <r>    7.4657   -0.0102 </r>
       <r>    7.8182   -0.0006 </r>
       <r>    9.0247   -0.0000 </r>
       <r>    9.1987   -0.0000 </r>
       <r>   14.0653    0.0000 </r>
       <r>   14.1609    0.0000 </r>
       <r>   15.3059    0.0000 </r>
       <r>   18.5162    0.0000 </r>
       <r>   18.9404    0.0000 </r>
      </set>
      <set comment="kpoint 167">
       <r>   -0.8354    1.0000 </r>
       <r>    2.3127    1.0000 </r>
       <r>    3.0727    1.0000 </r>
       <r>    3.7087    1.0000 </r>
       <r>    3.8335    1.0000 </r>
       <r>    4.3224    1.0000 </r>
       <r>    4.4478    1.0000 </r>
       <r>    4.8514    1.0000 </r>
       <r>    5.1214    1.0000 </r>
       <r>    5.1408    1.0000 </r>
       <r>    6.0970    1.0000 </r>
       <r>    6.1426    1.0000 </r>
       <r>    6.2544    1.0000 </r>
       <r>    6.3426    1.0000 </r>
       <r>    6.5175    1.0000 </r>
       <r>    7.4189    0.0553 </r>
       <r>    7.4365    0.0247 </r>
       <r>    9.2931   -0.0000 </r>
       <r>    9.3690   -0.0000 </r>
       <r>   13.3841    0.0000 </r>
       <r>   13.4146    0.0000 </r>
       <r>   15.7178    0.0000 </r>
       <r>   18.7313    0.0000 </r>
       <r>   19.1547    0.0000 </r>
      </set>
      <set comment="kpoint 168">
       <r>   -0.4131    1.0000 </r>
       <r>    1.8633    1.0000 </r>
       <r>    3.0677    1.0000 </r>
       <r>    3.8969    1.0000 </r>
       <r>    3.9179    1.0000 </r>
       <r>    4.3359    1.0000 </r>
       <r>    4.4904    1.0000 </r>
       <r>    4.9002    1.0000 </r>
       <r>    5.0227    1.0000 </r>
       <r>    5.1148    1.0000 </r>
       <r>    6.0379    1.0000 </r>
       <r>    6.0743    1.0000 </r>
       <r>    6.2890    1.0000 </r>
       <r>    6.3121    1.0000 </r>
       <r>    6.5035    1.0000 </r>
       <r>    7.0934    1.0215 </r>
       <r>    7.3654    0.1950 </r>
       <r>    9.5243   -0.0000 </r>
       <r>    9.6283   -0.0000 </r>
       <r>   12.7684    0.0000 </r>
       <r>   12.8546    0.0000 </r>
       <r>   16.1571    0.0000 </r>
       <r>   18.8089    0.0000 </r>
       <r>   18.9335    0.0000 </r>
      </set>
      <set comment="kpoint 169">
       <r>    0.0119    1.0000 </r>
       <r>    1.4053    1.0000 </r>
       <r>    3.0702    1.0000 </r>
       <r>    3.9291    1.0000 </r>
       <r>    4.0787    1.0000 </r>
       <r>    4.3455    1.0000 </r>
       <r>    4.5378    1.0000 </r>
       <r>    4.9231    1.0000 </r>
       <r>    4.9420    1.0000 </r>
       <r>    5.1237    1.0000 </r>
       <r>    5.9913    1.0000 </r>
       <r>    6.0292    1.0000 </r>
       <r>    6.3155    1.0000 </r>
       <r>    6.3349    1.0000 </r>
       <r>    6.4720    1.0000 </r>
       <r>    6.8458    1.0039 </r>
       <r>    7.3233    0.3494 </r>
       <r>    9.6387   -0.0000 </r>
       <r>    9.9306   -0.0000 </r>
       <r>   12.2844   -0.0000 </r>
       <r>   12.5115   -0.0000 </r>
       <r>   16.5750    0.0000 </r>
       <r>   18.3176    0.0000 </r>
       <r>   19.0835    0.0000 </r>
      </set>
      <set comment="kpoint 170">
       <r>    0.2557    1.0000 </r>
       <r>    1.1479    1.0000 </r>
       <r>    3.0715    1.0000 </r>
       <r>    3.9374    1.0000 </r>
       <r>    4.1425    1.0000 </r>
       <r>    4.3485    1.0000 </r>
       <r>    4.5627    1.0000 </r>
       <r>    4.9081    1.0000 </r>
       <r>    4.9232    1.0000 </r>
       <r>    5.1341    1.0000 </r>
       <r>    5.9758    1.0000 </r>
       <r>    6.0138    1.0000 </r>
       <r>    6.3263    1.0000 </r>
       <r>    6.3651    1.0000 </r>
       <r>    6.4463    1.0000 </r>
       <r>    6.7481    1.0005 </r>
       <r>    7.3075    0.4143 </r>
       <r>    9.6820   -0.0000 </r>
       <r>   10.0650   -0.0000 </r>
       <r>   12.0898   -0.0000 </r>
       <r>   12.3913   -0.0000 </r>
       <r>   16.7907    0.0000 </r>
       <r>   18.0692    0.0000 </r>
       <r>   19.1399    0.0000 </r>
      </set>
      <set comment="kpoint 171">
       <r>   -0.9039    1.0000 </r>
       <r>    2.6206    1.0000 </r>
       <r>    3.0582    1.0000 </r>
       <r>    3.4989    1.0000 </r>
       <r>    3.8489    1.0000 </r>
       <r>    4.3332    1.0000 </r>
       <r>    4.4481    1.0000 </r>
       <r>    4.8097    1.0000 </r>
       <r>    5.1234    1.0000 </r>
       <r>    5.1728    1.0000 </r>
       <r>    6.1415    1.0000 </r>
       <r>    6.1564    1.0000 </r>
       <r>    6.1722    1.0000 </r>
       <r>    6.4011    1.0000 </r>
       <r>    6.4845    1.0000 </r>
       <r>    7.4510    0.0051 </r>
       <r>    7.8050   -0.0008 </r>
       <r>    8.7429   -0.0000 </r>
       <r>    9.2610   -0.0000 </r>
       <r>   13.3585    0.0000 </r>
       <r>   14.4205    0.0000 </r>
       <r>   14.5465    0.0000 </r>
       <r>   18.8926    0.0000 </r>
       <r>   19.4853    0.0000 </r>
      </set>
      <set comment="kpoint 172">
       <r>   -0.5392    1.0000 </r>
       <r>    2.4063    1.0000 </r>
       <r>    2.9608    1.0000 </r>
       <r>    3.6549    1.0000 </r>
       <r>    3.9482    1.0000 </r>
       <r>    4.3301    1.0000 </r>
       <r>    4.5019    1.0000 </r>
       <r>    4.8257    1.0000 </r>
       <r>    5.0733    1.0000 </r>
       <r>    5.1330    1.0000 </r>
       <r>    6.0355    1.0000 </r>
       <r>    6.1141    1.0000 </r>
       <r>    6.1970    1.0000 </r>
       <r>    6.3703    1.0000 </r>
       <r>    6.4854    1.0000 </r>
       <r>    7.4054    0.0838 </r>
       <r>    7.5197   -0.0348 </r>
       <r>    8.7731   -0.0000 </r>
       <r>    9.3919   -0.0000 </r>
       <r>   12.7449   -0.0000 </r>
       <r>   13.7452    0.0000 </r>
       <r>   14.8967    0.0000 </r>
       <r>   18.7010    0.0000 </r>
       <r>   19.2699    0.0000 </r>
      </set>
      <set comment="kpoint 173">
       <r>   -0.1374    1.0000 </r>
       <r>    2.0349    1.0000 </r>
       <r>    2.9267    1.0000 </r>
       <r>    3.8391    1.0000 </r>
       <r>    4.0235    1.0000 </r>
       <r>    4.3170    1.0000 </r>
       <r>    4.5522    1.0000 </r>
       <r>    4.8475    1.0000 </r>
       <r>    5.0487    1.0000 </r>
       <r>    5.1190    1.0000 </r>
       <r>    5.9520    1.0000 </r>
       <r>    6.0585    1.0000 </r>
       <r>    6.2421    1.0000 </r>
       <r>    6.3663    1.0000 </r>
       <r>    6.4758    1.0000 </r>
       <r>    7.1608    0.9336 </r>
       <r>    7.3583    0.2187 </r>
       <r>    8.9574   -0.0000 </r>
       <r>    9.4943   -0.0000 </r>
       <r>   12.3158   -0.0000 </r>
       <r>   13.1241    0.0000 </r>
       <r>   15.3348    0.0000 </r>
       <r>   18.0702    0.0000 </r>
       <r>   19.4712    0.0000 </r>
      </set>
      <set comment="kpoint 174">
       <r>    0.2582    1.0000 </r>
       <r>    1.6330    1.0000 </r>
       <r>    2.9163    1.0000 </r>
       <r>    3.9754    1.0000 </r>
       <r>    4.0915    1.0000 </r>
       <r>    4.2773    1.0000 </r>
       <r>    4.6273    1.0000 </r>
       <r>    4.8307    1.0000 </r>
       <r>    5.0271    1.0000 </r>
       <r>    5.1389    1.0000 </r>
       <r>    5.9004    1.0000 </r>
       <r>    6.0197    1.0000 </r>
       <r>    6.2999    1.0000 </r>
       <r>    6.3903    1.0000 </r>
       <r>    6.4494    1.0000 </r>
       <r>    6.8807    1.0072 </r>
       <r>    7.3111    0.3994 </r>
       <r>    9.1466   -0.0000 </r>
       <r>    9.5327   -0.0000 </r>
       <r>   12.1109   -0.0000 </r>
       <r>   12.6542   -0.0000 </r>
       <r>   15.7588    0.0000 </r>
       <r>   17.5100    0.0000 </r>
       <r>   19.6420    0.0000 </r>
      </set>
      <set comment="kpoint 175">
       <r>    0.4746    1.0000 </r>
       <r>    1.4112    1.0000 </r>
       <r>    2.9138    1.0000 </r>
       <r>    4.0075    1.0000 </r>
       <r>    4.1865    1.0000 </r>
       <r>    4.2069    1.0000 </r>
       <r>    4.6789    1.0000 </r>
       <r>    4.8034    1.0000 </r>
       <r>    5.0162    1.0000 </r>
       <r>    5.1520    1.0000 </r>
       <r>    5.8834    1.0000 </r>
       <r>    6.0082    1.0000 </r>
       <r>    6.3455    1.0000 </r>
       <r>    6.3866    1.0000 </r>
       <r>    6.4497    1.0000 </r>
       <r>    6.7560    1.0006 </r>
       <r>    7.2930    0.4750 </r>
       <r>    9.2392   -0.0000 </r>
       <r>    9.5244   -0.0000 </r>
       <r>   12.0847   -0.0000 </r>
       <r>   12.4477   -0.0000 </r>
       <r>   15.9826    0.0000 </r>
       <r>   17.2395    0.0000 </r>
       <r>   19.7083    0.0000 </r>
      </set>
      <set comment="kpoint 176">
       <r>   -0.1951    1.0000 </r>
       <r>    2.4029    1.0000 </r>
       <r>    2.8071    1.0000 </r>
       <r>    3.6758    1.0000 </r>
       <r>    4.0583    1.0000 </r>
       <r>    4.3300    1.0000 </r>
       <r>    4.5412    1.0000 </r>
       <r>    4.8295    1.0000 </r>
       <r>    5.0687    1.0000 </r>
       <r>    5.1381    1.0000 </r>
       <r>    5.9235    1.0000 </r>
       <r>    6.1249    1.0000 </r>
       <r>    6.1550    1.0000 </r>
       <r>    6.3742    1.0000 </r>
       <r>    6.4841    1.0000 </r>
       <r>    7.3620    0.2063 </r>
       <r>    7.4374    0.0233 </r>
       <r>    8.4973   -0.0000 </r>
       <r>    9.3875   -0.0000 </r>
       <r>   12.2949   -0.0000 </r>
       <r>   14.0637    0.0000 </r>
       <r>   14.2298    0.0000 </r>
       <r>   17.9957    0.0000 </r>
       <r>   19.5534    0.0000 </r>
      </set>
      <set comment="kpoint 177">
       <r>    0.1781    1.0000 </r>
       <r>    2.1904    1.0000 </r>
       <r>    2.7443    1.0000 </r>
       <r>    3.7510    1.0000 </r>
       <r>    4.1322    1.0000 </r>
       <r>    4.3372    1.0000 </r>
       <r>    4.5765    1.0000 </r>
       <r>    4.8500    1.0000 </r>
       <r>    5.0949    1.0000 </r>
       <r>    5.1480    1.0000 </r>
       <r>    5.8330    1.0000 </r>
       <r>    6.0812    1.0000 </r>
       <r>    6.1813    1.0000 </r>
       <r>    6.3809    1.0000 </r>
       <r>    6.4880    1.0000 </r>
       <r>    7.1670    0.9202 </r>
       <r>    7.3107    0.4009 </r>
       <r>    8.5167   -0.0000 </r>
       <r>    9.2916   -0.0000 </r>
       <r>   12.0961   -0.0000 </r>
       <r>   13.4897    0.0000 </r>
       <r>   14.5867    0.0000 </r>
       <r>   17.3113    0.0000 </r>
       <r>   19.8162    0.0000 </r>
      </set>
      <set comment="kpoint 178">
       <r>    0.5335    1.0000 </r>
       <r>    1.8779    1.0000 </r>
       <r>    2.7422    1.0000 </r>
       <r>    3.8250    1.0000 </r>
       <r>    4.1822    1.0000 </r>
       <r>    4.3163    1.0000 </r>
       <r>    4.6522    1.0000 </r>
       <r>    4.8416    1.0000 </r>
       <r>    5.1155    1.0000 </r>
       <r>    5.1696    1.0000 </r>
       <r>    5.7754    1.0000 </r>
       <r>    6.0511    1.0000 </r>
       <r>    6.2269    1.0000 </r>
       <r>    6.3935    1.0000 </r>
       <r>    6.4966    1.0000 </r>
       <r>    6.8903    1.0084 </r>
       <r>    7.2614    0.6078 </r>
       <r>    8.6694   -0.0000 </r>
       <r>    9.1180   -0.0000 </r>
       <r>   12.1322   -0.0000 </r>
       <r>   12.9684    0.0000 </r>
       <r>   15.0062    0.0000 </r>
       <r>   16.7331    0.0000 </r>
       <r>   20.0175    0.0000 </r>
      </set>
      <set comment="kpoint 179">
       <r>    0.7158    1.0000 </r>
       <r>    1.7039    1.0000 </r>
       <r>    2.7444    1.0000 </r>
       <r>    3.8538    1.0000 </r>
       <r>    4.2166    1.0000 </r>
       <r>    4.2869    1.0000 </r>
       <r>    4.7072    1.0000 </r>
       <r>    4.8189    1.0000 </r>
       <r>    5.1182    1.0000 </r>
       <r>    5.1832    1.0000 </r>
       <r>    5.7561    1.0000 </r>
       <r>    6.0456    1.0000 </r>
       <r>    6.2523    1.0000 </r>
       <r>    6.3927    1.0000 </r>
       <r>    6.5280    1.0000 </r>
       <r>    6.7494    1.0005 </r>
       <r>    7.2421    0.6850 </r>
       <r>    8.8130   -0.0000 </r>
       <r>    8.9664   -0.0000 </r>
       <r>   12.2434   -0.0000 </r>
       <r>   12.7008   -0.0000 </r>
       <r>   15.2320    0.0000 </r>
       <r>   16.4543    0.0000 </r>
       <r>   20.0958    0.0000 </r>
      </set>
      <set comment="kpoint 180">
       <r>    0.5115    1.0000 </r>
       <r>    2.2518    1.0000 </r>
       <r>    2.5769    1.0000 </r>
       <r>    3.6836    1.0000 </r>
       <r>    4.1907    1.0000 </r>
       <r>    4.4036    1.0000 </r>
       <r>    4.5678    1.0000 </r>
       <r>    4.9065    1.0000 </r>
       <r>    5.1458    1.0000 </r>
       <r>    5.1837    1.0000 </r>
       <r>    5.7338    1.0000 </r>
       <r>    6.1085    1.0000 </r>
       <r>    6.1302    1.0000 </r>
       <r>    6.3832    1.0000 </r>
       <r>    6.5056    1.0000 </r>
       <r>    7.0570    1.0345 </r>
       <r>    7.2259    0.7458 </r>
       <r>    8.3267   -0.0000 </r>
       <r>    9.0133   -0.0000 </r>
       <r>   12.1269   -0.0000 </r>
       <r>   13.8108    0.0000 </r>
       <r>   14.0133    0.0000 </r>
       <r>   16.6128    0.0000 </r>
       <r>   20.1099    0.0000 </r>
      </set>
      <set comment="kpoint 181">
       <r>    0.8132    1.0000 </r>
       <r>    2.1107    1.0000 </r>
       <r>    2.5571    1.0000 </r>
       <r>    3.6480    1.0000 </r>
       <r>    4.2204    1.0000 </r>
       <r>    4.4288    1.0000 </r>
       <r>    4.6049    1.0000 </r>
       <r>    4.9491    1.0000 </r>
       <r>    5.1903    1.0000 </r>
       <r>    5.2117    1.0000 </r>
       <r>    5.6680    1.0000 </r>
       <r>    6.0948    1.0000 </r>
       <r>    6.1599    1.0000 </r>
       <r>    6.3844    1.0000 </r>
       <r>    6.5195    1.0000 </r>
       <r>    6.8456    1.0039 </r>
       <r>    7.1712    0.9105 </r>
       <r>    8.3528   -0.0000 </r>
       <r>    8.7351   -0.0000 </r>
       <r>   12.3286   -0.0000 </r>
       <r>   13.3458    0.0000 </r>
       <r>   14.3344    0.0000 </r>
       <r>   16.0302    0.0000 </r>
       <r>   20.3314    0.0000 </r>
      </set>
      <set comment="kpoint 182">
       <r>    0.9554    1.0000 </r>
       <r>    1.9999    1.0000 </r>
       <r>    2.5724    1.0000 </r>
       <r>    3.6378    1.0000 </r>
       <r>    4.2321    1.0000 </r>
       <r>    4.4236    1.0000 </r>
       <r>    4.6373    1.0000 </r>
       <r>    4.9617    1.0000 </r>
       <r>    5.2052    1.0000 </r>
       <r>    5.2241    1.0000 </r>
       <r>    5.6453    1.0000 </r>
       <r>    6.0978    1.0000 </r>
       <r>    6.1791    1.0000 </r>
       <r>    6.3822    1.0000 </r>
       <r>    6.5449    1.0000 </r>
       <r>    6.7189    1.0002 </r>
       <r>    7.1522    0.9506 </r>
       <r>    8.4789   -0.0000 </r>
       <r>    8.5311   -0.0000 </r>
       <r>   12.5140   -0.0000 </r>
       <r>   13.0506    0.0000 </r>
       <r>   14.5536    0.0000 </r>
       <r>   15.7505    0.0000 </r>
       <r>   20.4175    0.0000 </r>
      </set>
      <set comment="kpoint 183">
       <r>    1.0492    1.0000 </r>
       <r>    2.2626    1.0000 </r>
       <r>    2.4180    1.0000 </r>
       <r>    3.5027    1.0000 </r>
       <r>    4.2335    1.0000 </r>
       <r>    4.5245    1.0000 </r>
       <r>    4.5777    1.0000 </r>
       <r>    5.0375    1.0000 </r>
       <r>    5.2427    1.0000 </r>
       <r>    5.2523    1.0000 </r>
       <r>    5.5926    1.0000 </r>
       <r>    6.1368    1.0000 </r>
       <r>    6.1487    1.0000 </r>
       <r>    6.3690    1.0000 </r>
       <r>    6.4998    1.0000 </r>
       <r>    6.7386    1.0004 </r>
       <r>    7.0910    1.0230 </r>
       <r>    8.2349   -0.0000 </r>
       <r>    8.4484   -0.0000 </r>
       <r>   12.6298   -0.0000 </r>
       <r>   13.6605    0.0000 </r>
       <r>   13.8326    0.0000 </r>
       <r>   15.4524    0.0000 </r>
       <r>   20.5651    0.0000 </r>
      </set>
      <set comment="kpoint 184">
       <r>    1.1509    1.0000 </r>
       <r>    2.2513    1.0000 </r>
       <r>    2.4252    1.0000 </r>
       <r>    3.4427    1.0000 </r>
       <r>    4.2369    1.0000 </r>
       <r>    4.5368    1.0000 </r>
       <r>    4.5960    1.0000 </r>
       <r>    5.0687    1.0000 </r>
       <r>    5.2650    1.0000 </r>
       <r>    5.2664    1.0000 </r>
       <r>    5.5648    1.0000 </r>
       <r>    6.1611    1.0000 </r>
       <r>    6.1651    1.0000 </r>
       <r>    6.3573    1.0000 </r>
       <r>    6.4720    1.0000 </r>
       <r>    6.6740    1.0001 </r>
       <r>    7.0648    1.0332 </r>
       <r>    8.2744   -0.0000 </r>
       <r>    8.2826   -0.0000 </r>
       <r>   12.8621    0.0000 </r>
       <r>   13.4161    0.0000 </r>
       <r>   13.9648    0.0000 </r>
       <r>   15.1801    0.0000 </r>
       <r>   20.6555    0.0000 </r>
      </set>
      <set comment="kpoint 185">
       <r>    1.2318    1.0000 </r>
       <r>    2.3617    1.0000 </r>
       <r>    2.3617    1.0000 </r>
       <r>    3.3532    1.0000 </r>
       <r>    4.2373    1.0000 </r>
       <r>    4.5825    1.0000 </r>
       <r>    4.5825    1.0000 </r>
       <r>    5.1066    1.0000 </r>
       <r>    5.2865    1.0000 </r>
       <r>    5.2865    1.0000 </r>
       <r>    5.5337    1.0000 </r>
       <r>    6.1990    1.0000 </r>
       <r>    6.1990    1.0000 </r>
       <r>    6.3367    1.0000 </r>
       <r>    6.3887    1.0000 </r>
       <r>    6.6509    1.0000 </r>
       <r>    7.0336    1.0352 </r>
       <r>    8.2070   -0.0000 </r>
       <r>    8.2070   -0.0000 </r>
       <r>   13.1365    0.0000 </r>
       <r>   13.6107    0.0000 </r>
       <r>   13.6107    0.0000 </r>
       <r>   14.9182    0.0000 </r>
       <r>   20.7472    0.0000 </r>
      </set>
      <set comment="kpoint 186">
       <r>   -0.6059    1.0000 </r>
       <r>    2.5511    1.0000 </r>
       <r>    3.2735    1.0000 </r>
       <r>    3.2735    1.0000 </r>
       <r>    3.9635    1.0000 </r>
       <r>    4.4161    1.0000 </r>
       <r>    4.4162    1.0000 </r>
       <r>    4.8231    1.0000 </r>
       <r>    5.1062    1.0000 </r>
       <r>    5.1062    1.0000 </r>
       <r>    6.0157    1.0000 </r>
       <r>    6.1558    1.0000 </r>
       <r>    6.1558    1.0000 </r>
       <r>    6.4356    1.0000 </r>
       <r>    6.4356    1.0000 </r>
       <r>    7.4623   -0.0070 </r>
       <r>    7.8709   -0.0001 </r>
       <r>    8.7873   -0.0000 </r>
       <r>    8.7873   -0.0000 </r>
       <r>   13.6729    0.0000 </r>
       <r>   13.6729    0.0000 </r>
       <r>   13.7864    0.0000 </r>
       <r>   18.6979    0.0000 </r>
       <r>   19.9650    0.0000 </r>
      </set>
      <set comment="kpoint 187">
       <r>   -0.2594    1.0000 </r>
       <r>    2.4087    1.0000 </r>
       <r>    3.0510    1.0000 </r>
       <r>    3.5025    1.0000 </r>
       <r>    4.0714    1.0000 </r>
       <r>    4.3813    1.0000 </r>
       <r>    4.4805    1.0000 </r>
       <r>    4.8588    1.0000 </r>
       <r>    5.0858    1.0000 </r>
       <r>    5.0944    1.0000 </r>
       <r>    5.9071    1.0000 </r>
       <r>    6.1160    1.0000 </r>
       <r>    6.1733    1.0000 </r>
       <r>    6.4091    1.0000 </r>
       <r>    6.4567    1.0000 </r>
       <r>    7.4366    0.0247 </r>
       <r>    7.6278   -0.0184 </r>
       <r>    8.7334   -0.0000 </r>
       <r>    8.8320   -0.0000 </r>
       <r>   13.0399    0.0000 </r>
       <r>   13.0621    0.0000 </r>
       <r>   14.1111    0.0000 </r>
       <r>   17.9472    0.0000 </r>
       <r>   20.2091    0.0000 </r>
      </set>
      <set comment="kpoint 188">
       <r>    0.1167    1.0000 </r>
       <r>    2.1505    1.0000 </r>
       <r>    2.9037    1.0000 </r>
       <r>    3.7205    1.0000 </r>
       <r>    4.1373    1.0000 </r>
       <r>    4.3411    1.0000 </r>
       <r>    4.5624    1.0000 </r>
       <r>    4.8905    1.0000 </r>
       <r>    5.0661    1.0000 </r>
       <r>    5.1182    1.0000 </r>
       <r>    5.8241    1.0000 </r>
       <r>    6.0705    1.0000 </r>
       <r>    6.2082    1.0000 </r>
       <r>    6.4202    1.0000 </r>
       <r>    6.4563    1.0000 </r>
       <r>    7.2489    0.6584 </r>
       <r>    7.3885    0.1261 </r>
       <r>    8.8700   -0.0000 </r>
       <r>    8.9088   -0.0000 </r>
       <r>   12.4602   -0.0000 </r>
       <r>   12.6108   -0.0000 </r>
       <r>   14.5438    0.0000 </r>
       <r>   17.2490    0.0000 </r>
       <r>   20.4345    0.0000 </r>
      </set>
      <set comment="kpoint 189">
       <r>    0.4752    1.0000 </r>
       <r>    1.8336    1.0000 </r>
       <r>    2.8366    1.0000 </r>
       <r>    3.8943    1.0000 </r>
       <r>    4.1588    1.0000 </r>
       <r>    4.2948    1.0000 </r>
       <r>    4.6753    1.0000 </r>
       <r>    4.8755    1.0000 </r>
       <r>    5.0517    1.0000 </r>
       <r>    5.1497    1.0000 </r>
       <r>    5.7715    1.0000 </r>
       <r>    6.0469    1.0000 </r>
       <r>    6.2554    1.0000 </r>
       <r>    6.4330    1.0000 </r>
       <r>    6.4816    1.0000 </r>
       <r>    6.9172    1.0126 </r>
       <r>    7.3427    0.2743 </r>
       <r>    8.8953   -0.0000 </r>
       <r>    9.0896   -0.0000 </r>
       <r>   12.0586   -0.0000 </r>
       <r>   12.3348   -0.0000 </r>
       <r>   14.9720    0.0000 </r>
       <r>   16.6600    0.0000 </r>
       <r>   20.5994    0.0000 </r>
      </set>
      <set comment="kpoint 190">
       <r>    0.6591    1.0000 </r>
       <r>    1.6582    1.0000 </r>
       <r>    2.8180    1.0000 </r>
       <r>    3.9693    1.0000 </r>
       <r>    4.1621    1.0000 </r>
       <r>    4.2665    1.0000 </r>
       <r>    4.7607    1.0000 </r>
       <r>    4.8289    1.0000 </r>
       <r>    5.0464    1.0000 </r>
       <r>    5.1622    1.0000 </r>
       <r>    5.7533    1.0000 </r>
       <r>    6.0434    1.0000 </r>
       <r>    6.2846    1.0000 </r>
       <r>    6.4122    1.0000 </r>
       <r>    6.5683    1.0000 </r>
       <r>    6.7312    1.0003 </r>
       <r>    7.3241    0.3465 </r>
       <r>    8.9041   -0.0000 </r>
       <r>    9.1659   -0.0000 </r>
       <r>   11.9105   -0.0000 </r>
       <r>   12.2420   -0.0000 </r>
       <r>   15.2065    0.0000 </r>
       <r>   16.3717    0.0000 </r>
       <r>   20.6608    0.0000 </r>
      </set>
      <set comment="kpoint 191">
       <r>    0.0614    1.0000 </r>
       <r>    2.3562    1.0000 </r>
       <r>    3.0193    1.0000 </r>
       <r>    3.4775    1.0000 </r>
       <r>    4.1827    1.0000 </r>
       <r>    4.3967    1.0000 </r>
       <r>    4.4870    1.0000 </r>
       <r>    4.9160    1.0000 </r>
       <r>    5.1008    1.0000 </r>
       <r>    5.1060    1.0000 </r>
       <r>    5.7948    1.0000 </r>
       <r>    6.1146    1.0000 </r>
       <r>    6.1439    1.0000 </r>
       <r>    6.4161    1.0000 </r>
       <r>    6.4622    1.0000 </r>
       <r>    7.4227    0.0480 </r>
       <r>    7.5758   -0.0301 </r>
       <r>    8.4260   -0.0000 </r>
       <r>    8.7856   -0.0000 </r>
       <r>   12.5080   -0.0000 </r>
       <r>   13.3800    0.0000 </r>
       <r>   13.4621    0.0000 </r>
       <r>   17.1740    0.0000 </r>
       <r>   20.7015    0.0000 </r>
      </set>
      <set comment="kpoint 192">
       <r>    0.4008    1.0000 </r>
       <r>    2.2312    1.0000 </r>
       <r>    2.8660    1.0000 </r>
       <r>    3.5988    1.0000 </r>
       <r>    4.2444    1.0000 </r>
       <r>    4.3857    1.0000 </r>
       <r>    4.5493    1.0000 </r>
       <r>    4.9772    1.0000 </r>
       <r>    5.1143    1.0000 </r>
       <r>    5.1403    1.0000 </r>
       <r>    5.7074    1.0000 </r>
       <r>    6.0848    1.0000 </r>
       <r>    6.1586    1.0000 </r>
       <r>    6.4233    1.0000 </r>
       <r>    6.4769    1.0000 </r>
       <r>    7.2777    0.5395 </r>
       <r>    7.3823    0.1434 </r>
       <r>    8.4061   -0.0000 </r>
       <r>    8.7680   -0.0000 </r>
       <r>   12.1443   -0.0000 </r>
       <r>   12.8559    0.0000 </r>
       <r>   13.8374    0.0000 </r>
       <r>   16.4659    0.0000 </r>
       <r>   20.9863    0.0000 </r>
      </set>
      <set comment="kpoint 193">
       <r>    0.7078    1.0000 </r>
       <r>    2.0422    1.0000 </r>
       <r>    2.7585    1.0000 </r>
       <r>    3.7151    1.0000 </r>
       <r>    4.2732    1.0000 </r>
       <r>    4.3554    1.0000 </r>
       <r>    4.6452    1.0000 </r>
       <r>    5.0050    1.0000 </r>
       <r>    5.1211    1.0000 </r>
       <r>    5.1741    1.0000 </r>
       <r>    5.6513    1.0000 </r>
       <r>    6.0735    1.0000 </r>
       <r>    6.1911    1.0000 </r>
       <r>    6.4278    1.0000 </r>
       <r>    6.5263    1.0000 </r>
       <r>    6.9428    1.0176 </r>
       <r>    7.3359    0.3001 </r>
       <r>    8.4953   -0.0000 </r>
       <r>    8.7372   -0.0000 </r>
       <r>   11.9663   -0.0000 </r>
       <r>   12.4577   -0.0000 </r>
       <r>   14.2564    0.0000 </r>
       <r>   15.8692    0.0000 </r>
       <r>   21.1817    0.0000 </r>
      </set>
      <set comment="kpoint 194">
       <r>    0.8521    1.0000 </r>
       <r>    1.9311    1.0000 </r>
       <r>    2.7259    1.0000 </r>
       <r>    3.7601    1.0000 </r>
       <r>    4.2907    1.0000 </r>
       <r>    4.3332    1.0000 </r>
       <r>    4.6923    1.0000 </r>
       <r>    5.0075    1.0000 </r>
       <r>    5.1229    1.0000 </r>
       <r>    5.1856    1.0000 </r>
       <r>    5.6318    1.0000 </r>
       <r>    6.0769    1.0000 </r>
       <r>    6.2097    1.0000 </r>
       <r>    6.4194    1.0000 </r>
       <r>    6.6623    1.0000 </r>
       <r>    6.6977    1.0001 </r>
       <r>    7.3166    0.3765 </r>
       <r>    8.5479   -0.0000 </r>
       <r>    8.7135   -0.0000 </r>
       <r>   11.9285   -0.0000 </r>
       <r>   12.2994   -0.0000 </r>
       <r>   14.4939    0.0000 </r>
       <r>   15.5727    0.0000 </r>
       <r>   21.2542    0.0000 </r>
      </set>
      <set comment="kpoint 195">
       <r>    0.6884    1.0000 </r>
       <r>    2.2589    1.0000 </r>
       <r>    2.7824    1.0000 </r>
       <r>    3.5389    1.0000 </r>
       <r>    4.3099    1.0000 </r>
       <r>    4.4575    1.0000 </r>
       <r>    4.5346    1.0000 </r>
       <r>    5.0859    1.0000 </r>
       <r>    5.1649    1.0000 </r>
       <r>    5.1700    1.0000 </r>
       <r>    5.6132    1.0000 </r>
       <r>    6.1029    1.0000 </r>
       <r>    6.1222    1.0000 </r>
       <r>    6.4145    1.0000 </r>
       <r>    6.5019    1.0000 </r>
       <r>    7.1667    0.9208 </r>
       <r>    7.3288    0.3275 </r>
       <r>    8.1681   -0.0000 </r>
       <r>    8.6067   -0.0000 </r>
       <r>   11.9837   -0.0000 </r>
       <r>   13.1813    0.0000 </r>
       <r>   13.2806    0.0000 </r>
       <r>   15.7566    0.0000 </r>
       <r>   21.3215    0.0000 </r>
      </set>
      <set comment="kpoint 196">
       <r>    0.9280    1.0000 </r>
       <r>    2.2346    1.0000 </r>
       <r>    2.6841    1.0000 </r>
       <r>    3.5370    1.0000 </r>
       <r>    4.3549    1.0000 </r>
       <r>    4.4506    1.0000 </r>
       <r>    4.5979    1.0000 </r>
       <r>    5.1593    1.0000 </r>
       <r>    5.1922    1.0000 </r>
       <r>    5.2066    1.0000 </r>
       <r>    5.5507    1.0000 </r>
       <r>    6.1095    1.0000 </r>
       <r>    6.1418    1.0000 </r>
       <r>    6.4081    1.0000 </r>
       <r>    6.5417    1.0000 </r>
       <r>    6.9120    1.0117 </r>
       <r>    7.2805    0.5280 </r>
       <r>    8.1680   -0.0000 </r>
       <r>    8.4368   -0.0000 </r>
       <r>   12.0073   -0.0000 </r>
       <r>   12.7554    0.0000 </r>
       <r>   13.6301    0.0000 </r>
       <r>   15.1615    0.0000 </r>
       <r>   21.5471    0.0000 </r>
      </set>
      <set comment="kpoint 197">
       <r>    1.0291    1.0000 </r>
       <r>    2.2074    1.0000 </r>
       <r>    2.6438    1.0000 </r>
       <r>    3.5438    1.0000 </r>
       <r>    4.3819    1.0000 </r>
       <r>    4.4281    1.0000 </r>
       <r>    4.6358    1.0000 </r>
       <r>    5.1855    1.0000 </r>
       <r>    5.1994    1.0000 </r>
       <r>    5.2186    1.0000 </r>
       <r>    5.5286    1.0000 </r>
       <r>    6.1231    1.0000 </r>
       <r>    6.1564    1.0000 </r>
       <r>    6.4013    1.0000 </r>
       <r>    6.6508    1.0000 </r>
       <r>    6.6940    1.0001 </r>
       <r>    7.2618    0.6062 </r>
       <r>    8.2496   -0.0000 </r>
       <r>    8.3110   -0.0000 </r>
       <r>   12.0881   -0.0000 </r>
       <r>   12.5283   -0.0000 </r>
       <r>   13.8610    0.0000 </r>
       <r>   14.8637    0.0000 </r>
       <r>   21.6310    0.0000 </r>
      </set>
      <set comment="kpoint 198">
       <r>    1.0944    1.0000 </r>
       <r>    2.3830    1.0000 </r>
       <r>    2.6184    1.0000 </r>
       <r>    3.4012    1.0000 </r>
       <r>    4.3962    1.0000 </r>
       <r>    4.5407    1.0000 </r>
       <r>    4.5726    1.0000 </r>
       <r>    5.2343    1.0000 </r>
       <r>    5.2415    1.0000 </r>
       <r>    5.2757    1.0000 </r>
       <r>    5.4799    1.0000 </r>
       <r>    6.1445    1.0000 </r>
       <r>    6.1593    1.0000 </r>
       <r>    6.3785    1.0000 </r>
       <r>    6.5459    1.0000 </r>
       <r>    6.7779    1.0009 </r>
       <r>    7.2120    0.7941 </r>
       <r>    8.0353   -0.0000 </r>
       <r>    8.2051   -0.0000 </r>
       <r>   12.1832   -0.0000 </r>
       <r>   13.0667    0.0000 </r>
       <r>   13.1562    0.0000 </r>
       <r>   14.5745    0.0000 </r>
       <r>   21.7902    0.0000 </r>
      </set>
      <set comment="kpoint 199">
       <r>    1.1581    1.0000 </r>
       <r>    2.4481    1.0000 </r>
       <r>    2.5833    1.0000 </r>
       <r>    3.3487    1.0000 </r>
       <r>    4.4105    1.0000 </r>
       <r>    4.5421    1.0000 </r>
       <r>    4.6007    1.0000 </r>
       <r>    5.2546    1.0000 </r>
       <r>    5.2551    1.0000 </r>
       <r>    5.3093    1.0000 </r>
       <r>    5.4532    1.0000 </r>
       <r>    6.1759    1.0000 </r>
       <r>    6.1867    1.0000 </r>
       <r>    6.3581    1.0000 </r>
       <r>    6.6002    1.0000 </r>
       <r>    6.6235    1.0000 </r>
       <r>    7.1878    0.8682 </r>
       <r>    8.0608   -0.0000 </r>
       <r>    8.0699   -0.0000 </r>
       <r>   12.3444   -0.0000 </r>
       <r>   12.8368    0.0000 </r>
       <r>   13.3281    0.0000 </r>
       <r>   14.2837    0.0000 </r>
       <r>   21.8803    0.0000 </r>
      </set>
      <set comment="kpoint 200">
       <r>    1.2062    1.0000 </r>
       <r>    2.5602    1.0000 </r>
       <r>    2.5602    1.0000 </r>
       <r>    3.2536    1.0000 </r>
       <r>    4.4198    1.0000 </r>
       <r>    4.5889    1.0000 </r>
       <r>    4.5889    1.0000 </r>
       <r>    5.2748    1.0000 </r>
       <r>    5.2748    1.0000 </r>
       <r>    5.3462    1.0000 </r>
       <r>    5.4229    1.0000 </r>
       <r>    6.2379    1.0000 </r>
       <r>    6.2379    1.0000 </r>
       <r>    6.3147    1.0000 </r>
       <r>    6.5297    1.0000 </r>
       <r>    6.5773    1.0000 </r>
       <r>    7.1585    0.9384 </r>
       <r>    7.9978   -0.0000 </r>
       <r>    7.9978   -0.0000 </r>
       <r>   12.5521   -0.0000 </r>
       <r>   13.0293    0.0000 </r>
       <r>   13.0293    0.0000 </r>
       <r>   14.0030    0.0000 </r>
       <r>   21.9724    0.0000 </r>
      </set>
      <set comment="kpoint 201">
       <r>    0.3484    1.0000 </r>
       <r>    2.3087    1.0000 </r>
       <r>    3.2372    1.0000 </r>
       <r>    3.2372    1.0000 </r>
       <r>    4.3001    1.0000 </r>
       <r>    4.4504    1.0000 </r>
       <r>    4.4504    1.0000 </r>
       <r>    5.0258    1.0000 </r>
       <r>    5.1262    1.0000 </r>
       <r>    5.1262    1.0000 </r>
       <r>    5.6841    1.0000 </r>
       <r>    6.1118    1.0000 </r>
       <r>    6.1118    1.0000 </r>
       <r>    6.4457    1.0000 </r>
       <r>    6.4457    1.0000 </r>
       <r>    7.4390    0.0210 </r>
       <r>    7.6012   -0.0244 </r>
       <r>    8.3533   -0.0000 </r>
       <r>    8.3533   -0.0000 </r>
       <r>   12.7770    0.0000 </r>
       <r>   12.8373    0.0000 </r>
       <r>   12.8373    0.0000 </r>
       <r>   16.3906    0.0000 </r>
       <r>   21.7732    0.0000 </r>
      </set>
      <set comment="kpoint 202">
       <r>    0.6390    1.0000 </r>
       <r>    2.2594    1.0000 </r>
       <r>    2.9914    1.0000 </r>
       <r>    3.4294    1.0000 </r>
       <r>    4.3580    1.0000 </r>
       <r>    4.4344    1.0000 </r>
       <r>    4.5347    1.0000 </r>
       <r>    5.1352    1.0000 </r>
       <r>    5.1454    1.0000 </r>
       <r>    5.1648    1.0000 </r>
       <r>    5.5974    1.0000 </r>
       <r>    6.0844    1.0000 </r>
       <r>    6.1207    1.0000 </r>
       <r>    6.4538    1.0000 </r>
       <r>    6.4545    1.0000 </r>
       <r>    7.3470    0.2586 </r>
       <r>    7.4137    0.0658 </r>
       <r>    8.2688   -0.0000 </r>
       <r>    8.2960   -0.0000 </r>
       <r>   12.2692   -0.0000 </r>
       <r>   12.4504   -0.0000 </r>
       <r>   13.1929    0.0000 </r>
       <r>   15.6804    0.0000 </r>
       <r>   22.0099    0.0000 </r>
      </set>
      <set comment="kpoint 203">
       <r>    0.8809    1.0000 </r>
       <r>    2.2073    1.0000 </r>
       <r>    2.7975    1.0000 </r>
       <r>    3.5610    1.0000 </r>
       <r>    4.3685    1.0000 </r>
       <r>    4.4353    1.0000 </r>
       <r>    4.6308    1.0000 </r>
       <r>    5.1579    1.0000 </r>
       <r>    5.1860    1.0000 </r>
       <r>    5.2106    1.0000 </r>
       <r>    5.5406    1.0000 </r>
       <r>    6.0871    1.0000 </r>
       <r>    6.1390    1.0000 </r>
       <r>    6.4417    1.0000 </r>
       <r>    6.5187    1.0000 </r>
       <r>    6.9984    1.0301 </r>
       <r>    7.3733    0.1702 </r>
       <r>    8.2633   -0.0000 </r>
       <r>    8.3354   -0.0000 </r>
       <r>   11.9228   -0.0000 </r>
       <r>   12.2213   -0.0000 </r>
       <r>   13.5920    0.0000 </r>
       <r>   15.0810    0.0000 </r>
       <r>   22.1810    0.0000 </r>
      </set>
      <set comment="kpoint 204">
       <r>    0.9827    1.0000 </r>
       <r>    2.1781    1.0000 </r>
       <r>    2.7232    1.0000 </r>
       <r>    3.6074    1.0000 </r>
       <r>    4.3692    1.0000 </r>
       <r>    4.4388    1.0000 </r>
       <r>    4.6728    1.0000 </r>
       <r>    5.1624    1.0000 </r>
       <r>    5.1962    1.0000 </r>
       <r>    5.2277    1.0000 </r>
       <r>    5.5205    1.0000 </r>
       <r>    6.0977    1.0000 </r>
       <r>    6.1501    1.0000 </r>
       <r>    6.4313    1.0000 </r>
       <r>    6.6344    1.0000 </r>
       <r>    6.7686    1.0008 </r>
       <r>    7.3543    0.2325 </r>
       <r>    8.2533   -0.0000 </r>
       <r>    8.3716   -0.0000 </r>
       <r>   11.8004   -0.0000 </r>
       <r>   12.1458   -0.0000 </r>
       <r>   13.8313    0.0000 </r>
       <r>   14.7753    0.0000 </r>
       <r>   22.2442    0.0000 </r>
      </set>
      <set comment="kpoint 205">
       <r>    0.8623    1.0000 </r>
       <r>    2.3000    1.0000 </r>
       <r>    2.9876    1.0000 </r>
       <r>    3.3595    1.0000 </r>
       <r>    4.4314    1.0000 </r>
       <r>    4.5140    1.0000 </r>
       <r>    4.5337    1.0000 </r>
       <r>    5.1818    1.0000 </r>
       <r>    5.1921    1.0000 </r>
       <r>    5.2959    1.0000 </r>
       <r>    5.5093    1.0000 </r>
       <r>    6.0879    1.0000 </r>
       <r>    6.0935    1.0000 </r>
       <r>    6.4352    1.0000 </r>
       <r>    6.4681    1.0000 </r>
       <r>    7.2596    0.6152 </r>
       <r>    7.3992    0.0985 </r>
       <r>    7.9957   -0.0000 </r>
       <r>    8.1725   -0.0000 </r>
       <r>   12.0247   -0.0000 </r>
       <r>   12.6696   -0.0000 </r>
       <r>   12.6921   -0.0000 </r>
       <r>   14.9760    0.0000 </r>
       <r>   22.5231    0.0000 </r>
      </set>
      <set comment="kpoint 206">
       <r>    1.0277    1.0000 </r>
       <r>    2.3692    1.0000 </r>
       <r>    2.8339    1.0000 </r>
       <r>    3.4062    1.0000 </r>
       <r>    4.4713    1.0000 </r>
       <r>    4.5223    1.0000 </r>
       <r>    4.6183    1.0000 </r>
       <r>    5.2037    1.0000 </r>
       <r>    5.2159    1.0000 </r>
       <r>    5.4019    1.0000 </r>
       <r>    5.4499    1.0000 </r>
       <r>    6.0988    1.0000 </r>
       <r>    6.1064    1.0000 </r>
       <r>    6.4218    1.0000 </r>
       <r>    6.4982    1.0000 </r>
       <r>    6.9972    1.0298 </r>
       <r>    7.3610    0.2096 </r>
       <r>    7.9605   -0.0000 </r>
       <r>    8.0869   -0.0000 </r>
       <r>   11.8675   -0.0000 </r>
       <r>   12.3347   -0.0000 </r>
       <r>   13.0331    0.0000 </r>
       <r>   14.3845    0.0000 </r>
       <r>   22.7561    0.0000 </r>
      </set>
      <set comment="kpoint 207">
       <r>    1.0897    1.0000 </r>
       <r>    2.4252    1.0000 </r>
       <r>    2.7338    1.0000 </r>
       <r>    3.4328    1.0000 </r>
       <r>    4.4845    1.0000 </r>
       <r>    4.5257    1.0000 </r>
       <r>    4.6584    1.0000 </r>
       <r>    5.2130    1.0000 </r>
       <r>    5.2212    1.0000 </r>
       <r>    5.4282    1.0000 </r>
       <r>    5.4335    1.0000 </r>
       <r>    6.1063    1.0000 </r>
       <r>    6.1263    1.0000 </r>
       <r>    6.4120    1.0000 </r>
       <r>    6.5638    1.0000 </r>
       <r>    6.8152    1.0021 </r>
       <r>    7.3425    0.2752 </r>
       <r>    7.9951   -0.0000 </r>
       <r>    8.0349   -0.0000 </r>
       <r>   11.8263   -0.0000 </r>
       <r>   12.2058   -0.0000 </r>
       <r>   13.2613    0.0000 </r>
       <r>   14.0779    0.0000 </r>
       <r>   22.8351    0.0000 </r>
      </set>
      <set comment="kpoint 208">
       <r>    1.1252    1.0000 </r>
       <r>    2.5297    1.0000 </r>
       <r>    2.8156    1.0000 </r>
       <r>    3.2970    1.0000 </r>
       <r>    4.5502    1.0000 </r>
       <r>    4.6064    1.0000 </r>
       <r>    4.6103    1.0000 </r>
       <r>    5.2356    1.0000 </r>
       <r>    5.2420    1.0000 </r>
       <r>    5.3857    1.0000 </r>
       <r>    5.5268    1.0000 </r>
       <r>    6.1202    1.0000 </r>
       <r>    6.1396    1.0000 </r>
       <r>    6.3789    1.0000 </r>
       <r>    6.4883    1.0000 </r>
       <r>    6.8782    1.0069 </r>
       <r>    7.3118    0.3962 </r>
       <r>    7.8156   -0.0006 </r>
       <r>    7.9233   -0.0000 </r>
       <r>   11.8984   -0.0000 </r>
       <r>   12.6029   -0.0000 </r>
       <r>   12.6110   -0.0000 </r>
       <r>   13.8077    0.0000 </r>
       <r>   23.0413    0.0000 </r>
      </set>
      <set comment="kpoint 209">
       <r>    1.1591    1.0000 </r>
       <r>    2.6440    1.0000 </r>
       <r>    2.7482    1.0000 </r>
       <r>    3.2627    1.0000 </r>
       <r>    4.5880    1.0000 </r>
       <r>    4.5950    1.0000 </r>
       <r>    4.6496    1.0000 </r>
       <r>    5.2487    1.0000 </r>
       <r>    5.2515    1.0000 </r>
       <r>    5.3606    1.0000 </r>
       <r>    5.5576    1.0000 </r>
       <r>    6.1483    1.0000 </r>
       <r>    6.1756    1.0000 </r>
       <r>    6.3540    1.0000 </r>
       <r>    6.5063    1.0000 </r>
       <r>    6.7591    1.0006 </r>
       <r>    7.2896    0.4893 </r>
       <r>    7.8275   -0.0004 </r>
       <r>    7.8282   -0.0004 </r>
       <r>   11.9616   -0.0000 </r>
       <r>   12.4114   -0.0000 </r>
       <r>   12.8081    0.0000 </r>
       <r>   13.5086    0.0000 </r>
       <r>   23.1364    0.0000 </r>
      </set>
      <set comment="kpoint 210">
       <r>    1.1830    1.0000 </r>
       <r>    2.7548    1.0000 </r>
       <r>    2.7548    1.0000 </r>
       <r>    3.1692    1.0000 </r>
       <r>    4.6149    1.0000 </r>
       <r>    4.6433    1.0000 </r>
       <r>    4.6433    1.0000 </r>
       <r>    5.2653    1.0000 </r>
       <r>    5.2653    1.0000 </r>
       <r>    5.3317    1.0000 </r>
       <r>    5.5810    1.0000 </r>
       <r>    6.2265    1.0000 </r>
       <r>    6.2265    1.0000 </r>
       <r>    6.2942    1.0000 </r>
       <r>    6.4856    1.0000 </r>
       <r>    6.6747    1.0001 </r>
       <r>    7.2630    0.6011 </r>
       <r>    7.7712   -0.0016 </r>
       <r>    7.7712   -0.0016 </r>
       <r>   12.0802   -0.0000 </r>
       <r>   12.5849   -0.0000 </r>
       <r>   12.5849   -0.0000 </r>
       <r>   13.2169    0.0000 </r>
       <r>   23.2368    0.0000 </r>
      </set>
      <set comment="kpoint 211">
       <r>    1.0071    1.0000 </r>
       <r>    2.3876    1.0000 </r>
       <r>    3.1606    1.0000 </r>
       <r>    3.1606    1.0000 </r>
       <r>    4.5407    1.0000 </r>
       <r>    4.5691    1.0000 </r>
       <r>    4.5691    1.0000 </r>
       <r>    5.2122    1.0000 </r>
       <r>    5.2122    1.0000 </r>
       <r>    5.4265    1.0000 </r>
       <r>    5.5006    1.0000 </r>
       <r>    6.0695    1.0000 </r>
       <r>    6.0695    1.0000 </r>
       <r>    6.4326    1.0000 </r>
       <r>    6.4326    1.0000 </r>
       <r>    7.2365    0.7068 </r>
       <r>    7.4214    0.0504 </r>
       <r>    7.8552   -0.0002 </r>
       <r>    7.8552   -0.0002 </r>
       <r>   12.0560   -0.0000 </r>
       <r>   12.3509   -0.0000 </r>
       <r>   12.3509   -0.0000 </r>
       <r>   14.2866    0.0000 </r>
       <r>   23.6211    0.0000 </r>
      </set>
      <set comment="kpoint 212">
       <r>    1.1005    1.0000 </r>
       <r>    2.5213    1.0000 </r>
       <r>    2.9586    1.0000 </r>
       <r>    3.2730    1.0000 </r>
       <r>    4.5780    1.0000 </r>
       <r>    4.6227    1.0000 </r>
       <r>    4.6608    1.0000 </r>
       <r>    5.2288    1.0000 </r>
       <r>    5.2290    1.0000 </r>
       <r>    5.3695    1.0000 </r>
       <r>    5.6344    1.0000 </r>
       <r>    6.0532    1.0000 </r>
       <r>    6.0930    1.0000 </r>
       <r>    6.4112    1.0000 </r>
       <r>    6.4307    1.0000 </r>
       <r>    7.0287    1.0348 </r>
       <r>    7.3994    0.0981 </r>
       <r>    7.7659   -0.0018 </r>
       <r>    7.7857   -0.0012 </r>
       <r>   11.8130   -0.0000 </r>
       <r>   12.1525   -0.0000 </r>
       <r>   12.5700   -0.0000 </r>
       <r>   13.7133    0.0000 </r>
       <r>   23.8005    0.0000 </r>
      </set>
      <set comment="kpoint 213">
       <r>    1.1323    1.0000 </r>
       <r>    2.6337    1.0000 </r>
       <r>    2.8241    1.0000 </r>
       <r>    3.3113    1.0000 </r>
       <r>    4.5874    1.0000 </r>
       <r>    4.6499    1.0000 </r>
       <r>    4.7041    1.0000 </r>
       <r>    5.2300    1.0000 </r>
       <r>    5.2362    1.0000 </r>
       <r>    5.3479    1.0000 </r>
       <r>    5.6707    1.0000 </r>
       <r>    6.0461    1.0000 </r>
       <r>    6.1238    1.0000 </r>
       <r>    6.3978    1.0000 </r>
       <r>    6.4634    1.0000 </r>
       <r>    6.8815    1.0073 </r>
       <r>    7.3820    0.1442 </r>
       <r>    7.7627   -0.0020 </r>
       <r>    7.7695   -0.0017 </r>
       <r>   11.7116   -0.0000 </r>
       <r>   12.0877   -0.0000 </r>
       <r>   12.7732    0.0000 </r>
       <r>   13.4096    0.0000 </r>
       <r>   23.8664    0.0000 </r>
      </set>
      <set comment="kpoint 214">
       <r>    1.1429    1.0000 </r>
       <r>    2.6848    1.0000 </r>
       <r>    2.9788    1.0000 </r>
       <r>    3.1916    1.0000 </r>
       <r>    4.6762    1.0000 </r>
       <r>    4.6982    1.0000 </r>
       <r>    4.7205    1.0000 </r>
       <r>    5.2431    1.0000 </r>
       <r>    5.2433    1.0000 </r>
       <r>    5.3133    1.0000 </r>
       <r>    5.7703    1.0000 </r>
       <r>    6.0646    1.0000 </r>
       <r>    6.0912    1.0000 </r>
       <r>    6.3568    1.0000 </r>
       <r>    6.4015    1.0000 </r>
       <r>    6.9463    1.0184 </r>
       <r>    7.3829    0.1415 </r>
       <r>    7.6214   -0.0198 </r>
       <r>    7.6650   -0.0112 </r>
       <r>   11.7382   -0.0000 </r>
       <r>   12.2275   -0.0000 </r>
       <r>   12.2969   -0.0000 </r>
       <r>   13.1691    0.0000 </r>
       <r>   24.2768    0.0000 </r>
      </set>
      <set comment="kpoint 215">
       <r>    1.1567    1.0000 </r>
       <r>    2.8144    1.0000 </r>
       <r>    2.8907    1.0000 </r>
       <r>    3.1869    1.0000 </r>
       <r>    4.7020    1.0000 </r>
       <r>    4.7356    1.0000 </r>
       <r>    4.7611    1.0000 </r>
       <r>    5.2429    1.0000 </r>
       <r>    5.2517    1.0000 </r>
       <r>    5.2905    1.0000 </r>
       <r>    5.7862    1.0000 </r>
       <r>    6.0732    1.0000 </r>
       <r>    6.1323    1.0000 </r>
       <r>    6.3320    1.0000 </r>
       <r>    6.3996    1.0000 </r>
       <r>    6.8601    1.0050 </r>
       <r>    7.3640    0.1996 </r>
       <r>    7.6055   -0.0234 </r>
       <r>    7.6227   -0.0195 </r>
       <r>   11.7070   -0.0000 </r>
       <r>   12.1506   -0.0000 </r>
       <r>   12.4226   -0.0000 </r>
       <r>   12.8801    0.0000 </r>
       <r>   24.3862    0.0000 </r>
      </set>
      <set comment="kpoint 216">
       <r>    1.1645    1.0000 </r>
       <r>    2.9152    1.0000 </r>
       <r>    2.9152    1.0000 </r>
       <r>    3.1053    1.0000 </r>
       <r>    4.7566    1.0000 </r>
       <r>    4.7566    1.0000 </r>
       <r>    4.8006    1.0000 </r>
       <r>    5.2536    1.0000 </r>
       <r>    5.2536    1.0000 </r>
       <r>    5.2640    1.0000 </r>
       <r>    5.7795    1.0000 </r>
       <r>    6.1478    1.0000 </r>
       <r>    6.1478    1.0000 </r>
       <r>    6.2777    1.0000 </r>
       <r>    6.3851    1.0000 </r>
       <r>    6.8116    1.0020 </r>
       <r>    7.3415    0.2790 </r>
       <r>    7.5735   -0.0305 </r>
       <r>    7.5735   -0.0305 </r>
       <r>   11.7326   -0.0000 </r>
       <r>   12.2798   -0.0000 </r>
       <r>   12.2798   -0.0000 </r>
       <r>   12.5964   -0.0000 </r>
       <r>   24.5180    0.0000 </r>
      </set>
      <set comment="kpoint 217">
       <r>    1.1514    1.0000 </r>
       <r>    2.8312    1.0000 </r>
       <r>    3.0834    1.0000 </r>
       <r>    3.0834    1.0000 </r>
       <r>    4.7977    1.0000 </r>
       <r>    4.8111    1.0000 </r>
       <r>    4.8111    1.0000 </r>
       <r>    5.2439    1.0000 </r>
       <r>    5.2439    1.0000 </r>
       <r>    5.2640    1.0000 </r>
       <r>    5.9425    1.0000 </r>
       <r>    6.0203    1.0000 </r>
       <r>    6.0203    1.0000 </r>
       <r>    6.3268    1.0000 </r>
       <r>    6.3268    1.0000 </r>
       <r>    6.9383    1.0167 </r>
       <r>    7.4104    0.0728 </r>
       <r>    7.5094   -0.0332 </r>
       <r>    7.5094   -0.0332 </r>
       <r>   11.6218   -0.0000 </r>
       <r>   12.1159   -0.0000 </r>
       <r>   12.1159   -0.0000 </r>
       <r>   12.6787   -0.0000 </r>
       <r>   25.3740    0.0000 </r>
      </set>
      <set comment="kpoint 218">
       <r>    1.1538    1.0000 </r>
       <r>    2.9437    1.0000 </r>
       <r>    2.9850    1.0000 </r>
       <r>    3.1187    1.0000 </r>
       <r>    4.8360    1.0000 </r>
       <r>    4.8678    1.0000 </r>
       <r>    4.8699    1.0000 </r>
       <r>    5.2357    1.0000 </r>
       <r>    5.2434    1.0000 </r>
       <r>    5.2447    1.0000 </r>
       <r>    5.9462    1.0000 </r>
       <r>    5.9798    1.0000 </r>
       <r>    6.0638    1.0000 </r>
       <r>    6.2994    1.0000 </r>
       <r>    6.3140    1.0000 </r>
       <r>    6.9090    1.0112 </r>
       <r>    7.4003    0.0959 </r>
       <r>    7.4683   -0.0124 </r>
       <r>    7.4912   -0.0271 </r>
       <r>   11.5649   -0.0000 </r>
       <r>   12.0570   -0.0000 </r>
       <r>   12.1849   -0.0000 </r>
       <r>   12.4241   -0.0000 </r>
       <r>   25.4500    0.0000 </r>
      </set>
      <set comment="kpoint 219">
       <r>    1.1527    1.0000 </r>
       <r>    3.0175    1.0000 </r>
       <r>    3.0175    1.0000 </r>
       <r>    3.0656    1.0000 </r>
       <r>    4.9076    1.0000 </r>
       <r>    4.9076    1.0000 </r>
       <r>    4.9427    1.0000 </r>
       <r>    5.2225    1.0000 </r>
       <r>    5.2319    1.0000 </r>
       <r>    5.2319    1.0000 </r>
       <r>    5.9112    1.0000 </r>
       <r>    6.0247    1.0000 </r>
       <r>    6.0247    1.0000 </r>
       <r>    6.2669    1.0000 </r>
       <r>    6.2989    1.0000 </r>
       <r>    6.9172    1.0126 </r>
       <r>    7.3901    0.1217 </r>
       <r>    7.4478    0.0091 </r>
       <r>    7.4478    0.0091 </r>
       <r>   11.5196   -0.0000 </r>
       <r>   12.1044   -0.0000 </r>
       <r>   12.1044   -0.0000 </r>
       <r>   12.1902   -0.0000 </r>
       <r>   25.7370    0.0000 </r>
      </set>
      <set comment="kpoint 220">
       <r>    1.1486    1.0000 </r>
       <r>    3.0521    1.0000 </r>
       <r>    3.0521    1.0000 </r>
       <r>    3.0521    1.0000 </r>
       <r>    4.9979    1.0000 </r>
       <r>    4.9979    1.0000 </r>
       <r>    4.9979    1.0000 </r>
       <r>    5.2085    1.0000 </r>
       <r>    5.2085    1.0000 </r>
       <r>    5.2085    1.0000 </r>
       <r>    5.9570    1.0000 </r>
       <r>    5.9570    1.0000 </r>
       <r>    5.9570    1.0000 </r>
       <r>    6.2631    1.0000 </r>
       <r>    6.2631    1.0000 </r>
       <r>    6.9582    1.0210 </r>
       <r>    7.4066    0.0811 </r>
       <r>    7.4066    0.0811 </r>
       <r>    7.4066    0.0811 </r>
       <r>   11.4479   -0.0000 </r>
       <r>   12.0474   -0.0000 </r>
       <r>   12.0474   -0.0000 </r>
       <r>   12.0474   -0.0000 </r>
       <r>   26.4319    0.0000 </r>
      </set>
     </set>
    </set>
   </array>
  </eigenvalues>
  <separator name="orbital magnetization" >
   <v name="MAGDIPOLOUT">      0.00000000      0.00000000      0.00000000</v>
  </separator>
  <dos>
   <i name="efermi">      7.28708860 </i>
   <total>
    <array>
     <dimension dim="1">gridpoints</dimension>
     <dimension dim="2">spin</dimension>
     <field>energy</field>
     <field>total</field>
     <field>integrated</field>
     <set>
      <set comment="spin 1">
       <r>    -5.3941     0.0000     0.0000 </r>
       <r>    -5.3772     0.0000     0.0000 </r>
       <r>    -5.3603     0.0000     0.0000 </r>
       <r>    -5.3433     0.0000     0.0000 </r>
       <r>    -5.3264     0.0000     0.0000 </r>
       <r>    -5.3094     0.0000     0.0000 </r>
       <r>    -5.2925     0.0000     0.0000 </r>
       <r>    -5.2756     0.0000     0.0000 </r>
       <r>    -5.2586     0.0000     0.0000 </r>
       <r>    -5.2417     0.0000     0.0000 </r>
       <r>    -5.2248     0.0000     0.0000 </r>
       <r>    -5.2078     0.0000     0.0000 </r>
       <r>    -5.1909     0.0000     0.0000 </r>
       <r>    -5.1739     0.0000     0.0000 </r>
       <r>    -5.1570     0.0000     0.0000 </r>
       <r>    -5.1401     0.0000     0.0000 </r>
       <r>    -5.1231     0.0000     0.0000 </r>
       <r>    -5.1062     0.0000     0.0000 </r>
       <r>    -5.0893     0.0000     0.0000 </r>
       <r>    -5.0723     0.0000     0.0000 </r>
       <r>    -5.0554     0.0000     0.0000 </r>
       <r>    -5.0384     0.0000     0.0000 </r>
       <r>    -5.0215     0.0000     0.0000 </r>
       <r>    -5.0046     0.0000     0.0000 </r>
       <r>    -4.9876     0.0000     0.0000 </r>
       <r>    -4.9707    -0.0000    -0.0000 </r>
       <r>    -4.9538    -0.0000    -0.0000 </r>
       <r>    -4.9368    -0.0000    -0.0000 </r>
       <r>    -4.9199    -0.0000    -0.0000 </r>
       <r>    -4.9029    -0.0000    -0.0000 </r>
       <r>    -4.8860    -0.0000    -0.0000 </r>
       <r>    -4.8691    -0.0000    -0.0000 </r>
       <r>    -4.8521    -0.0000    -0.0000 </r>
       <r>    -4.8352    -0.0000    -0.0000 </r>
       <r>    -4.8183    -0.0000    -0.0000 </r>
       <r>    -4.8013    -0.0000    -0.0000 </r>
       <r>    -4.7844    -0.0000    -0.0000 </r>
       <r>    -4.7674    -0.0000    -0.0000 </r>
       <r>    -4.7505    -0.0000    -0.0000 </r>
       <r>    -4.7336    -0.0000    -0.0000 </r>
       <r>    -4.7166    -0.0000    -0.0000 </r>
       <r>    -4.6997    -0.0000    -0.0000 </r>
       <r>    -4.6827    -0.0000    -0.0000 </r>
       <r>    -4.6658    -0.0000    -0.0000 </r>
       <r>    -4.6489    -0.0000    -0.0000 </r>
       <r>    -4.6319    -0.0000    -0.0000 </r>
       <r>    -4.6150    -0.0000    -0.0000 </r>
       <r>    -4.5981    -0.0000    -0.0000 </r>
       <r>    -4.5811    -0.0000    -0.0000 </r>
       <r>    -4.5642    -0.0000    -0.0000 </r>
       <r>    -4.5472    -0.0000    -0.0000 </r>
       <r>    -4.5303    -0.0000    -0.0000 </r>
       <r>    -4.5134    -0.0000    -0.0000 </r>
       <r>    -4.4964    -0.0000    -0.0000 </r>
       <r>    -4.4795    -0.0000    -0.0000 </r>
       <r>    -4.4626    -0.0000    -0.0000 </r>
       <r>    -4.4456    -0.0000    -0.0000 </r>
       <r>    -4.4287    -0.0000    -0.0000 </r>
       <r>    -4.4117    -0.0000    -0.0000 </r>
       <r>    -4.3948    -0.0000    -0.0000 </r>
       <r>    -4.3779    -0.0000    -0.0000 </r>
       <r>    -4.3609    -0.0000    -0.0000 </r>
       <r>    -4.3440    -0.0000    -0.0000 </r>
       <r>    -4.3271    -0.0000    -0.0000 </r>
       <r>    -4.3101    -0.0000    -0.0000 </r>
       <r>    -4.2932    -0.0000    -0.0000 </r>
       <r>    -4.2762    -0.0000    -0.0000 </r>
       <r>    -4.2593    -0.0000    -0.0000 </r>
       <r>    -4.2424    -0.0000    -0.0000 </r>
       <r>    -4.2254    -0.0000    -0.0000 </r>
       <r>    -4.2085    -0.0000    -0.0000 </r>
       <r>    -4.1916    -0.0000    -0.0000 </r>
       <r>    -4.1746    -0.0000    -0.0000 </r>
       <r>    -4.1577    -0.0000    -0.0000 </r>
       <r>    -4.1407    -0.0000    -0.0000 </r>
       <r>    -4.1238    -0.0000    -0.0000 </r>
       <r>    -4.1069    -0.0000    -0.0000 </r>
       <r>    -4.0899    -0.0000    -0.0000 </r>
       <r>    -4.0730    -0.0000    -0.0000 </r>
       <r>    -4.0561    -0.0000    -0.0000 </r>
       <r>    -4.0391    -0.0000    -0.0000 </r>
       <r>    -4.0222    -0.0000    -0.0000 </r>
       <r>    -4.0052    -0.0000    -0.0000 </r>
       <r>    -3.9883    -0.0000    -0.0000 </r>
       <r>    -3.9714    -0.0000    -0.0000 </r>
       <r>    -3.9544    -0.0000    -0.0000 </r>
       <r>    -3.9375    -0.0000    -0.0000 </r>
       <r>    -3.9205    -0.0000    -0.0000 </r>
       <r>    -3.9036    -0.0000    -0.0000 </r>
       <r>    -3.8867    -0.0000    -0.0000 </r>
       <r>    -3.8697    -0.0000    -0.0000 </r>
       <r>    -3.8528    -0.0000    -0.0000 </r>
       <r>    -3.8359    -0.0000    -0.0000 </r>
       <r>    -3.8189    -0.0001    -0.0000 </r>
       <r>    -3.8020    -0.0001    -0.0000 </r>
       <r>    -3.7850    -0.0001    -0.0000 </r>
       <r>    -3.7681    -0.0002    -0.0000 </r>
       <r>    -3.7512    -0.0003    -0.0000 </r>
       <r>    -3.7342    -0.0003    -0.0000 </r>
       <r>    -3.7173    -0.0004    -0.0000 </r>
       <r>    -3.7004    -0.0006    -0.0000 </r>
       <r>    -3.6834    -0.0007    -0.0001 </r>
       <r>    -3.6665    -0.0009    -0.0001 </r>
       <r>    -3.6495    -0.0010    -0.0001 </r>
       <r>    -3.6326    -0.0012    -0.0001 </r>
       <r>    -3.6157    -0.0014    -0.0001 </r>
       <r>    -3.5987    -0.0015    -0.0002 </r>
       <r>    -3.5818    -0.0016    -0.0002 </r>
       <r>    -3.5649    -0.0017    -0.0002 </r>
       <r>    -3.5479    -0.0016    -0.0002 </r>
       <r>    -3.5310    -0.0014    -0.0003 </r>
       <r>    -3.5140    -0.0010    -0.0003 </r>
       <r>    -3.4971    -0.0004    -0.0003 </r>
       <r>    -3.4802     0.0005    -0.0003 </r>
       <r>    -3.4632     0.0016    -0.0002 </r>
       <r>    -3.4463     0.0031    -0.0002 </r>
       <r>    -3.4294     0.0048    -0.0001 </r>
       <r>    -3.4124     0.0069     0.0000 </r>
       <r>    -3.3955     0.0094     0.0002 </r>
       <r>    -3.3785     0.0121     0.0004 </r>
       <r>    -3.3616     0.0152     0.0006 </r>
       <r>    -3.3447     0.0185     0.0009 </r>
       <r>    -3.3277     0.0221     0.0013 </r>
       <r>    -3.3108     0.0258     0.0017 </r>
       <r>    -3.2939     0.0296     0.0023 </r>
       <r>    -3.2769     0.0334     0.0028 </r>
       <r>    -3.2600     0.0373     0.0034 </r>
       <r>    -3.2430     0.0411     0.0041 </r>
       <r>    -3.2261     0.0447     0.0049 </r>
       <r>    -3.2092     0.0483     0.0057 </r>
       <r>    -3.1922     0.0517     0.0066 </r>
       <r>    -3.1753     0.0549     0.0075 </r>
       <r>    -3.1583     0.0580     0.0085 </r>
       <r>    -3.1414     0.0609     0.0095 </r>
       <r>    -3.1245     0.0637     0.0106 </r>
       <r>    -3.1075     0.0664     0.0117 </r>
       <r>    -3.0906     0.0689     0.0129 </r>
       <r>    -3.0737     0.0715     0.0141 </r>
       <r>    -3.0567     0.0739     0.0154 </r>
       <r>    -3.0398     0.0763     0.0167 </r>
       <r>    -3.0228     0.0786     0.0180 </r>
       <r>    -3.0059     0.0808     0.0194 </r>
       <r>    -2.9890     0.0828     0.0208 </r>
       <r>    -2.9720     0.0848     0.0222 </r>
       <r>    -2.9551     0.0865     0.0237 </r>
       <r>    -2.9382     0.0882     0.0252 </r>
       <r>    -2.9212     0.0896     0.0267 </r>
       <r>    -2.9043     0.0910     0.0282 </r>
       <r>    -2.8873     0.0923     0.0298 </r>
       <r>    -2.8704     0.0935     0.0314 </r>
       <r>    -2.8535     0.0948     0.0330 </r>
       <r>    -2.8365     0.0961     0.0346 </r>
       <r>    -2.8196     0.0976     0.0362 </r>
       <r>    -2.8027     0.0992     0.0379 </r>
       <r>    -2.7857     0.1011     0.0396 </r>
       <r>    -2.7688     0.1032     0.0414 </r>
       <r>    -2.7518     0.1055     0.0432 </r>
       <r>    -2.7349     0.1080     0.0450 </r>
       <r>    -2.7180     0.1105     0.0469 </r>
       <r>    -2.7010     0.1130     0.0488 </r>
       <r>    -2.6841     0.1154     0.0507 </r>
       <r>    -2.6672     0.1176     0.0527 </r>
       <r>    -2.6502     0.1195     0.0548 </r>
       <r>    -2.6333     0.1210     0.0568 </r>
       <r>    -2.6163     0.1220     0.0589 </r>
       <r>    -2.5994     0.1226     0.0610 </r>
       <r>    -2.5825     0.1229     0.0630 </r>
       <r>    -2.5655     0.1228     0.0651 </r>
       <r>    -2.5486     0.1226     0.0672 </r>
       <r>    -2.5317     0.1224     0.0693 </r>
       <r>    -2.5147     0.1223     0.0713 </r>
       <r>    -2.4978     0.1226     0.0734 </r>
       <r>    -2.4808     0.1233     0.0755 </r>
       <r>    -2.4639     0.1245     0.0776 </r>
       <r>    -2.4470     0.1263     0.0798 </r>
       <r>    -2.4300     0.1288     0.0819 </r>
       <r>    -2.4131     0.1317     0.0842 </r>
       <r>    -2.3961     0.1351     0.0865 </r>
       <r>    -2.3792     0.1386     0.0888 </r>
       <r>    -2.3623     0.1423     0.0912 </r>
       <r>    -2.3453     0.1458     0.0937 </r>
       <r>    -2.3284     0.1489     0.0962 </r>
       <r>    -2.3115     0.1516     0.0988 </r>
       <r>    -2.2945     0.1536     0.1014 </r>
       <r>    -2.2776     0.1549     0.1040 </r>
       <r>    -2.2606     0.1556     0.1066 </r>
       <r>    -2.2437     0.1557     0.1093 </r>
       <r>    -2.2268     0.1553     0.1119 </r>
       <r>    -2.2098     0.1545     0.1145 </r>
       <r>    -2.1929     0.1535     0.1171 </r>
       <r>    -2.1760     0.1526     0.1197 </r>
       <r>    -2.1590     0.1518     0.1223 </r>
       <r>    -2.1421     0.1514     0.1248 </r>
       <r>    -2.1251     0.1514     0.1274 </r>
       <r>    -2.1082     0.1519     0.1300 </r>
       <r>    -2.0913     0.1529     0.1326 </r>
       <r>    -2.0743     0.1543     0.1352 </r>
       <r>    -2.0574     0.1561     0.1378 </r>
       <r>    -2.0405     0.1582     0.1405 </r>
       <r>    -2.0235     0.1606     0.1432 </r>
       <r>    -2.0066     0.1630     0.1460 </r>
       <r>    -1.9896     0.1655     0.1488 </r>
       <r>    -1.9727     0.1680     0.1516 </r>
       <r>    -1.9558     0.1705     0.1545 </r>
       <r>    -1.9388     0.1729     0.1574 </r>
       <r>    -1.9219     0.1754     0.1604 </r>
       <r>    -1.9050     0.1779     0.1634 </r>
       <r>    -1.8880     0.1804     0.1665 </r>
       <r>    -1.8711     0.1830     0.1696 </r>
       <r>    -1.8541     0.1856     0.1727 </r>
       <r>    -1.8372     0.1882     0.1759 </r>
       <r>    -1.8203     0.1906     0.1791 </r>
       <r>    -1.8033     0.1928     0.1824 </r>
       <r>    -1.7864     0.1946     0.1857 </r>
       <r>    -1.7694     0.1959     0.1890 </r>
       <r>    -1.7525     0.1966     0.1924 </r>
       <r>    -1.7356     0.1966     0.1957 </r>
       <r>    -1.7186     0.1959     0.1990 </r>
       <r>    -1.7017     0.1946     0.2023 </r>
       <r>    -1.6848     0.1927     0.2056 </r>
       <r>    -1.6678     0.1904     0.2088 </r>
       <r>    -1.6509     0.1878     0.2120 </r>
       <r>    -1.6339     0.1854     0.2151 </r>
       <r>    -1.6170     0.1833     0.2182 </r>
       <r>    -1.6001     0.1818     0.2213 </r>
       <r>    -1.5831     0.1811     0.2244 </r>
       <r>    -1.5662     0.1816     0.2274 </r>
       <r>    -1.5493     0.1832     0.2305 </r>
       <r>    -1.5323     0.1860     0.2337 </r>
       <r>    -1.5154     0.1900     0.2369 </r>
       <r>    -1.4984     0.1951     0.2402 </r>
       <r>    -1.4815     0.2011     0.2436 </r>
       <r>    -1.4646     0.2077     0.2471 </r>
       <r>    -1.4476     0.2145     0.2508 </r>
       <r>    -1.4307     0.2212     0.2545 </r>
       <r>    -1.4138     0.2274     0.2584 </r>
       <r>    -1.3968     0.2329     0.2623 </r>
       <r>    -1.3799     0.2374     0.2663 </r>
       <r>    -1.3629     0.2406     0.2704 </r>
       <r>    -1.3460     0.2425     0.2745 </r>
       <r>    -1.3291     0.2430     0.2786 </r>
       <r>    -1.3121     0.2422     0.2827 </r>
       <r>    -1.2952     0.2402     0.2868 </r>
       <r>    -1.2783     0.2374     0.2908 </r>
       <r>    -1.2613     0.2339     0.2948 </r>
       <r>    -1.2444     0.2301     0.2987 </r>
       <r>    -1.2274     0.2262     0.3025 </r>
       <r>    -1.2105     0.2226     0.3063 </r>
       <r>    -1.1936     0.2196     0.3100 </r>
       <r>    -1.1766     0.2173     0.3137 </r>
       <r>    -1.1597     0.2160     0.3173 </r>
       <r>    -1.1428     0.2157     0.3210 </r>
       <r>    -1.1258     0.2166     0.3247 </r>
       <r>    -1.1089     0.2186     0.3284 </r>
       <r>    -1.0919     0.2216     0.3321 </r>
       <r>    -1.0750     0.2257     0.3359 </r>
       <r>    -1.0581     0.2305     0.3398 </r>
       <r>    -1.0411     0.2361     0.3438 </r>
       <r>    -1.0242     0.2421     0.3479 </r>
       <r>    -1.0072     0.2483     0.3521 </r>
       <r>    -0.9903     0.2545     0.3565 </r>
       <r>    -0.9734     0.2606     0.3609 </r>
       <r>    -0.9564     0.2662     0.3654 </r>
       <r>    -0.9395     0.2711     0.3700 </r>
       <r>    -0.9226     0.2753     0.3746 </r>
       <r>    -0.9056     0.2784     0.3794 </r>
       <r>    -0.8887     0.2806     0.3841 </r>
       <r>    -0.8717     0.2819     0.3889 </r>
       <r>    -0.8548     0.2822     0.3937 </r>
       <r>    -0.8379     0.2818     0.3984 </r>
       <r>    -0.8209     0.2810     0.4032 </r>
       <r>    -0.8040     0.2799     0.4079 </r>
       <r>    -0.7871     0.2790     0.4127 </r>
       <r>    -0.7701     0.2786     0.4174 </r>
       <r>    -0.7532     0.2789     0.4221 </r>
       <r>    -0.7362     0.2802     0.4268 </r>
       <r>    -0.7193     0.2826     0.4316 </r>
       <r>    -0.7024     0.2861     0.4365 </r>
       <r>    -0.6854     0.2906     0.4414 </r>
       <r>    -0.6685     0.2959     0.4464 </r>
       <r>    -0.6516     0.3018     0.4515 </r>
       <r>    -0.6346     0.3079     0.4567 </r>
       <r>    -0.6177     0.3137     0.4621 </r>
       <r>    -0.6007     0.3190     0.4675 </r>
       <r>    -0.5838     0.3233     0.4729 </r>
       <r>    -0.5669     0.3264     0.4785 </r>
       <r>    -0.5499     0.3281     0.4840 </r>
       <r>    -0.5330     0.3284     0.4896 </r>
       <r>    -0.5161     0.3272     0.4951 </r>
       <r>    -0.4991     0.3247     0.5006 </r>
       <r>    -0.4822     0.3211     0.5061 </r>
       <r>    -0.4652     0.3168     0.5114 </r>
       <r>    -0.4483     0.3119     0.5167 </r>
       <r>    -0.4314     0.3069     0.5219 </r>
       <r>    -0.4144     0.3020     0.5270 </r>
       <r>    -0.3975     0.2977     0.5321 </r>
       <r>    -0.3806     0.2941     0.5370 </r>
       <r>    -0.3636     0.2915     0.5420 </r>
       <r>    -0.3467     0.2900     0.5469 </r>
       <r>    -0.3297     0.2898     0.5518 </r>
       <r>    -0.3128     0.2908     0.5567 </r>
       <r>    -0.2959     0.2929     0.5617 </r>
       <r>    -0.2789     0.2959     0.5667 </r>
       <r>    -0.2620     0.2996     0.5718 </r>
       <r>    -0.2450     0.3035     0.5769 </r>
       <r>    -0.2281     0.3074     0.5821 </r>
       <r>    -0.2112     0.3108     0.5874 </r>
       <r>    -0.1942     0.3134     0.5927 </r>
       <r>    -0.1773     0.3147     0.5980 </r>
       <r>    -0.1604     0.3146     0.6034 </r>
       <r>    -0.1434     0.3130     0.6087 </r>
       <r>    -0.1265     0.3098     0.6139 </r>
       <r>    -0.1095     0.3052     0.6191 </r>
       <r>    -0.0926     0.2996     0.6241 </r>
       <r>    -0.0757     0.2935     0.6291 </r>
       <r>    -0.0587     0.2872     0.6340 </r>
       <r>    -0.0418     0.2814     0.6387 </r>
       <r>    -0.0249     0.2766     0.6434 </r>
       <r>    -0.0079     0.2732     0.6481 </r>
       <r>     0.0090     0.2717     0.6527 </r>
       <r>     0.0260     0.2722     0.6573 </r>
       <r>     0.0429     0.2747     0.6619 </r>
       <r>     0.0598     0.2792     0.6667 </r>
       <r>     0.0768     0.2852     0.6715 </r>
       <r>     0.0937     0.2923     0.6764 </r>
       <r>     0.1106     0.3001     0.6815 </r>
       <r>     0.1276     0.3079     0.6867 </r>
       <r>     0.1445     0.3152     0.6921 </r>
       <r>     0.1615     0.3215     0.6975 </r>
       <r>     0.1784     0.3265     0.7030 </r>
       <r>     0.1953     0.3299     0.7086 </r>
       <r>     0.2123     0.3315     0.7142 </r>
       <r>     0.2292     0.3316     0.7199 </r>
       <r>     0.2461     0.3304     0.7255 </r>
       <r>     0.2631     0.3282     0.7310 </r>
       <r>     0.2800     0.3255     0.7365 </r>
       <r>     0.2970     0.3227     0.7420 </r>
       <r>     0.3139     0.3205     0.7474 </r>
       <r>     0.3308     0.3192     0.7528 </r>
       <r>     0.3478     0.3192     0.7582 </r>
       <r>     0.3647     0.3207     0.7637 </r>
       <r>     0.3816     0.3239     0.7692 </r>
       <r>     0.3986     0.3288     0.7747 </r>
       <r>     0.4155     0.3352     0.7804 </r>
       <r>     0.4325     0.3429     0.7862 </r>
       <r>     0.4494     0.3515     0.7922 </r>
       <r>     0.4663     0.3606     0.7983 </r>
       <r>     0.4833     0.3699     0.8045 </r>
       <r>     0.5002     0.3789     0.8110 </r>
       <r>     0.5172     0.3874     0.8175 </r>
       <r>     0.5341     0.3949     0.8242 </r>
       <r>     0.5510     0.4014     0.8310 </r>
       <r>     0.5680     0.4065     0.8379 </r>
       <r>     0.5849     0.4104     0.8448 </r>
       <r>     0.6018     0.4129     0.8518 </r>
       <r>     0.6188     0.4142     0.8589 </r>
       <r>     0.6357     0.4143     0.8659 </r>
       <r>     0.6527     0.4136     0.8729 </r>
       <r>     0.6696     0.4121     0.8799 </r>
       <r>     0.6865     0.4102     0.8868 </r>
       <r>     0.7035     0.4081     0.8937 </r>
       <r>     0.7204     0.4061     0.9006 </r>
       <r>     0.7373     0.4045     0.9074 </r>
       <r>     0.7543     0.4038     0.9143 </r>
       <r>     0.7712     0.4040     0.9211 </r>
       <r>     0.7882     0.4057     0.9280 </r>
       <r>     0.8051     0.4089     0.9349 </r>
       <r>     0.8220     0.4140     0.9419 </r>
       <r>     0.8390     0.4211     0.9491 </r>
       <r>     0.8559     0.4302     0.9564 </r>
       <r>     0.8728     0.4414     0.9638 </r>
       <r>     0.8898     0.4545     0.9715 </r>
       <r>     0.9067     0.4694     0.9795 </r>
       <r>     0.9237     0.4857     0.9877 </r>
       <r>     0.9406     0.5030     0.9962 </r>
       <r>     0.9575     0.5207     1.0050 </r>
       <r>     0.9745     0.5382     1.0142 </r>
       <r>     0.9914     0.5550     1.0236 </r>
       <r>     1.0083     0.5703     1.0332 </r>
       <r>     1.0253     0.5834     1.0431 </r>
       <r>     1.0422     0.5936     1.0532 </r>
       <r>     1.0592     0.6005     1.0633 </r>
       <r>     1.0761     0.6036     1.0736 </r>
       <r>     1.0930     0.6025     1.0838 </r>
       <r>     1.1100     0.5971     1.0939 </r>
       <r>     1.1269     0.5874     1.1038 </r>
       <r>     1.1439     0.5737     1.1135 </r>
       <r>     1.1608     0.5562     1.1230 </r>
       <r>     1.1777     0.5356     1.1320 </r>
       <r>     1.1947     0.5124     1.1407 </r>
       <r>     1.2116     0.4875     1.1490 </r>
       <r>     1.2285     0.4617     1.1568 </r>
       <r>     1.2455     0.4356     1.1642 </r>
       <r>     1.2624     0.4103     1.1711 </r>
       <r>     1.2794     0.3862     1.1777 </r>
       <r>     1.2963     0.3642     1.1838 </r>
       <r>     1.3132     0.3448     1.1897 </r>
       <r>     1.3302     0.3283     1.1952 </r>
       <r>     1.3471     0.3152     1.2006 </r>
       <r>     1.3640     0.3054     1.2057 </r>
       <r>     1.3810     0.2992     1.2108 </r>
       <r>     1.3979     0.2963     1.2158 </r>
       <r>     1.4149     0.2967     1.2208 </r>
       <r>     1.4318     0.3000     1.2259 </r>
       <r>     1.4487     0.3059     1.2311 </r>
       <r>     1.4657     0.3139     1.2364 </r>
       <r>     1.4826     0.3237     1.2419 </r>
       <r>     1.4995     0.3349     1.2476 </r>
       <r>     1.5165     0.3469     1.2535 </r>
       <r>     1.5334     0.3595     1.2596 </r>
       <r>     1.5504     0.3724     1.2659 </r>
       <r>     1.5673     0.3852     1.2724 </r>
       <r>     1.5842     0.3978     1.2791 </r>
       <r>     1.6012     0.4101     1.2861 </r>
       <r>     1.6181     0.4221     1.2932 </r>
       <r>     1.6350     0.4336     1.3006 </r>
       <r>     1.6520     0.4448     1.3081 </r>
       <r>     1.6689     0.4557     1.3158 </r>
       <r>     1.6859     0.4662     1.3237 </r>
       <r>     1.7028     0.4765     1.3318 </r>
       <r>     1.7197     0.4866     1.3400 </r>
       <r>     1.7367     0.4964     1.3484 </r>
       <r>     1.7536     0.5062     1.3570 </r>
       <r>     1.7705     0.5159     1.3657 </r>
       <r>     1.7875     0.5257     1.3746 </r>
       <r>     1.8044     0.5356     1.3837 </r>
       <r>     1.8214     0.5459     1.3930 </r>
       <r>     1.8383     0.5568     1.4024 </r>
       <r>     1.8552     0.5686     1.4120 </r>
       <r>     1.8722     0.5815     1.4219 </r>
       <r>     1.8891     0.5957     1.4320 </r>
       <r>     1.9061     0.6115     1.4423 </r>
       <r>     1.9230     0.6292     1.4530 </r>
       <r>     1.9399     0.6486     1.4640 </r>
       <r>     1.9569     0.6699     1.4753 </r>
       <r>     1.9738     0.6929     1.4871 </r>
       <r>     1.9907     0.7172     1.4992 </r>
       <r>     2.0077     0.7425     1.5118 </r>
       <r>     2.0246     0.7682     1.5248 </r>
       <r>     2.0416     0.7938     1.5382 </r>
       <r>     2.0585     0.8186     1.5521 </r>
       <r>     2.0754     0.8419     1.5664 </r>
       <r>     2.0924     0.8633     1.5810 </r>
       <r>     2.1093     0.8823     1.5959 </r>
       <r>     2.1262     0.8985     1.6111 </r>
       <r>     2.1432     0.9118     1.6266 </r>
       <r>     2.1601     0.9224     1.6422 </r>
       <r>     2.1771     0.9304     1.6580 </r>
       <r>     2.1940     0.9364     1.6738 </r>
       <r>     2.2109     0.9410     1.6898 </r>
       <r>     2.2279     0.9449     1.7058 </r>
       <r>     2.2448     0.9488     1.7218 </r>
       <r>     2.2617     0.9534     1.7380 </r>
       <r>     2.2787     0.9595     1.7542 </r>
       <r>     2.2956     0.9676     1.7706 </r>
       <r>     2.3126     0.9780     1.7872 </r>
       <r>     2.3295     0.9910     1.8040 </r>
       <r>     2.3464     1.0066     1.8210 </r>
       <r>     2.3634     1.0246     1.8384 </r>
       <r>     2.3803     1.0447     1.8561 </r>
       <r>     2.3972     1.0667     1.8741 </r>
       <r>     2.4142     1.0899     1.8926 </r>
       <r>     2.4311     1.1138     1.9115 </r>
       <r>     2.4481     1.1379     1.9307 </r>
       <r>     2.4650     1.1616     1.9504 </r>
       <r>     2.4819     1.1841     1.9705 </r>
       <r>     2.4989     1.2050     1.9909 </r>
       <r>     2.5158     1.2236     2.0116 </r>
       <r>     2.5327     1.2394     2.0326 </r>
       <r>     2.5497     1.2518     2.0538 </r>
       <r>     2.5666     1.2603     2.0752 </r>
       <r>     2.5836     1.2648     2.0966 </r>
       <r>     2.6005     1.2651     2.1180 </r>
       <r>     2.6174     1.2613     2.1394 </r>
       <r>     2.6344     1.2537     2.1606 </r>
       <r>     2.6513     1.2430     2.1817 </r>
       <r>     2.6683     1.2300     2.2025 </r>
       <r>     2.6852     1.2161     2.2231 </r>
       <r>     2.7021     1.2025     2.2435 </r>
       <r>     2.7191     1.1907     2.2636 </r>
       <r>     2.7360     1.1822     2.2837 </r>
       <r>     2.7529     1.1786     2.3036 </r>
       <r>     2.7699     1.1808     2.3236 </r>
       <r>     2.7868     1.1899     2.3438 </r>
       <r>     2.8038     1.2062     2.3642 </r>
       <r>     2.8207     1.2296     2.3850 </r>
       <r>     2.8376     1.2596     2.4064 </r>
       <r>     2.8546     1.2950     2.4283 </r>
       <r>     2.8715     1.3341     2.4509 </r>
       <r>     2.8884     1.3752     2.4742 </r>
       <r>     2.9054     1.4159     2.4982 </r>
       <r>     2.9223     1.4541     2.5228 </r>
       <r>     2.9393     1.4875     2.5480 </r>
       <r>     2.9562     1.5143     2.5736 </r>
       <r>     2.9731     1.5329     2.5996 </r>
       <r>     2.9901     1.5422     2.6257 </r>
       <r>     3.0070     1.5417     2.6518 </r>
       <r>     3.0239     1.5316     2.6778 </r>
       <r>     3.0409     1.5124     2.7034 </r>
       <r>     3.0578     1.4852     2.7286 </r>
       <r>     3.0748     1.4514     2.7531 </r>
       <r>     3.0917     1.4128     2.7771 </r>
       <r>     3.1086     1.3711     2.8003 </r>
       <r>     3.1256     1.3281     2.8228 </r>
       <r>     3.1425     1.2855     2.8446 </r>
       <r>     3.1594     1.2447     2.8656 </r>
       <r>     3.1764     1.2070     2.8861 </r>
       <r>     3.1933     1.1735     2.9060 </r>
       <r>     3.2103     1.1450     2.9254 </r>
       <r>     3.2272     1.1225     2.9444 </r>
       <r>     3.2441     1.1068     2.9631 </r>
       <r>     3.2611     1.0990     2.9817 </r>
       <r>     3.2780     1.1003     3.0004 </r>
       <r>     3.2950     1.1121     3.0192 </r>
       <r>     3.3119     1.1361     3.0384 </r>
       <r>     3.3288     1.1745     3.0583 </r>
       <r>     3.3458     1.2291     3.0792 </r>
       <r>     3.3627     1.3021     3.1012 </r>
       <r>     3.3796     1.3952     3.1248 </r>
       <r>     3.3966     1.5098     3.1504 </r>
       <r>     3.4135     1.6465     3.1783 </r>
       <r>     3.4305     1.8053     3.2089 </r>
       <r>     3.4474     1.9852     3.2425 </r>
       <r>     3.4643     2.1843     3.2795 </r>
       <r>     3.4813     2.3995     3.3201 </r>
       <r>     3.4982     2.6272     3.3646 </r>
       <r>     3.5151     2.8627     3.4131 </r>
       <r>     3.5321     3.1012     3.4657 </r>
       <r>     3.5490     3.3372     3.5222 </r>
       <r>     3.5660     3.5657     3.5826 </r>
       <r>     3.5829     3.7815     3.6466 </r>
       <r>     3.5998     3.9800     3.7140 </r>
       <r>     3.6168     4.1571     3.7845 </r>
       <r>     3.6337     4.3096     3.8574 </r>
       <r>     3.6506     4.4349     3.9326 </r>
       <r>     3.6676     4.5313     4.0093 </r>
       <r>     3.6845     4.5978     4.0872 </r>
       <r>     3.7015     4.6346     4.1657 </r>
       <r>     3.7184     4.6423     4.2443 </r>
       <r>     3.7353     4.6225     4.3226 </r>
       <r>     3.7523     4.5774     4.4001 </r>
       <r>     3.7692     4.5102     4.4765 </r>
       <r>     3.7861     4.4241     4.5515 </r>
       <r>     3.8031     4.3234     4.6247 </r>
       <r>     3.8200     4.2123     4.6960 </r>
       <r>     3.8370     4.0953     4.7654 </r>
       <r>     3.8539     3.9769     4.8328 </r>
       <r>     3.8708     3.8613     4.8982 </r>
       <r>     3.8878     3.7525     4.9617 </r>
       <r>     3.9047     3.6537     5.0236 </r>
       <r>     3.9216     3.5676     5.0840 </r>
       <r>     3.9386     3.4958     5.1433 </r>
       <r>     3.9555     3.4392     5.2015 </r>
       <r>     3.9725     3.3980     5.2591 </r>
       <r>     3.9894     3.3714     5.3162 </r>
       <r>     4.0063     3.3579     5.3730 </r>
       <r>     4.0233     3.3555     5.4299 </r>
       <r>     4.0402     3.3620     5.4868 </r>
       <r>     4.0572     3.3747     5.5440 </r>
       <r>     4.0741     3.3912     5.6014 </r>
       <r>     4.0910     3.4092     5.6592 </r>
       <r>     4.1080     3.4266     5.7172 </r>
       <r>     4.1249     3.4420     5.7755 </r>
       <r>     4.1418     3.4543     5.8340 </r>
       <r>     4.1588     3.4628     5.8927 </r>
       <r>     4.1757     3.4674     5.9514 </r>
       <r>     4.1927     3.4683     6.0101 </r>
       <r>     4.2096     3.4657     6.0688 </r>
       <r>     4.2265     3.4603     6.1275 </r>
       <r>     4.2435     3.4523     6.1859 </r>
       <r>     4.2604     3.4421     6.2442 </r>
       <r>     4.2773     3.4296     6.3023 </r>
       <r>     4.2943     3.4146     6.3602 </r>
       <r>     4.3112     3.3967     6.4177 </r>
       <r>     4.3282     3.3753     6.4749 </r>
       <r>     4.3451     3.3497     6.5316 </r>
       <r>     4.3620     3.3191     6.5878 </r>
       <r>     4.3790     3.2829     6.6434 </r>
       <r>     4.3959     3.2407     6.6983 </r>
       <r>     4.4128     3.1924     6.7524 </r>
       <r>     4.4298     3.1382     6.8055 </r>
       <r>     4.4467     3.0785     6.8577 </r>
       <r>     4.4637     3.0144     6.9087 </r>
       <r>     4.4806     2.9472     6.9587 </r>
       <r>     4.4975     2.8785     7.0074 </r>
       <r>     4.5145     2.8105     7.0550 </r>
       <r>     4.5314     2.7455     7.1015 </r>
       <r>     4.5483     2.6864     7.1470 </r>
       <r>     4.5653     2.6361     7.1917 </r>
       <r>     4.5822     2.5977     7.2357 </r>
       <r>     4.5992     2.5745     7.2793 </r>
       <r>     4.6161     2.5696     7.3228 </r>
       <r>     4.6330     2.5860     7.3666 </r>
       <r>     4.6500     2.6262     7.4111 </r>
       <r>     4.6669     2.6921     7.4567 </r>
       <r>     4.6838     2.7845     7.5038 </r>
       <r>     4.7008     2.9036     7.5530 </r>
       <r>     4.7177     3.0479     7.6046 </r>
       <r>     4.7347     3.2148     7.6591 </r>
       <r>     4.7516     3.4003     7.7167 </r>
       <r>     4.7685     3.5990     7.7776 </r>
       <r>     4.7855     3.8043     7.8421 </r>
       <r>     4.8024     4.0090     7.9100 </r>
       <r>     4.8194     4.2051     7.9812 </r>
       <r>     4.8363     4.3845     8.0555 </r>
       <r>     4.8532     4.5395     8.1324 </r>
       <r>     4.8702     4.6633     8.2114 </r>
       <r>     4.8871     4.7499     8.2918 </r>
       <r>     4.9040     4.7951     8.3730 </r>
       <r>     4.9210     4.7967     8.4543 </r>
       <r>     4.9379     4.7540     8.5348 </r>
       <r>     4.9549     4.6686     8.6139 </r>
       <r>     4.9718     4.5439     8.6908 </r>
       <r>     4.9887     4.3849     8.7651 </r>
       <r>     5.0057     4.1979     8.8362 </r>
       <r>     5.0226     3.9903     8.9038 </r>
       <r>     5.0395     3.7696     8.9676 </r>
       <r>     5.0565     3.5437     9.0277 </r>
       <r>     5.0734     3.3199     9.0839 </r>
       <r>     5.0904     3.1046     9.1365 </r>
       <r>     5.1073     2.9035     9.1857 </r>
       <r>     5.1242     2.7207     9.2317 </r>
       <r>     5.1412     2.5588     9.2751 </r>
       <r>     5.1581     2.4195     9.3161 </r>
       <r>     5.1750     2.3028     9.3551 </r>
       <r>     5.1920     2.2076     9.3925 </r>
       <r>     5.2089     2.1323     9.4286 </r>
       <r>     5.2259     2.0742     9.4637 </r>
       <r>     5.2428     2.0305     9.4981 </r>
       <r>     5.2597     1.9982     9.5319 </r>
       <r>     5.2767     1.9744     9.5654 </r>
       <r>     5.2936     1.9566     9.5985 </r>
       <r>     5.3105     1.9427     9.6314 </r>
       <r>     5.3275     1.9310     9.6641 </r>
       <r>     5.3444     1.9206     9.6967 </r>
       <r>     5.3614     1.9110     9.7290 </r>
       <r>     5.3783     1.9024     9.7613 </r>
       <r>     5.3952     1.8955     9.7934 </r>
       <r>     5.4122     1.8912     9.8254 </r>
       <r>     5.4291     1.8909     9.8574 </r>
       <r>     5.4460     1.8962     9.8895 </r>
       <r>     5.4630     1.9088     9.9219 </r>
       <r>     5.4799     1.9302     9.9546 </r>
       <r>     5.4969     1.9620     9.9878 </r>
       <r>     5.5138     2.0053    10.0218 </r>
       <r>     5.5307     2.0611    10.0567 </r>
       <r>     5.5477     2.1299    10.0927 </r>
       <r>     5.5646     2.2116    10.1302 </r>
       <r>     5.5816     2.3061    10.1693 </r>
       <r>     5.5985     2.4125    10.2101 </r>
       <r>     5.6154     2.5298    10.2530 </r>
       <r>     5.6324     2.6570    10.2980 </r>
       <r>     5.6493     2.7926    10.3453 </r>
       <r>     5.6662     2.9357    10.3950 </r>
       <r>     5.6832     3.0855    10.4473 </r>
       <r>     5.7001     3.2413    10.5022 </r>
       <r>     5.7171     3.4032    10.5598 </r>
       <r>     5.7340     3.5713    10.6203 </r>
       <r>     5.7509     3.7463    10.6838 </r>
       <r>     5.7679     3.9289    10.7503 </r>
       <r>     5.7848     4.1197    10.8201 </r>
       <r>     5.8017     4.3191    10.8932 </r>
       <r>     5.8187     4.5271    10.9699 </r>
       <r>     5.8356     4.7428    11.0503 </r>
       <r>     5.8526     4.9644    11.1343 </r>
       <r>     5.8695     5.1894    11.2222 </r>
       <r>     5.8864     5.4142    11.3139 </r>
       <r>     5.9034     5.6349    11.4094 </r>
       <r>     5.9203     5.8466    11.5084 </r>
       <r>     5.9372     6.0445    11.6108 </r>
       <r>     5.9542     6.2241    11.7162 </r>
       <r>     5.9711     6.3809    11.8243 </r>
       <r>     5.9881     6.5116    11.9346 </r>
       <r>     6.0050     6.6136    12.0466 </r>
       <r>     6.0219     6.6854    12.1598 </r>
       <r>     6.0389     6.7264    12.2738 </r>
       <r>     6.0558     6.7371    12.3879 </r>
       <r>     6.0727     6.7186    12.5017 </r>
       <r>     6.0897     6.6729    12.6147 </r>
       <r>     6.1066     6.6022    12.7265 </r>
       <r>     6.1236     6.5087    12.8368 </r>
       <r>     6.1405     6.3950    12.9451 </r>
       <r>     6.1574     6.2634    13.0512 </r>
       <r>     6.1744     6.1163    13.1548 </r>
       <r>     6.1913     5.9558    13.2557 </r>
       <r>     6.2083     5.7841    13.3536 </r>
       <r>     6.2252     5.6036    13.4485 </r>
       <r>     6.2421     5.4166    13.5403 </r>
       <r>     6.2591     5.2255    13.6288 </r>
       <r>     6.2760     5.0332    13.7140 </r>
       <r>     6.2929     4.8425    13.7961 </r>
       <r>     6.3099     4.6564    13.8749 </r>
       <r>     6.3268     4.4782    13.9508 </r>
       <r>     6.3438     4.3108    14.0238 </r>
       <r>     6.3607     4.1571    14.0942 </r>
       <r>     6.3776     4.0198    14.1623 </r>
       <r>     6.3946     3.9009    14.2284 </r>
       <r>     6.4115     3.8021    14.2928 </r>
       <r>     6.4284     3.7243    14.3559 </r>
       <r>     6.4454     3.6675    14.4180 </r>
       <r>     6.4623     3.6310    14.4795 </r>
       <r>     6.4793     3.6133    14.5407 </r>
       <r>     6.4962     3.6118    14.6018 </r>
       <r>     6.5131     3.6235    14.6632 </r>
       <r>     6.5301     3.6444    14.7250 </r>
       <r>     6.5470     3.6704    14.7871 </r>
       <r>     6.5639     3.6968    14.8497 </r>
       <r>     6.5809     3.7193    14.9127 </r>
       <r>     6.5978     3.7337    14.9760 </r>
       <r>     6.6148     3.7366    15.0393 </r>
       <r>     6.6317     3.7252    15.1024 </r>
       <r>     6.6486     3.6980    15.1650 </r>
       <r>     6.6656     3.6546    15.2269 </r>
       <r>     6.6825     3.5957    15.2878 </r>
       <r>     6.6994     3.5234    15.3475 </r>
       <r>     6.7164     3.4407    15.4058 </r>
       <r>     6.7333     3.3512    15.4625 </r>
       <r>     6.7503     3.2593    15.5177 </r>
       <r>     6.7672     3.1694    15.5714 </r>
       <r>     6.7841     3.0857    15.6237 </r>
       <r>     6.8011     3.0119    15.6747 </r>
       <r>     6.8180     2.9508    15.7247 </r>
       <r>     6.8349     2.9043    15.7739 </r>
       <r>     6.8519     2.8730    15.8225 </r>
       <r>     6.8688     2.8564    15.8709 </r>
       <r>     6.8858     2.8528    15.9192 </r>
       <r>     6.9027     2.8594    15.9677 </r>
       <r>     6.9196     2.8730    16.0163 </r>
       <r>     6.9366     2.8894    16.0653 </r>
       <r>     6.9535     2.9044    16.1145 </r>
       <r>     6.9705     2.9140    16.1638 </r>
       <r>     6.9874     2.9142    16.2132 </r>
       <r>     7.0043     2.9018    16.2623 </r>
       <r>     7.0213     2.8742    16.3110 </r>
       <r>     7.0382     2.8297    16.3589 </r>
       <r>     7.0551     2.7674    16.4058 </r>
       <r>     7.0721     2.6872    16.4513 </r>
       <r>     7.0890     2.5900    16.4952 </r>
       <r>     7.1060     2.4771    16.5371 </r>
       <r>     7.1229     2.3507    16.5770 </r>
       <r>     7.1398     2.2130    16.6144 </r>
       <r>     7.1568     2.0668    16.6494 </r>
       <r>     7.1737     1.9149    16.6819 </r>
       <r>     7.1906     1.7602    16.7117 </r>
       <r>     7.2076     1.6055    16.7389 </r>
       <r>     7.2245     1.4535    16.7635 </r>
       <r>     7.2415     1.3066    16.7856 </r>
       <r>     7.2584     1.1670    16.8054 </r>
       <r>     7.2753     1.0365    16.8230 </r>
       <r>     7.2923     0.9165    16.8385 </r>
       <r>     7.3092     0.8083    16.8522 </r>
       <r>     7.3261     0.7126    16.8643 </r>
       <r>     7.3431     0.6297    16.8749 </r>
       <r>     7.3600     0.5595    16.8844 </r>
       <r>     7.3770     0.5016    16.8929 </r>
       <r>     7.3939     0.4553    16.9006 </r>
       <r>     7.4108     0.4195    16.9077 </r>
       <r>     7.4278     0.3930    16.9144 </r>
       <r>     7.4447     0.3745    16.9207 </r>
       <r>     7.4616     0.3625    16.9268 </r>
       <r>     7.4786     0.3555    16.9329 </r>
       <r>     7.4955     0.3523    16.9388 </r>
       <r>     7.5125     0.3517    16.9448 </r>
       <r>     7.5294     0.3527    16.9508 </r>
       <r>     7.5463     0.3544    16.9568 </r>
       <r>     7.5633     0.3563    16.9628 </r>
       <r>     7.5802     0.3579    16.9689 </r>
       <r>     7.5971     0.3590    16.9749 </r>
       <r>     7.6141     0.3594    16.9810 </r>
       <r>     7.6310     0.3592    16.9871 </r>
       <r>     7.6480     0.3585    16.9932 </r>
       <r>     7.6649     0.3574    16.9992 </r>
       <r>     7.6818     0.3559    17.0053 </r>
       <r>     7.6988     0.3543    17.0113 </r>
       <r>     7.7157     0.3527    17.0172 </r>
       <r>     7.7327     0.3511    17.0232 </r>
       <r>     7.7496     0.3497    17.0291 </r>
       <r>     7.7665     0.3485    17.0350 </r>
       <r>     7.7835     0.3475    17.0409 </r>
       <r>     7.8004     0.3468    17.0468 </r>
       <r>     7.8173     0.3464    17.0526 </r>
       <r>     7.8343     0.3463    17.0585 </r>
       <r>     7.8512     0.3464    17.0644 </r>
       <r>     7.8682     0.3469    17.0703 </r>
       <r>     7.8851     0.3476    17.0761 </r>
       <r>     7.9020     0.3486    17.0820 </r>
       <r>     7.9190     0.3499    17.0880 </r>
       <r>     7.9359     0.3515    17.0939 </r>
       <r>     7.9528     0.3536    17.0999 </r>
       <r>     7.9698     0.3563    17.1060 </r>
       <r>     7.9867     0.3598    17.1120 </r>
       <r>     8.0037     0.3643    17.1182 </r>
       <r>     8.0206     0.3702    17.1245 </r>
       <r>     8.0375     0.3778    17.1309 </r>
       <r>     8.0545     0.3874    17.1374 </r>
       <r>     8.0714     0.3994    17.1442 </r>
       <r>     8.0883     0.4141    17.1512 </r>
       <r>     8.1053     0.4316    17.1585 </r>
       <r>     8.1222     0.4521    17.1662 </r>
       <r>     8.1392     0.4756    17.1743 </r>
       <r>     8.1561     0.5017    17.1827 </r>
       <r>     8.1730     0.5302    17.1917 </r>
       <r>     8.1900     0.5606    17.2012 </r>
       <r>     8.2069     0.5923    17.2113 </r>
       <r>     8.2238     0.6245    17.2218 </r>
       <r>     8.2408     0.6566    17.2330 </r>
       <r>     8.2577     0.6879    17.2446 </r>
       <r>     8.2747     0.7177    17.2568 </r>
       <r>     8.2916     0.7455    17.2694 </r>
       <r>     8.3085     0.7710    17.2824 </r>
       <r>     8.3255     0.7939    17.2959 </r>
       <r>     8.3424     0.8144    17.3097 </r>
       <r>     8.3593     0.8325    17.3238 </r>
       <r>     8.3763     0.8485    17.3382 </r>
       <r>     8.3932     0.8629    17.3528 </r>
       <r>     8.4102     0.8760    17.3676 </r>
       <r>     8.4271     0.8882    17.3827 </r>
       <r>     8.4440     0.8997    17.3979 </r>
       <r>     8.4610     0.9108    17.4133 </r>
       <r>     8.4779     0.9213    17.4289 </r>
       <r>     8.4949     0.9311    17.4447 </r>
       <r>     8.5118     0.9399    17.4606 </r>
       <r>     8.5287     0.9472    17.4767 </r>
       <r>     8.5457     0.9526    17.4928 </r>
       <r>     8.5626     0.9556    17.5090 </r>
       <r>     8.5795     0.9557    17.5252 </r>
       <r>     8.5965     0.9527    17.5413 </r>
       <r>     8.6134     0.9463    17.5573 </r>
       <r>     8.6304     0.9366    17.5732 </r>
       <r>     8.6473     0.9236    17.5888 </r>
       <r>     8.6642     0.9078    17.6042 </r>
       <r>     8.6812     0.8895    17.6193 </r>
       <r>     8.6981     0.8692    17.6340 </r>
       <r>     8.7150     0.8474    17.6484 </r>
       <r>     8.7320     0.8248    17.6623 </r>
       <r>     8.7489     0.8018    17.6759 </r>
       <r>     8.7659     0.7791    17.6891 </r>
       <r>     8.7828     0.7570    17.7019 </r>
       <r>     8.7997     0.7359    17.7144 </r>
       <r>     8.8167     0.7163    17.7265 </r>
       <r>     8.8336     0.6984    17.7384 </r>
       <r>     8.8505     0.6824    17.7499 </r>
       <r>     8.8675     0.6686    17.7612 </r>
       <r>     8.8844     0.6570    17.7724 </r>
       <r>     8.9014     0.6478    17.7833 </r>
       <r>     8.9183     0.6407    17.7942 </r>
       <r>     8.9352     0.6359    17.8050 </r>
       <r>     8.9522     0.6329    17.8157 </r>
       <r>     8.9691     0.6317    17.8264 </r>
       <r>     8.9860     0.6317    17.8371 </r>
       <r>     9.0030     0.6328    17.8478 </r>
       <r>     9.0199     0.6343    17.8585 </r>
       <r>     9.0369     0.6359    17.8693 </r>
       <r>     9.0538     0.6372    17.8801 </r>
       <r>     9.0707     0.6379    17.8909 </r>
       <r>     9.0877     0.6377    17.9017 </r>
       <r>     9.1046     0.6365    17.9125 </r>
       <r>     9.1216     0.6342    17.9232 </r>
       <r>     9.1385     0.6309    17.9339 </r>
       <r>     9.1554     0.6268    17.9445 </r>
       <r>     9.1724     0.6222    17.9551 </r>
       <r>     9.1893     0.6175    17.9655 </r>
       <r>     9.2062     0.6130    17.9759 </r>
       <r>     9.2232     0.6090    17.9862 </r>
       <r>     9.2401     0.6059    17.9965 </r>
       <r>     9.2571     0.6036    18.0067 </r>
       <r>     9.2740     0.6024    18.0169 </r>
       <r>     9.2909     0.6018    18.0271 </r>
       <r>     9.3079     0.6018    18.0373 </r>
       <r>     9.3248     0.6017    18.0475 </r>
       <r>     9.3417     0.6012    18.0577 </r>
       <r>     9.3587     0.5997    18.0678 </r>
       <r>     9.3756     0.5966    18.0779 </r>
       <r>     9.3926     0.5918    18.0880 </r>
       <r>     9.4095     0.5849    18.0979 </r>
       <r>     9.4264     0.5760    18.1076 </r>
       <r>     9.4434     0.5653    18.1172 </r>
       <r>     9.4603     0.5530    18.1266 </r>
       <r>     9.4772     0.5398    18.1357 </r>
       <r>     9.4942     0.5262    18.1446 </r>
       <r>     9.5111     0.5128    18.1533 </r>
       <r>     9.5281     0.5004    18.1618 </r>
       <r>     9.5450     0.4893    18.1701 </r>
       <r>     9.5619     0.4800    18.1782 </r>
       <r>     9.5789     0.4727    18.1862 </r>
       <r>     9.5958     0.4675    18.1941 </r>
       <r>     9.6127     0.4644    18.2020 </r>
       <r>     9.6297     0.4631    18.2098 </r>
       <r>     9.6466     0.4635    18.2177 </r>
       <r>     9.6636     0.4650    18.2256 </r>
       <r>     9.6805     0.4675    18.2335 </r>
       <r>     9.6974     0.4705    18.2415 </r>
       <r>     9.7144     0.4738    18.2495 </r>
       <r>     9.7313     0.4771    18.2576 </r>
       <r>     9.7482     0.4802    18.2657 </r>
       <r>     9.7652     0.4831    18.2739 </r>
       <r>     9.7821     0.4856    18.2821 </r>
       <r>     9.7991     0.4878    18.2904 </r>
       <r>     9.8160     0.4897    18.2987 </r>
       <r>     9.8329     0.4913    18.3070 </r>
       <r>     9.8499     0.4927    18.3153 </r>
       <r>     9.8668     0.4938    18.3237 </r>
       <r>     9.8838     0.4946    18.3321 </r>
       <r>     9.9007     0.4952    18.3405 </r>
       <r>     9.9176     0.4953    18.3488 </r>
       <r>     9.9346     0.4949    18.3572 </r>
       <r>     9.9515     0.4938    18.3656 </r>
       <r>     9.9684     0.4919    18.3739 </r>
       <r>     9.9854     0.4890    18.3822 </r>
       <r>    10.0023     0.4850    18.3904 </r>
       <r>    10.0193     0.4799    18.3986 </r>
       <r>    10.0362     0.4735    18.4066 </r>
       <r>    10.0531     0.4661    18.4145 </r>
       <r>    10.0701     0.4577    18.4222 </r>
       <r>    10.0870     0.4485    18.4298 </r>
       <r>    10.1039     0.4388    18.4372 </r>
       <r>    10.1209     0.4288    18.4445 </r>
       <r>    10.1378     0.4189    18.4516 </r>
       <r>    10.1548     0.4093    18.4585 </r>
       <r>    10.1717     0.4004    18.4653 </r>
       <r>    10.1886     0.3923    18.4720 </r>
       <r>    10.2056     0.3853    18.4785 </r>
       <r>    10.2225     0.3793    18.4849 </r>
       <r>    10.2394     0.3745    18.4913 </r>
       <r>    10.2564     0.3708    18.4975 </r>
       <r>    10.2733     0.3680    18.5038 </r>
       <r>    10.2903     0.3661    18.5100 </r>
       <r>    10.3072     0.3648    18.5162 </r>
       <r>    10.3241     0.3640    18.5223 </r>
       <r>    10.3411     0.3632    18.5285 </r>
       <r>    10.3580     0.3625    18.5346 </r>
       <r>    10.3749     0.3615    18.5407 </r>
       <r>    10.3919     0.3602    18.5468 </r>
       <r>    10.4088     0.3585    18.5529 </r>
       <r>    10.4258     0.3564    18.5589 </r>
       <r>    10.4427     0.3540    18.5649 </r>
       <r>    10.4596     0.3514    18.5709 </r>
       <r>    10.4766     0.3489    18.5768 </r>
       <r>    10.4935     0.3466    18.5827 </r>
       <r>    10.5104     0.3449    18.5885 </r>
       <r>    10.5274     0.3441    18.5943 </r>
       <r>    10.5443     0.3443    18.6002 </r>
       <r>    10.5613     0.3456    18.6060 </r>
       <r>    10.5782     0.3483    18.6119 </r>
       <r>    10.5951     0.3521    18.6179 </r>
       <r>    10.6121     0.3570    18.6239 </r>
       <r>    10.6290     0.3627    18.6301 </r>
       <r>    10.6460     0.3688    18.6363 </r>
       <r>    10.6629     0.3750    18.6427 </r>
       <r>    10.6798     0.3807    18.6491 </r>
       <r>    10.6968     0.3856    18.6557 </r>
       <r>    10.7137     0.3892    18.6623 </r>
       <r>    10.7306     0.3913    18.6689 </r>
       <r>    10.7476     0.3915    18.6755 </r>
       <r>    10.7645     0.3898    18.6821 </r>
       <r>    10.7815     0.3861    18.6887 </r>
       <r>    10.7984     0.3806    18.6951 </r>
       <r>    10.8153     0.3732    18.7014 </r>
       <r>    10.8323     0.3643    18.7076 </r>
       <r>    10.8492     0.3540    18.7136 </r>
       <r>    10.8661     0.3425    18.7194 </r>
       <r>    10.8831     0.3301    18.7250 </r>
       <r>    10.9000     0.3169    18.7304 </r>
       <r>    10.9170     0.3031    18.7355 </r>
       <r>    10.9339     0.2890    18.7404 </r>
       <r>    10.9508     0.2746    18.7450 </r>
       <r>    10.9678     0.2601    18.7494 </r>
       <r>    10.9847     0.2459    18.7536 </r>
       <r>    11.0016     0.2321    18.7575 </r>
       <r>    11.0186     0.2192    18.7612 </r>
       <r>    11.0355     0.2075    18.7648 </r>
       <r>    11.0525     0.1974    18.7681 </r>
       <r>    11.0694     0.1893    18.7713 </r>
       <r>    11.0863     0.1835    18.7744 </r>
       <r>    11.1033     0.1804    18.7775 </r>
       <r>    11.1202     0.1800    18.7805 </r>
       <r>    11.1371     0.1826    18.7836 </r>
       <r>    11.1541     0.1879    18.7868 </r>
       <r>    11.1710     0.1957    18.7901 </r>
       <r>    11.1880     0.2057    18.7936 </r>
       <r>    11.2049     0.2173    18.7973 </r>
       <r>    11.2218     0.2299    18.8012 </r>
       <r>    11.2388     0.2429    18.8053 </r>
       <r>    11.2557     0.2556    18.8096 </r>
       <r>    11.2726     0.2675    18.8141 </r>
       <r>    11.2896     0.2780    18.8189 </r>
       <r>    11.3065     0.2867    18.8237 </r>
       <r>    11.3235     0.2934    18.8287 </r>
       <r>    11.3404     0.2978    18.8337 </r>
       <r>    11.3573     0.2999    18.8388 </r>
       <r>    11.3743     0.2999    18.8439 </r>
       <r>    11.3912     0.2980    18.8489 </r>
       <r>    11.4082     0.2945    18.8539 </r>
       <r>    11.4251     0.2898    18.8588 </r>
       <r>    11.4420     0.2844    18.8636 </r>
       <r>    11.4590     0.2786    18.8684 </r>
       <r>    11.4759     0.2730    18.8730 </r>
       <r>    11.4928     0.2680    18.8775 </r>
       <r>    11.5098     0.2640    18.8820 </r>
       <r>    11.5267     0.2613    18.8864 </r>
       <r>    11.5437     0.2601    18.8908 </r>
       <r>    11.5606     0.2605    18.8952 </r>
       <r>    11.5775     0.2627    18.8997 </r>
       <r>    11.5945     0.2667    18.9042 </r>
       <r>    11.6114     0.2723    18.9088 </r>
       <r>    11.6283     0.2794    18.9136 </r>
       <r>    11.6453     0.2878    18.9184 </r>
       <r>    11.6622     0.2974    18.9235 </r>
       <r>    11.6792     0.3078    18.9287 </r>
       <r>    11.6961     0.3189    18.9341 </r>
       <r>    11.7130     0.3306    18.9397 </r>
       <r>    11.7300     0.3428    18.9455 </r>
       <r>    11.7469     0.3553    18.9515 </r>
       <r>    11.7638     0.3681    18.9577 </r>
       <r>    11.7808     0.3814    18.9642 </r>
       <r>    11.7977     0.3950    18.9709 </r>
       <r>    11.8147     0.4091    18.9778 </r>
       <r>    11.8316     0.4237    18.9850 </r>
       <r>    11.8485     0.4389    18.9924 </r>
       <r>    11.8655     0.4546    19.0001 </r>
       <r>    11.8824     0.4707    19.0081 </r>
       <r>    11.8993     0.4873    19.0164 </r>
       <r>    11.9163     0.5043    19.0249 </r>
       <r>    11.9332     0.5215    19.0337 </r>
       <r>    11.9502     0.5389    19.0429 </r>
       <r>    11.9671     0.5564    19.0523 </r>
       <r>    11.9840     0.5740    19.0620 </r>
       <r>    12.0010     0.5916    19.0720 </r>
       <r>    12.0179     0.6092    19.0823 </r>
       <r>    12.0349     0.6268    19.0930 </r>
       <r>    12.0518     0.6442    19.1039 </r>
       <r>    12.0687     0.6615    19.1151 </r>
       <r>    12.0857     0.6783    19.1266 </r>
       <r>    12.1026     0.6944    19.1383 </r>
       <r>    12.1195     0.7096    19.1503 </r>
       <r>    12.1365     0.7234    19.1626 </r>
       <r>    12.1534     0.7355    19.1751 </r>
       <r>    12.1704     0.7455    19.1877 </r>
       <r>    12.1873     0.7533    19.2004 </r>
       <r>    12.2042     0.7585    19.2133 </r>
       <r>    12.2212     0.7614    19.2262 </r>
       <r>    12.2381     0.7620    19.2391 </r>
       <r>    12.2550     0.7605    19.2520 </r>
       <r>    12.2720     0.7575    19.2648 </r>
       <r>    12.2889     0.7534    19.2776 </r>
       <r>    12.3059     0.7487    19.2902 </r>
       <r>    12.3228     0.7438    19.3028 </r>
       <r>    12.3397     0.7392    19.3154 </r>
       <r>    12.3567     0.7352    19.3278 </r>
       <r>    12.3736     0.7318    19.3402 </r>
       <r>    12.3905     0.7291    19.3526 </r>
       <r>    12.4075     0.7270    19.3649 </r>
       <r>    12.4244     0.7255    19.3772 </r>
       <r>    12.4414     0.7242    19.3894 </r>
       <r>    12.4583     0.7231    19.4017 </r>
       <r>    12.4752     0.7219    19.4139 </r>
       <r>    12.4922     0.7207    19.4261 </r>
       <r>    12.5091     0.7194    19.4383 </r>
       <r>    12.5260     0.7180    19.4505 </r>
       <r>    12.5430     0.7165    19.4626 </r>
       <r>    12.5599     0.7151    19.4747 </r>
       <r>    12.5769     0.7135    19.4868 </r>
       <r>    12.5938     0.7119    19.4989 </r>
       <r>    12.6107     0.7100    19.5109 </r>
       <r>    12.6277     0.7075    19.5229 </r>
       <r>    12.6446     0.7042    19.5348 </r>
       <r>    12.6615     0.6998    19.5466 </r>
       <r>    12.6785     0.6941    19.5584 </r>
       <r>    12.6954     0.6867    19.5700 </r>
       <r>    12.7124     0.6776    19.5815 </r>
       <r>    12.7293     0.6669    19.5928 </r>
       <r>    12.7462     0.6549    19.6039 </r>
       <r>    12.7632     0.6419    19.6148 </r>
       <r>    12.7801     0.6286    19.6254 </r>
       <r>    12.7971     0.6154    19.6358 </r>
       <r>    12.8140     0.6031    19.6461 </r>
       <r>    12.8309     0.5923    19.6561 </r>
       <r>    12.8479     0.5835    19.6660 </r>
       <r>    12.8648     0.5770    19.6757 </r>
       <r>    12.8817     0.5729    19.6854 </r>
       <r>    12.8987     0.5713    19.6951 </r>
       <r>    12.9156     0.5720    19.7048 </r>
       <r>    12.9326     0.5745    19.7145 </r>
       <r>    12.9495     0.5784    19.7243 </r>
       <r>    12.9664     0.5831    19.7342 </r>
       <r>    12.9834     0.5881    19.7442 </r>
       <r>    13.0003     0.5929    19.7542 </r>
       <r>    13.0172     0.5972    19.7643 </r>
       <r>    13.0342     0.6005    19.7745 </r>
       <r>    13.0511     0.6029    19.7847 </r>
       <r>    13.0681     0.6042    19.7950 </r>
       <r>    13.0850     0.6043    19.8052 </r>
       <r>    13.1019     0.6036    19.8154 </r>
       <r>    13.1189     0.6020    19.8256 </r>
       <r>    13.1358     0.5996    19.8358 </r>
       <r>    13.1527     0.5968    19.8459 </r>
       <r>    13.1697     0.5934    19.8559 </r>
       <r>    13.1866     0.5898    19.8659 </r>
       <r>    13.2036     0.5858    19.8758 </r>
       <r>    13.2205     0.5817    19.8857 </r>
       <r>    13.2374     0.5774    19.8955 </r>
       <r>    13.2544     0.5732    19.9052 </r>
       <r>    13.2713     0.5691    19.9148 </r>
       <r>    13.2882     0.5651    19.9244 </r>
       <r>    13.3052     0.5615    19.9339 </r>
       <r>    13.3221     0.5583    19.9434 </r>
       <r>    13.3391     0.5555    19.9528 </r>
       <r>    13.3560     0.5532    19.9621 </r>
       <r>    13.3729     0.5511    19.9715 </r>
       <r>    13.3899     0.5493    19.9808 </r>
       <r>    13.4068     0.5476    19.9900 </r>
       <r>    13.4237     0.5456    19.9993 </r>
       <r>    13.4407     0.5433    20.0085 </r>
       <r>    13.4576     0.5404    20.0176 </r>
       <r>    13.4746     0.5368    20.0267 </r>
       <r>    13.4915     0.5326    20.0358 </r>
       <r>    13.5084     0.5278    20.0447 </r>
       <r>    13.5254     0.5226    20.0535 </r>
       <r>    13.5423     0.5173    20.0623 </r>
       <r>    13.5593     0.5123    20.0710 </r>
       <r>    13.5762     0.5077    20.0796 </r>
       <r>    13.5931     0.5039    20.0881 </r>
       <r>    13.6101     0.5012    20.0966 </r>
       <r>    13.6270     0.4995    20.1051 </r>
       <r>    13.6439     0.4989    20.1135 </r>
       <r>    13.6609     0.4992    20.1220 </r>
       <r>    13.6778     0.5001    20.1304 </r>
       <r>    13.6948     0.5014    20.1389 </r>
       <r>    13.7117     0.5028    20.1475 </r>
       <r>    13.7286     0.5038    20.1560 </r>
       <r>    13.7456     0.5044    20.1645 </r>
       <r>    13.7625     0.5044    20.1731 </r>
       <r>    13.7794     0.5037    20.1816 </r>
       <r>    13.7964     0.5024    20.1901 </r>
       <r>    13.8133     0.5007    20.1986 </r>
       <r>    13.8303     0.4989    20.2070 </r>
       <r>    13.8472     0.4972    20.2155 </r>
       <r>    13.8641     0.4959    20.2239 </r>
       <r>    13.8811     0.4951    20.2323 </r>
       <r>    13.8980     0.4950    20.2406 </r>
       <r>    13.9149     0.4956    20.2490 </r>
       <r>    13.9319     0.4969    20.2574 </r>
       <r>    13.9488     0.4989    20.2659 </r>
       <r>    13.9658     0.5016    20.2744 </r>
       <r>    13.9827     0.5049    20.2829 </r>
       <r>    13.9996     0.5087    20.2916 </r>
       <r>    14.0166     0.5131    20.3003 </r>
       <r>    14.0335     0.5179    20.3090 </r>
       <r>    14.0504     0.5233    20.3179 </r>
       <r>    14.0674     0.5291    20.3268 </r>
       <r>    14.0843     0.5352    20.3359 </r>
       <r>    14.1013     0.5414    20.3451 </r>
       <r>    14.1182     0.5476    20.3544 </r>
       <r>    14.1351     0.5533    20.3637 </r>
       <r>    14.1521     0.5581    20.3732 </r>
       <r>    14.1690     0.5618    20.3827 </r>
       <r>    14.1860     0.5640    20.3923 </r>
       <r>    14.2029     0.5644    20.4018 </r>
       <r>    14.2198     0.5631    20.4114 </r>
       <r>    14.2368     0.5602    20.4208 </r>
       <r>    14.2537     0.5561    20.4303 </r>
       <r>    14.2706     0.5512    20.4396 </r>
       <r>    14.2876     0.5463    20.4488 </r>
       <r>    14.3045     0.5421    20.4580 </r>
       <r>    14.3215     0.5396    20.4672 </r>
       <r>    14.3384     0.5394    20.4763 </r>
       <r>    14.3553     0.5421    20.4855 </r>
       <r>    14.3723     0.5480    20.4948 </r>
       <r>    14.3892     0.5572    20.5042 </r>
       <r>    14.4061     0.5694    20.5139 </r>
       <r>    14.4231     0.5840    20.5237 </r>
       <r>    14.4400     0.6002    20.5339 </r>
       <r>    14.4570     0.6169    20.5444 </r>
       <r>    14.4739     0.6330    20.5551 </r>
       <r>    14.4908     0.6474    20.5660 </r>
       <r>    14.5078     0.6592    20.5772 </r>
       <r>    14.5247     0.6675    20.5885 </r>
       <r>    14.5416     0.6719    20.5999 </r>
       <r>    14.5586     0.6722    20.6113 </r>
       <r>    14.5755     0.6685    20.6226 </r>
       <r>    14.5925     0.6612    20.6338 </r>
       <r>    14.6094     0.6509    20.6448 </r>
       <r>    14.6263     0.6382    20.6556 </r>
       <r>    14.6433     0.6240    20.6662 </r>
       <r>    14.6602     0.6090    20.6765 </r>
       <r>    14.6771     0.5938    20.6866 </r>
       <r>    14.6941     0.5791    20.6964 </r>
       <r>    14.7110     0.5651    20.7060 </r>
       <r>    14.7280     0.5522    20.7153 </r>
       <r>    14.7449     0.5406    20.7245 </r>
       <r>    14.7618     0.5305    20.7335 </r>
       <r>    14.7788     0.5219    20.7423 </r>
       <r>    14.7957     0.5149    20.7510 </r>
       <r>    14.8126     0.5098    20.7597 </r>
       <r>    14.8296     0.5066    20.7682 </r>
       <r>    14.8465     0.5054    20.7768 </r>
       <r>    14.8635     0.5064    20.7854 </r>
       <r>    14.8804     0.5095    20.7940 </r>
       <r>    14.8973     0.5146    20.8027 </r>
       <r>    14.9143     0.5215    20.8116 </r>
       <r>    14.9312     0.5296    20.8205 </r>
       <r>    14.9482     0.5384    20.8296 </r>
       <r>    14.9651     0.5473    20.8389 </r>
       <r>    14.9820     0.5553    20.8483 </r>
       <r>    14.9990     0.5620    20.8578 </r>
       <r>    15.0159     0.5665    20.8674 </r>
       <r>    15.0328     0.5686    20.8771 </r>
       <r>    15.0498     0.5681    20.8867 </r>
       <r>    15.0667     0.5650    20.8963 </r>
       <r>    15.0837     0.5597    20.9057 </r>
       <r>    15.1006     0.5530    20.9151 </r>
       <r>    15.1175     0.5457    20.9243 </r>
       <r>    15.1345     0.5388    20.9335 </r>
       <r>    15.1514     0.5333    20.9425 </r>
       <r>    15.1683     0.5302    20.9515 </r>
       <r>    15.1853     0.5301    20.9605 </r>
       <r>    15.2022     0.5337    20.9695 </r>
       <r>    15.2192     0.5411    20.9787 </r>
       <r>    15.2361     0.5522    20.9880 </r>
       <r>    15.2530     0.5665    20.9976 </r>
       <r>    15.2700     0.5832    21.0075 </r>
       <r>    15.2869     0.6014    21.0177 </r>
       <r>    15.3038     0.6199    21.0282 </r>
       <r>    15.3208     0.6379    21.0390 </r>
       <r>    15.3377     0.6541    21.0501 </r>
       <r>    15.3547     0.6680    21.0614 </r>
       <r>    15.3716     0.6788    21.0729 </r>
       <r>    15.3885     0.6865    21.0845 </r>
       <r>    15.4055     0.6910    21.0962 </r>
       <r>    15.4224     0.6926    21.1079 </r>
       <r>    15.4393     0.6921    21.1197 </r>
       <r>    15.4563     0.6900    21.1314 </r>
       <r>    15.4732     0.6874    21.1430 </r>
       <r>    15.4902     0.6849    21.1546 </r>
       <r>    15.5071     0.6836    21.1662 </r>
       <r>    15.5240     0.6841    21.1778 </r>
       <r>    15.5410     0.6870    21.1894 </r>
       <r>    15.5579     0.6927    21.2011 </r>
       <r>    15.5748     0.7012    21.2130 </r>
       <r>    15.5918     0.7125    21.2251 </r>
       <r>    15.6087     0.7263    21.2374 </r>
       <r>    15.6257     0.7421    21.2499 </r>
       <r>    15.6426     0.7591    21.2628 </r>
       <r>    15.6595     0.7766    21.2760 </r>
       <r>    15.6765     0.7936    21.2894 </r>
       <r>    15.6934     0.8092    21.3031 </r>
       <r>    15.7104     0.8225    21.3170 </r>
       <r>    15.7273     0.8327    21.3311 </r>
       <r>    15.7442     0.8392    21.3454 </r>
       <r>    15.7612     0.8416    21.3596 </r>
       <r>    15.7781     0.8397    21.3738 </r>
       <r>    15.7950     0.8336    21.3880 </r>
       <r>    15.8120     0.8238    21.4019 </r>
       <r>    15.8289     0.8109    21.4156 </r>
       <r>    15.8459     0.7958    21.4291 </r>
       <r>    15.8628     0.7794    21.4423 </r>
       <r>    15.8797     0.7627    21.4552 </r>
       <r>    15.8967     0.7468    21.4679 </r>
       <r>    15.9136     0.7324    21.4803 </r>
       <r>    15.9305     0.7203    21.4925 </r>
       <r>    15.9475     0.7108    21.5045 </r>
       <r>    15.9644     0.7040    21.5165 </r>
       <r>    15.9814     0.6999    21.5283 </r>
       <r>    15.9983     0.6981    21.5401 </r>
       <r>    16.0152     0.6980    21.5520 </r>
       <r>    16.0322     0.6990    21.5638 </r>
       <r>    16.0491     0.7003    21.5757 </r>
       <r>    16.0660     0.7013    21.5875 </r>
       <r>    16.0830     0.7014    21.5994 </r>
       <r>    16.0999     0.7001    21.6113 </r>
       <r>    16.1169     0.6971    21.6231 </r>
       <r>    16.1338     0.6924    21.6348 </r>
       <r>    16.1507     0.6862    21.6464 </r>
       <r>    16.1677     0.6788    21.6579 </r>
       <r>    16.1846     0.6708    21.6693 </r>
       <r>    16.2015     0.6629    21.6805 </r>
       <r>    16.2185     0.6558    21.6916 </r>
       <r>    16.2354     0.6503    21.7026 </r>
       <r>    16.2524     0.6471    21.7136 </r>
       <r>    16.2693     0.6469    21.7246 </r>
       <r>    16.2862     0.6501    21.7356 </r>
       <r>    16.3032     0.6570    21.7467 </r>
       <r>    16.3201     0.6676    21.7580 </r>
       <r>    16.3370     0.6818    21.7695 </r>
       <r>    16.3540     0.6989    21.7814 </r>
       <r>    16.3709     0.7185    21.7936 </r>
       <r>    16.3879     0.7395    21.8061 </r>
       <r>    16.4048     0.7609    21.8190 </r>
       <r>    16.4217     0.7817    21.8322 </r>
       <r>    16.4387     0.8006    21.8458 </r>
       <r>    16.4556     0.8165    21.8596 </r>
       <r>    16.4726     0.8285    21.8736 </r>
       <r>    16.4895     0.8359    21.8878 </r>
       <r>    16.5064     0.8379    21.9020 </r>
       <r>    16.5234     0.8344    21.9161 </r>
       <r>    16.5403     0.8252    21.9301 </r>
       <r>    16.5572     0.8107    21.9438 </r>
       <r>    16.5742     0.7913    21.9572 </r>
       <r>    16.5911     0.7677    21.9702 </r>
       <r>    16.6081     0.7410    21.9828 </r>
       <r>    16.6250     0.7120    21.9948 </r>
       <r>    16.6419     0.6819    22.0064 </r>
       <r>    16.6589     0.6516    22.0174 </r>
       <r>    16.6758     0.6222    22.0280 </r>
       <r>    16.6927     0.5945    22.0380 </r>
       <r>    16.7097     0.5693    22.0477 </r>
       <r>    16.7266     0.5470    22.0569 </r>
       <r>    16.7436     0.5281    22.0659 </r>
       <r>    16.7605     0.5127    22.0746 </r>
       <r>    16.7774     0.5008    22.0831 </r>
       <r>    16.7944     0.4923    22.0914 </r>
       <r>    16.8113     0.4870    22.0996 </r>
       <r>    16.8282     0.4844    22.1078 </r>
       <r>    16.8452     0.4843    22.1160 </r>
       <r>    16.8621     0.4861    22.1243 </r>
       <r>    16.8791     0.4893    22.1326 </r>
       <r>    16.8960     0.4936    22.1409 </r>
       <r>    16.9129     0.4985    22.1494 </r>
       <r>    16.9299     0.5037    22.1579 </r>
       <r>    16.9468     0.5089    22.1665 </r>
       <r>    16.9637     0.5139    22.1752 </r>
       <r>    16.9807     0.5187    22.1840 </r>
       <r>    16.9976     0.5231    22.1929 </r>
       <r>    17.0146     0.5273    22.2018 </r>
       <r>    17.0315     0.5314    22.2108 </r>
       <r>    17.0484     0.5358    22.2199 </r>
       <r>    17.0654     0.5407    22.2290 </r>
       <r>    17.0823     0.5465    22.2383 </r>
       <r>    17.0993     0.5535    22.2477 </r>
       <r>    17.1162     0.5620    22.2572 </r>
       <r>    17.1331     0.5722    22.2669 </r>
       <r>    17.1501     0.5843    22.2768 </r>
       <r>    17.1670     0.5983    22.2869 </r>
       <r>    17.1839     0.6142    22.2973 </r>
       <r>    17.2009     0.6317    22.3080 </r>
       <r>    17.2178     0.6505    22.3190 </r>
       <r>    17.2348     0.6701    22.3304 </r>
       <r>    17.2517     0.6899    22.3421 </r>
       <r>    17.2686     0.7092    22.3541 </r>
       <r>    17.2856     0.7274    22.3664 </r>
       <r>    17.3025     0.7437    22.3790 </r>
       <r>    17.3194     0.7573    22.3918 </r>
       <r>    17.3364     0.7677    22.4048 </r>
       <r>    17.3533     0.7745    22.4179 </r>
       <r>    17.3703     0.7772    22.4311 </r>
       <r>    17.3872     0.7757    22.4442 </r>
       <r>    17.4041     0.7703    22.4573 </r>
       <r>    17.4211     0.7612    22.4702 </r>
       <r>    17.4380     0.7490    22.4829 </r>
       <r>    17.4549     0.7344    22.4953 </r>
       <r>    17.4719     0.7181    22.5075 </r>
       <r>    17.4888     0.7011    22.5194 </r>
       <r>    17.5058     0.6841    22.5309 </r>
       <r>    17.5227     0.6679    22.5423 </r>
       <r>    17.5396     0.6530    22.5533 </r>
       <r>    17.5566     0.6401    22.5642 </r>
       <r>    17.5735     0.6293    22.5748 </r>
       <r>    17.5904     0.6207    22.5853 </r>
       <r>    17.6074     0.6141    22.5957 </r>
       <r>    17.6243     0.6095    22.6061 </r>
       <r>    17.6413     0.6064    22.6163 </r>
       <r>    17.6582     0.6043    22.6266 </r>
       <r>    17.6751     0.6030    22.6368 </r>
       <r>    17.6921     0.6019    22.6470 </r>
       <r>    17.7090     0.6009    22.6571 </r>
       <r>    17.7259     0.5998    22.6673 </r>
       <r>    17.7429     0.5985    22.6774 </r>
       <r>    17.7598     0.5973    22.6876 </r>
       <r>    17.7768     0.5963    22.6977 </r>
       <r>    17.7937     0.5960    22.7078 </r>
       <r>    17.8106     0.5970    22.7179 </r>
       <r>    17.8276     0.5998    22.7280 </r>
       <r>    17.8445     0.6051    22.7383 </r>
       <r>    17.8615     0.6131    22.7487 </r>
       <r>    17.8784     0.6244    22.7592 </r>
       <r>    17.8953     0.6390    22.7701 </r>
       <r>    17.9123     0.6569    22.7812 </r>
       <r>    17.9292     0.6777    22.7927 </r>
       <r>    17.9461     0.7008    22.8045 </r>
       <r>    17.9631     0.7255    22.8168 </r>
       <r>    17.9800     0.7509    22.8295 </r>
       <r>    17.9970     0.7761    22.8427 </r>
       <r>    18.0139     0.8001    22.8562 </r>
       <r>    18.0308     0.8222    22.8702 </r>
       <r>    18.0478     0.8417    22.8844 </r>
       <r>    18.0647     0.8583    22.8990 </r>
       <r>    18.0816     0.8718    22.9137 </r>
       <r>    18.0986     0.8821    22.9287 </r>
       <r>    18.1155     0.8896    22.9437 </r>
       <r>    18.1325     0.8943    22.9589 </r>
       <r>    18.1494     0.8968    22.9741 </r>
       <r>    18.1663     0.8971    22.9893 </r>
       <r>    18.1833     0.8954    23.0044 </r>
       <r>    18.2002     0.8917    23.0195 </r>
       <r>    18.2171     0.8858    23.0345 </r>
       <r>    18.2341     0.8775    23.0494 </r>
       <r>    18.2510     0.8663    23.0641 </r>
       <r>    18.2680     0.8520    23.0785 </r>
       <r>    18.2849     0.8342    23.0926 </r>
       <r>    18.3018     0.8129    23.1064 </r>
       <r>    18.3188     0.7881    23.1198 </r>
       <r>    18.3357     0.7603    23.1326 </r>
       <r>    18.3526     0.7302    23.1450 </r>
       <r>    18.3696     0.6989    23.1568 </r>
       <r>    18.3865     0.6674    23.1681 </r>
       <r>    18.4035     0.6373    23.1789 </r>
       <r>    18.4204     0.6100    23.1893 </r>
       <r>    18.4373     0.5868    23.1992 </r>
       <r>    18.4543     0.5690    23.2088 </r>
       <r>    18.4712     0.5575    23.2183 </r>
       <r>    18.4881     0.5528    23.2276 </r>
       <r>    18.5051     0.5553    23.2371 </r>
       <r>    18.5220     0.5645    23.2466 </r>
       <r>    18.5390     0.5799    23.2564 </r>
       <r>    18.5559     0.6004    23.2666 </r>
       <r>    18.5728     0.6248    23.2772 </r>
       <r>    18.5898     0.6514    23.2882 </r>
       <r>    18.6067     0.6789    23.2997 </r>
       <r>    18.6237     0.7057    23.3117 </r>
       <r>    18.6406     0.7303    23.3240 </r>
       <r>    18.6575     0.7518    23.3368 </r>
       <r>    18.6745     0.7692    23.3498 </r>
       <r>    18.6914     0.7820    23.3631 </r>
       <r>    18.7083     0.7902    23.3764 </r>
       <r>    18.7253     0.7938    23.3899 </r>
       <r>    18.7422     0.7933    23.4033 </r>
       <r>    18.7592     0.7893    23.4167 </r>
       <r>    18.7761     0.7825    23.4299 </r>
       <r>    18.7930     0.7738    23.4430 </r>
       <r>    18.8100     0.7639    23.4560 </r>
       <r>    18.8269     0.7534    23.4687 </r>
       <r>    18.8438     0.7427    23.4813 </r>
       <r>    18.8608     0.7322    23.4937 </r>
       <r>    18.8777     0.7218    23.5060 </r>
       <r>    18.8947     0.7117    23.5180 </r>
       <r>    18.9116     0.7015    23.5299 </r>
       <r>    18.9285     0.6910    23.5416 </r>
       <r>    18.9455     0.6798    23.5531 </r>
       <r>    18.9624     0.6678    23.5644 </r>
       <r>    18.9793     0.6547    23.5755 </r>
       <r>    18.9963     0.6403    23.5864 </r>
       <r>    19.0132     0.6247    23.5969 </r>
       <r>    19.0302     0.6078    23.6072 </r>
       <r>    19.0471     0.5898    23.6172 </r>
       <r>    19.0640     0.5708    23.6269 </r>
       <r>    19.0810     0.5510    23.6362 </r>
       <r>    19.0979     0.5306    23.6452 </r>
       <r>    19.1148     0.5097    23.6538 </r>
       <r>    19.1318     0.4883    23.6621 </r>
       <r>    19.1487     0.4666    23.6700 </r>
       <r>    19.1657     0.4446    23.6775 </r>
       <r>    19.1826     0.4223    23.6847 </r>
       <r>    19.1995     0.3999    23.6915 </r>
       <r>    19.2165     0.3774    23.6979 </r>
       <r>    19.2334     0.3551    23.7039 </r>
       <r>    19.2503     0.3331    23.7095 </r>
       <r>    19.2673     0.3119    23.7148 </r>
       <r>    19.2842     0.2918    23.7198 </r>
       <r>    19.3012     0.2732    23.7244 </r>
       <r>    19.3181     0.2565    23.7287 </r>
       <r>    19.3350     0.2419    23.7328 </r>
       <r>    19.3520     0.2297    23.7367 </r>
       <r>    19.3689     0.2201    23.7404 </r>
       <r>    19.3859     0.2131    23.7440 </r>
       <r>    19.4028     0.2086    23.7476 </r>
       <r>    19.4197     0.2064    23.7511 </r>
       <r>    19.4367     0.2061    23.7546 </r>
       <r>    19.4536     0.2075    23.7581 </r>
       <r>    19.4705     0.2100    23.7616 </r>
       <r>    19.4875     0.2132    23.7652 </r>
       <r>    19.5044     0.2166    23.7689 </r>
       <r>    19.5214     0.2198    23.7726 </r>
       <r>    19.5383     0.2224    23.7764 </r>
       <r>    19.5552     0.2240    23.7802 </r>
       <r>    19.5722     0.2244    23.7840 </r>
       <r>    19.5891     0.2234    23.7878 </r>
       <r>    19.6060     0.2208    23.7915 </r>
       <r>    19.6230     0.2165    23.7952 </r>
       <r>    19.6399     0.2106    23.7988 </r>
       <r>    19.6569     0.2030    23.8022 </r>
       <r>    19.6738     0.1940    23.8055 </r>
       <r>    19.6907     0.1836    23.8086 </r>
       <r>    19.7077     0.1721    23.8115 </r>
       <r>    19.7246     0.1598    23.8142 </r>
       <r>    19.7415     0.1469    23.8167 </r>
       <r>    19.7585     0.1339    23.8190 </r>
       <r>    19.7754     0.1210    23.8210 </r>
       <r>    19.7924     0.1085    23.8229 </r>
       <r>    19.8093     0.0968    23.8245 </r>
       <r>    19.8262     0.0862    23.8260 </r>
       <r>    19.8432     0.0769    23.8273 </r>
       <r>    19.8601     0.0690    23.8284 </r>
       <r>    19.8770     0.0627    23.8295 </r>
       <r>    19.8940     0.0581    23.8305 </r>
       <r>    19.9109     0.0551    23.8314 </r>
       <r>    19.9279     0.0536    23.8323 </r>
       <r>    19.9448     0.0536    23.8332 </r>
       <r>    19.9617     0.0548    23.8342 </r>
       <r>    19.9787     0.0570    23.8351 </r>
       <r>    19.9956     0.0598    23.8361 </r>
       <r>    20.0126     0.0631    23.8372 </r>
       <r>    20.0295     0.0666    23.8383 </r>
       <r>    20.0464     0.0700    23.8395 </r>
       <r>    20.0634     0.0730    23.8407 </r>
       <r>    20.0803     0.0756    23.8420 </r>
       <r>    20.0972     0.0776    23.8433 </r>
       <r>    20.1142     0.0790    23.8447 </r>
       <r>    20.1311     0.0799    23.8460 </r>
       <r>    20.1481     0.0801    23.8474 </r>
       <r>    20.1650     0.0800    23.8487 </r>
       <r>    20.1819     0.0796    23.8501 </r>
       <r>    20.1989     0.0790    23.8514 </r>
       <r>    20.2158     0.0784    23.8528 </r>
       <r>    20.2327     0.0778    23.8541 </r>
       <r>    20.2497     0.0773    23.8554 </r>
       <r>    20.2666     0.0770    23.8567 </r>
       <r>    20.2836     0.0769    23.8580 </r>
       <r>    20.3005     0.0768    23.8593 </r>
       <r>    20.3174     0.0768    23.8606 </r>
       <r>    20.3344     0.0768    23.8619 </r>
       <r>    20.3513     0.0767    23.8632 </r>
       <r>    20.3682     0.0764    23.8645 </r>
       <r>    20.3852     0.0759    23.8658 </r>
       <r>    20.4021     0.0753    23.8671 </r>
       <r>    20.4191     0.0745    23.8683 </r>
       <r>    20.4360     0.0737    23.8696 </r>
       <r>    20.4529     0.0729    23.8708 </r>
       <r>    20.4699     0.0722    23.8720 </r>
       <r>    20.4868     0.0717    23.8732 </r>
       <r>    20.5037     0.0715    23.8744 </r>
       <r>    20.5207     0.0715    23.8757 </r>
       <r>    20.5376     0.0719    23.8769 </r>
       <r>    20.5546     0.0724    23.8781 </r>
       <r>    20.5715     0.0730    23.8793 </r>
       <r>    20.5884     0.0737    23.8806 </r>
       <r>    20.6054     0.0741    23.8818 </r>
       <r>    20.6223     0.0741    23.8831 </r>
       <r>    20.6392     0.0735    23.8843 </r>
       <r>    20.6562     0.0722    23.8856 </r>
       <r>    20.6731     0.0702    23.8868 </r>
       <r>    20.6901     0.0673    23.8879 </r>
       <r>    20.7070     0.0637    23.8890 </r>
       <r>    20.7239     0.0594    23.8900 </r>
       <r>    20.7409     0.0546    23.8909 </r>
       <r>    20.7578     0.0495    23.8917 </r>
       <r>    20.7748     0.0443    23.8925 </r>
       <r>    20.7917     0.0392    23.8932 </r>
       <r>    20.8086     0.0347    23.8937 </r>
       <r>    20.8256     0.0307    23.8943 </r>
       <r>    20.8425     0.0275    23.8947 </r>
       <r>    20.8594     0.0252    23.8952 </r>
       <r>    20.8764     0.0238    23.8956 </r>
       <r>    20.8933     0.0233    23.8959 </r>
       <r>    20.9103     0.0236    23.8963 </r>
       <r>    20.9272     0.0246    23.8968 </r>
       <r>    20.9441     0.0261    23.8972 </r>
       <r>    20.9611     0.0280    23.8977 </r>
       <r>    20.9780     0.0302    23.8982 </r>
       <r>    20.9949     0.0326    23.8987 </r>
       <r>    21.0119     0.0349    23.8993 </r>
       <r>    21.0288     0.0373    23.9000 </r>
       <r>    21.0458     0.0396    23.9006 </r>
       <r>    21.0627     0.0419    23.9013 </r>
       <r>    21.0796     0.0442    23.9021 </r>
       <r>    21.0966     0.0464    23.9029 </r>
       <r>    21.1135     0.0487    23.9037 </r>
       <r>    21.1304     0.0509    23.9046 </r>
       <r>    21.1474     0.0529    23.9055 </r>
       <r>    21.1643     0.0549    23.9064 </r>
       <r>    21.1813     0.0565    23.9074 </r>
       <r>    21.1982     0.0578    23.9083 </r>
       <r>    21.2151     0.0586    23.9093 </r>
       <r>    21.2321     0.0588    23.9103 </r>
       <r>    21.2490     0.0583    23.9113 </r>
       <r>    21.2659     0.0572    23.9123 </r>
       <r>    21.2829     0.0554    23.9132 </r>
       <r>    21.2998     0.0530    23.9141 </r>
       <r>    21.3168     0.0501    23.9150 </r>
       <r>    21.3337     0.0470    23.9158 </r>
       <r>    21.3506     0.0437    23.9165 </r>
       <r>    21.3676     0.0405    23.9172 </r>
       <r>    21.3845     0.0377    23.9178 </r>
       <r>    21.4014     0.0354    23.9184 </r>
       <r>    21.4184     0.0337    23.9190 </r>
       <r>    21.4353     0.0327    23.9195 </r>
       <r>    21.4523     0.0325    23.9201 </r>
       <r>    21.4692     0.0331    23.9207 </r>
       <r>    21.4861     0.0343    23.9212 </r>
       <r>    21.5031     0.0360    23.9218 </r>
       <r>    21.5200     0.0380    23.9225 </r>
       <r>    21.5370     0.0402    23.9232 </r>
       <r>    21.5539     0.0423    23.9239 </r>
       <r>    21.5708     0.0443    23.9246 </r>
       <r>    21.5878     0.0458    23.9254 </r>
       <r>    21.6047     0.0469    23.9262 </r>
       <r>    21.6216     0.0476    23.9270 </r>
       <r>    21.6386     0.0477    23.9278 </r>
       <r>    21.6555     0.0474    23.9286 </r>
       <r>    21.6725     0.0468    23.9294 </r>
       <r>    21.6894     0.0459    23.9302 </r>
       <r>    21.7063     0.0449    23.9310 </r>
       <r>    21.7233     0.0440    23.9317 </r>
       <r>    21.7402     0.0431    23.9324 </r>
       <r>    21.7571     0.0424    23.9331 </r>
       <r>    21.7741     0.0418    23.9339 </r>
       <r>    21.7910     0.0415    23.9346 </r>
       <r>    21.8080     0.0414    23.9353 </r>
       <r>    21.8249     0.0414    23.9360 </r>
       <r>    21.8418     0.0414    23.9367 </r>
       <r>    21.8588     0.0415    23.9374 </r>
       <r>    21.8757     0.0416    23.9381 </r>
       <r>    21.8926     0.0415    23.9388 </r>
       <r>    21.9096     0.0412    23.9395 </r>
       <r>    21.9265     0.0408    23.9402 </r>
       <r>    21.9435     0.0402    23.9408 </r>
       <r>    21.9604     0.0395    23.9415 </r>
       <r>    21.9773     0.0386    23.9422 </r>
       <r>    21.9943     0.0375    23.9428 </r>
       <r>    22.0112     0.0364    23.9434 </r>
       <r>    22.0281     0.0353    23.9440 </r>
       <r>    22.0451     0.0342    23.9446 </r>
       <r>    22.0620     0.0332    23.9452 </r>
       <r>    22.0790     0.0323    23.9457 </r>
       <r>    22.0959     0.0315    23.9462 </r>
       <r>    22.1128     0.0308    23.9468 </r>
       <r>    22.1298     0.0302    23.9473 </r>
       <r>    22.1467     0.0296    23.9478 </r>
       <r>    22.1637     0.0290    23.9483 </r>
       <r>    22.1806     0.0283    23.9487 </r>
       <r>    22.1975     0.0275    23.9492 </r>
       <r>    22.2145     0.0266    23.9497 </r>
       <r>    22.2314     0.0254    23.9501 </r>
       <r>    22.2483     0.0241    23.9505 </r>
       <r>    22.2653     0.0225    23.9509 </r>
       <r>    22.2822     0.0208    23.9512 </r>
       <r>    22.2992     0.0190    23.9516 </r>
       <r>    22.3161     0.0172    23.9519 </r>
       <r>    22.3330     0.0154    23.9521 </r>
       <r>    22.3500     0.0138    23.9523 </r>
       <r>    22.3669     0.0124    23.9526 </r>
       <r>    22.3838     0.0113    23.9527 </r>
       <r>    22.4008     0.0105    23.9529 </r>
       <r>    22.4177     0.0101    23.9531 </r>
       <r>    22.4347     0.0100    23.9533 </r>
       <r>    22.4516     0.0102    23.9534 </r>
       <r>    22.4685     0.0107    23.9536 </r>
       <r>    22.4855     0.0114    23.9538 </r>
       <r>    22.5024     0.0123    23.9540 </r>
       <r>    22.5193     0.0133    23.9542 </r>
       <r>    22.5363     0.0144    23.9545 </r>
       <r>    22.5532     0.0156    23.9548 </r>
       <r>    22.5702     0.0169    23.9550 </r>
       <r>    22.5871     0.0184    23.9554 </r>
       <r>    22.6040     0.0201    23.9557 </r>
       <r>    22.6210     0.0221    23.9561 </r>
       <r>    22.6379     0.0243    23.9565 </r>
       <r>    22.6548     0.0268    23.9569 </r>
       <r>    22.6718     0.0296    23.9574 </r>
       <r>    22.6887     0.0325    23.9580 </r>
       <r>    22.7057     0.0355    23.9586 </r>
       <r>    22.7226     0.0385    23.9592 </r>
       <r>    22.7395     0.0412    23.9599 </r>
       <r>    22.7565     0.0436    23.9607 </r>
       <r>    22.7734     0.0456    23.9615 </r>
       <r>    22.7903     0.0469    23.9622 </r>
       <r>    22.8073     0.0475    23.9630 </r>
       <r>    22.8242     0.0473    23.9638 </r>
       <r>    22.8412     0.0465    23.9646 </r>
       <r>    22.8581     0.0450    23.9654 </r>
       <r>    22.8750     0.0429    23.9661 </r>
       <r>    22.8920     0.0406    23.9668 </r>
       <r>    22.9089     0.0380    23.9675 </r>
       <r>    22.9259     0.0355    23.9681 </r>
       <r>    22.9428     0.0332    23.9686 </r>
       <r>    22.9597     0.0312    23.9691 </r>
       <r>    22.9767     0.0297    23.9697 </r>
       <r>    22.9936     0.0286    23.9701 </r>
       <r>    23.0105     0.0281    23.9706 </r>
       <r>    23.0275     0.0281    23.9711 </r>
       <r>    23.0444     0.0284    23.9716 </r>
       <r>    23.0614     0.0290    23.9721 </r>
       <r>    23.0783     0.0296    23.9726 </r>
       <r>    23.0952     0.0303    23.9731 </r>
       <r>    23.1122     0.0308    23.9736 </r>
       <r>    23.1291     0.0310    23.9741 </r>
       <r>    23.1460     0.0308    23.9746 </r>
       <r>    23.1630     0.0302    23.9752 </r>
       <r>    23.1799     0.0292    23.9757 </r>
       <r>    23.1969     0.0277    23.9761 </r>
       <r>    23.2138     0.0258    23.9766 </r>
       <r>    23.2307     0.0236    23.9770 </r>
       <r>    23.2477     0.0211    23.9773 </r>
       <r>    23.2646     0.0184    23.9776 </r>
       <r>    23.2815     0.0158    23.9779 </r>
       <r>    23.2985     0.0131    23.9781 </r>
       <r>    23.3154     0.0106    23.9783 </r>
       <r>    23.3324     0.0082    23.9784 </r>
       <r>    23.3493     0.0061    23.9785 </r>
       <r>    23.3662     0.0042    23.9786 </r>
       <r>    23.3832     0.0027    23.9786 </r>
       <r>    23.4001     0.0014    23.9787 </r>
       <r>    23.4170     0.0004    23.9787 </r>
       <r>    23.4340    -0.0002    23.9787 </r>
       <r>    23.4509    -0.0006    23.9787 </r>
       <r>    23.4679    -0.0008    23.9787 </r>
       <r>    23.4848    -0.0007    23.9786 </r>
       <r>    23.5017    -0.0004    23.9786 </r>
       <r>    23.5187     0.0000    23.9786 </r>
       <r>    23.5356     0.0006    23.9786 </r>
       <r>    23.5525     0.0013    23.9787 </r>
       <r>    23.5695     0.0022    23.9787 </r>
       <r>    23.5864     0.0032    23.9788 </r>
       <r>    23.6034     0.0044    23.9788 </r>
       <r>    23.6203     0.0056    23.9789 </r>
       <r>    23.6372     0.0071    23.9790 </r>
       <r>    23.6542     0.0086    23.9792 </r>
       <r>    23.6711     0.0103    23.9794 </r>
       <r>    23.6881     0.0121    23.9796 </r>
       <r>    23.7050     0.0141    23.9798 </r>
       <r>    23.7219     0.0160    23.9801 </r>
       <r>    23.7389     0.0180    23.9804 </r>
       <r>    23.7558     0.0199    23.9807 </r>
       <r>    23.7727     0.0217    23.9811 </r>
       <r>    23.7897     0.0232    23.9815 </r>
       <r>    23.8066     0.0244    23.9819 </r>
       <r>    23.8236     0.0252    23.9823 </r>
       <r>    23.8405     0.0256    23.9828 </r>
       <r>    23.8574     0.0255    23.9832 </r>
       <r>    23.8744     0.0249    23.9836 </r>
       <r>    23.8913     0.0238    23.9840 </r>
       <r>    23.9082     0.0222    23.9844 </r>
       <r>    23.9252     0.0203    23.9847 </r>
       <r>    23.9421     0.0180    23.9850 </r>
       <r>    23.9591     0.0155    23.9853 </r>
       <r>    23.9760     0.0130    23.9855 </r>
       <r>    23.9929     0.0104    23.9857 </r>
       <r>    24.0099     0.0080    23.9858 </r>
       <r>    24.0268     0.0058    23.9859 </r>
       <r>    24.0437     0.0039    23.9860 </r>
       <r>    24.0607     0.0025    23.9860 </r>
       <r>    24.0776     0.0015    23.9861 </r>
       <r>    24.0946     0.0009    23.9861 </r>
       <r>    24.1115     0.0010    23.9861 </r>
       <r>    24.1284     0.0015    23.9861 </r>
       <r>    24.1454     0.0025    23.9862 </r>
       <r>    24.1623     0.0040    23.9862 </r>
       <r>    24.1792     0.0060    23.9863 </r>
       <r>    24.1962     0.0083    23.9865 </r>
       <r>    24.2131     0.0109    23.9867 </r>
       <r>    24.2301     0.0137    23.9869 </r>
       <r>    24.2470     0.0166    23.9872 </r>
       <r>    24.2639     0.0195    23.9875 </r>
       <r>    24.2809     0.0223    23.9879 </r>
       <r>    24.2978     0.0249    23.9883 </r>
       <r>    24.3147     0.0271    23.9888 </r>
       <r>    24.3317     0.0289    23.9893 </r>
       <r>    24.3486     0.0303    23.9898 </r>
       <r>    24.3656     0.0311    23.9903 </r>
       <r>    24.3825     0.0314    23.9908 </r>
       <r>    24.3994     0.0311    23.9914 </r>
       <r>    24.4164     0.0303    23.9919 </r>
       <r>    24.4333     0.0290    23.9924 </r>
       <r>    24.4503     0.0274    23.9928 </r>
       <r>    24.4672     0.0254    23.9933 </r>
       <r>    24.4841     0.0231    23.9936 </r>
       <r>    24.5011     0.0207    23.9940 </r>
       <r>    24.5180     0.0182    23.9943 </r>
       <r>    24.5349     0.0158    23.9946 </r>
       <r>    24.5519     0.0133    23.9948 </r>
       <r>    24.5688     0.0111    23.9950 </r>
       <r>    24.5858     0.0090    23.9951 </r>
       <r>    24.6027     0.0071    23.9953 </r>
       <r>    24.6196     0.0054    23.9953 </r>
       <r>    24.6366     0.0040    23.9954 </r>
       <r>    24.6535     0.0027    23.9955 </r>
       <r>    24.6704     0.0017    23.9955 </r>
       <r>    24.6874     0.0009    23.9955 </r>
       <r>    24.7043     0.0003    23.9955 </r>
       <r>    24.7213    -0.0001    23.9955 </r>
       <r>    24.7382    -0.0004    23.9955 </r>
       <r>    24.7551    -0.0006    23.9955 </r>
       <r>    24.7721    -0.0008    23.9955 </r>
       <r>    24.7890    -0.0008    23.9955 </r>
       <r>    24.8059    -0.0008    23.9955 </r>
       <r>    24.8229    -0.0008    23.9954 </r>
       <r>    24.8398    -0.0007    23.9954 </r>
       <r>    24.8568    -0.0006    23.9954 </r>
       <r>    24.8737    -0.0006    23.9954 </r>
       <r>    24.8906    -0.0005    23.9954 </r>
       <r>    24.9076    -0.0004    23.9954 </r>
       <r>    24.9245    -0.0004    23.9954 </r>
       <r>    24.9414    -0.0003    23.9954 </r>
       <r>    24.9584    -0.0003    23.9954 </r>
       <r>    24.9753    -0.0003    23.9954 </r>
       <r>    24.9923    -0.0003    23.9954 </r>
       <r>    25.0092    -0.0003    23.9954 </r>
       <r>    25.0261    -0.0004    23.9954 </r>
       <r>    25.0431    -0.0004    23.9953 </r>
       <r>    25.0600    -0.0005    23.9953 </r>
       <r>    25.0770    -0.0005    23.9953 </r>
       <r>    25.0939    -0.0006    23.9953 </r>
       <r>    25.1108    -0.0006    23.9953 </r>
       <r>    25.1278    -0.0007    23.9953 </r>
       <r>    25.1447    -0.0006    23.9953 </r>
       <r>    25.1616    -0.0006    23.9953 </r>
       <r>    25.1786    -0.0004    23.9953 </r>
       <r>    25.1955    -0.0001    23.9953 </r>
       <r>    25.2125     0.0003    23.9953 </r>
       <r>    25.2294     0.0008    23.9953 </r>
       <r>    25.2463     0.0015    23.9953 </r>
       <r>    25.2633     0.0023    23.9953 </r>
       <r>    25.2802     0.0033    23.9954 </r>
       <r>    25.2971     0.0044    23.9955 </r>
       <r>    25.3141     0.0056    23.9956 </r>
       <r>    25.3310     0.0068    23.9957 </r>
       <r>    25.3480     0.0081    23.9958 </r>
       <r>    25.3649     0.0094    23.9960 </r>
       <r>    25.3818     0.0105    23.9962 </r>
       <r>    25.3988     0.0116    23.9964 </r>
       <r>    25.4157     0.0124    23.9966 </r>
       <r>    25.4326     0.0130    23.9968 </r>
       <r>    25.4496     0.0134    23.9970 </r>
       <r>    25.4665     0.0134    23.9972 </r>
       <r>    25.4835     0.0132    23.9975 </r>
       <r>    25.5004     0.0127    23.9977 </r>
       <r>    25.5173     0.0121    23.9979 </r>
       <r>    25.5343     0.0112    23.9981 </r>
       <r>    25.5512     0.0102    23.9982 </r>
       <r>    25.5681     0.0091    23.9984 </r>
       <r>    25.5851     0.0081    23.9985 </r>
       <r>    25.6020     0.0071    23.9987 </r>
       <r>    25.6190     0.0062    23.9988 </r>
       <r>    25.6359     0.0054    23.9989 </r>
       <r>    25.6528     0.0048    23.9989 </r>
       <r>    25.6698     0.0044    23.9990 </r>
       <r>    25.6867     0.0040    23.9991 </r>
       <r>    25.7036     0.0039    23.9991 </r>
       <r>    25.7206     0.0038    23.9992 </r>
       <r>    25.7375     0.0037    23.9993 </r>
       <r>    25.7545     0.0037    23.9993 </r>
       <r>    25.7714     0.0037    23.9994 </r>
       <r>    25.7883     0.0036    23.9995 </r>
       <r>    25.8053     0.0036    23.9995 </r>
       <r>    25.8222     0.0034    23.9996 </r>
       <r>    25.8392     0.0032    23.9996 </r>
       <r>    25.8561     0.0029    23.9997 </r>
       <r>    25.8730     0.0026    23.9997 </r>
       <r>    25.8900     0.0022    23.9998 </r>
       <r>    25.9069     0.0018    23.9998 </r>
       <r>    25.9238     0.0015    23.9998 </r>
       <r>    25.9408     0.0011    23.9998 </r>
       <r>    25.9577     0.0008    23.9999 </r>
       <r>    25.9747     0.0005    23.9999 </r>
       <r>    25.9916     0.0003    23.9999 </r>
       <r>    26.0085     0.0001    23.9999 </r>
       <r>    26.0255    -0.0001    23.9999 </r>
       <r>    26.0424    -0.0002    23.9999 </r>
       <r>    26.0593    -0.0002    23.9999 </r>
       <r>    26.0763    -0.0003    23.9999 </r>
       <r>    26.0932    -0.0003    23.9998 </r>
       <r>    26.1102    -0.0003    23.9998 </r>
       <r>    26.1271    -0.0003    23.9998 </r>
       <r>    26.1440    -0.0002    23.9998 </r>
       <r>    26.1610    -0.0002    23.9998 </r>
       <r>    26.1779    -0.0002    23.9998 </r>
       <r>    26.1948    -0.0001    23.9998 </r>
       <r>    26.2118    -0.0001    23.9998 </r>
       <r>    26.2287    -0.0001    23.9998 </r>
       <r>    26.2457    -0.0000    23.9998 </r>
       <r>    26.2626     0.0000    23.9998 </r>
       <r>    26.2795     0.0001    23.9998 </r>
       <r>    26.2965     0.0001    23.9998 </r>
       <r>    26.3134     0.0002    23.9998 </r>
       <r>    26.3303     0.0003    23.9998 </r>
       <r>    26.3473     0.0004    23.9998 </r>
       <r>    26.3642     0.0004    23.9999 </r>
       <r>    26.3812     0.0005    23.9999 </r>
       <r>    26.3981     0.0006    23.9999 </r>
       <r>    26.4150     0.0006    23.9999 </r>
       <r>    26.4320     0.0007    23.9999 </r>
       <r>    26.4489     0.0007    23.9999 </r>
       <r>    26.4658     0.0007    23.9999 </r>
       <r>    26.4828     0.0007    23.9999 </r>
       <r>    26.4997     0.0007    23.9999 </r>
       <r>    26.5167     0.0007    24.0000 </r>
       <r>    26.5336     0.0006    24.0000 </r>
       <r>    26.5505     0.0006    24.0000 </r>
       <r>    26.5675     0.0005    24.0000 </r>
       <r>    26.5844     0.0004    24.0000 </r>
       <r>    26.6014     0.0003    24.0000 </r>
       <r>    26.6183     0.0003    24.0000 </r>
       <r>    26.6352     0.0002    24.0000 </r>
       <r>    26.6522     0.0002    24.0000 </r>
       <r>    26.6691     0.0001    24.0000 </r>
       <r>    26.6860     0.0001    24.0000 </r>
       <r>    26.7030     0.0000    24.0000 </r>
       <r>    26.7199    -0.0000    24.0000 </r>
       <r>    26.7369    -0.0000    24.0000 </r>
       <r>    26.7538    -0.0000    24.0000 </r>
       <r>    26.7707    -0.0000    24.0000 </r>
       <r>    26.7877    -0.0000    24.0000 </r>
       <r>    26.8046    -0.0000    24.0000 </r>
       <r>    26.8215    -0.0000    24.0000 </r>
       <r>    26.8385    -0.0000    24.0000 </r>
       <r>    26.8554    -0.0000    24.0000 </r>
       <r>    26.8724    -0.0000    24.0000 </r>
       <r>    26.8893    -0.0000    24.0000 </r>
       <r>    26.9062    -0.0000    24.0000 </r>
       <r>    26.9232    -0.0000    24.0000 </r>
       <r>    26.9401    -0.0000    24.0000 </r>
       <r>    26.9570    -0.0000    24.0000 </r>
       <r>    26.9740    -0.0000    24.0000 </r>
       <r>    26.9909    -0.0000    24.0000 </r>
       <r>    27.0079    -0.0000    24.0000 </r>
       <r>    27.0248    -0.0000    24.0000 </r>
       <r>    27.0417    -0.0000    24.0000 </r>
       <r>    27.0587    -0.0000    24.0000 </r>
       <r>    27.0756    -0.0000    24.0000 </r>
       <r>    27.0925    -0.0000    24.0000 </r>
       <r>    27.1095    -0.0000    24.0000 </r>
       <r>    27.1264    -0.0000    24.0000 </r>
       <r>    27.1434    -0.0000    24.0000 </r>
       <r>    27.1603    -0.0000    24.0000 </r>
       <r>    27.1772    -0.0000    24.0000 </r>
       <r>    27.1942    -0.0000    24.0000 </r>
       <r>    27.2111    -0.0000    24.0000 </r>
       <r>    27.2280    -0.0000    24.0000 </r>
       <r>    27.2450    -0.0000    24.0000 </r>
       <r>    27.2619    -0.0000    24.0000 </r>
       <r>    27.2789    -0.0000    24.0000 </r>
       <r>    27.2958    -0.0000    24.0000 </r>
       <r>    27.3127    -0.0000    24.0000 </r>
       <r>    27.3297    -0.0000    24.0000 </r>
       <r>    27.3466    -0.0000    24.0000 </r>
       <r>    27.3636    -0.0000    24.0000 </r>
       <r>    27.3805    -0.0000    24.0000 </r>
       <r>    27.3974    -0.0000    24.0000 </r>
       <r>    27.4144    -0.0000    24.0000 </r>
       <r>    27.4313    -0.0000    24.0000 </r>
       <r>    27.4482    -0.0000    24.0000 </r>
       <r>    27.4652    -0.0000    24.0000 </r>
       <r>    27.4821    -0.0000    24.0000 </r>
       <r>    27.4991    -0.0000    24.0000 </r>
       <r>    27.5160    -0.0000    24.0000 </r>
       <r>    27.5329    -0.0000    24.0000 </r>
       <r>    27.5499    -0.0000    24.0000 </r>
       <r>    27.5668    -0.0000    24.0000 </r>
       <r>    27.5837    -0.0000    24.0000 </r>
       <r>    27.6007    -0.0000    24.0000 </r>
       <r>    27.6176    -0.0000    24.0000 </r>
       <r>    27.6346    -0.0000    24.0000 </r>
       <r>    27.6515    -0.0000    24.0000 </r>
       <r>    27.6684    -0.0000    24.0000 </r>
       <r>    27.6854     0.0000    24.0000 </r>
       <r>    27.7023    -0.0000    24.0000 </r>
       <r>    27.7192     0.0000    24.0000 </r>
       <r>    27.7362     0.0000    24.0000 </r>
       <r>    27.7531     0.0000    24.0000 </r>
       <r>    27.7701     0.0000    24.0000 </r>
       <r>    27.7870     0.0000    24.0000 </r>
       <r>    27.8039     0.0000    24.0000 </r>
       <r>    27.8209     0.0000    24.0000 </r>
       <r>    27.8378     0.0000    24.0000 </r>
       <r>    27.8547     0.0000    24.0000 </r>
       <r>    27.8717     0.0000    24.0000 </r>
       <r>    27.8886     0.0000    24.0000 </r>
       <r>    27.9056     0.0000    24.0000 </r>
       <r>    27.9225     0.0000    24.0000 </r>
       <r>    27.9394     0.0000    24.0000 </r>
       <r>    27.9564     0.0000    24.0000 </r>
       <r>    27.9733     0.0000    24.0000 </r>
       <r>    27.9903     0.0000    24.0000 </r>
       <r>    28.0072     0.0000    24.0000 </r>
       <r>    28.0241     0.0000    24.0000 </r>
       <r>    28.0411     0.0000    24.0000 </r>
       <r>    28.0580     0.0000    24.0000 </r>
       <r>    28.0749     0.0000    24.0000 </r>
       <r>    28.0919     0.0000    24.0000 </r>
       <r>    28.1088     0.0000    24.0000 </r>
       <r>    28.1258     0.0000    24.0000 </r>
       <r>    28.1427     0.0000    24.0000 </r>
       <r>    28.1596     0.0000    24.0000 </r>
       <r>    28.1766     0.0000    24.0000 </r>
       <r>    28.1935     0.0000    24.0000 </r>
       <r>    28.2104     0.0000    24.0000 </r>
       <r>    28.2274     0.0000    24.0000 </r>
       <r>    28.2443     0.0000    24.0000 </r>
       <r>    28.2613     0.0000    24.0000 </r>
       <r>    28.2782     0.0000    24.0000 </r>
       <r>    28.2951     0.0000    24.0000 </r>
       <r>    28.3121     0.0000    24.0000 </r>
       <r>    28.3290     0.0000    24.0000 </r>
       <r>    28.3459     0.0000    24.0000 </r>
       <r>    28.3629     0.0000    24.0000 </r>
       <r>    28.3798     0.0000    24.0000 </r>
       <r>    28.3968     0.0000    24.0000 </r>
       <r>    28.4137     0.0000    24.0000 </r>
       <r>    28.4306     0.0000    24.0000 </r>
       <r>    28.4476     0.0000    24.0000 </r>
       <r>    28.4645     0.0000    24.0000 </r>
      </set>
      <set comment="spin 2">
       <r>    -5.3941     0.0000     0.0000 </r>
       <r>    -5.3772     0.0000     0.0000 </r>
       <r>    -5.3603     0.0000     0.0000 </r>
       <r>    -5.3433     0.0000     0.0000 </r>
       <r>    -5.3264     0.0000     0.0000 </r>
       <r>    -5.3094     0.0000     0.0000 </r>
       <r>    -5.2925     0.0000     0.0000 </r>
       <r>    -5.2756     0.0000     0.0000 </r>
       <r>    -5.2586     0.0000     0.0000 </r>
       <r>    -5.2417     0.0000     0.0000 </r>
       <r>    -5.2248     0.0000     0.0000 </r>
       <r>    -5.2078     0.0000     0.0000 </r>
       <r>    -5.1909     0.0000     0.0000 </r>
       <r>    -5.1739     0.0000     0.0000 </r>
       <r>    -5.1570     0.0000     0.0000 </r>
       <r>    -5.1401     0.0000     0.0000 </r>
       <r>    -5.1231     0.0000     0.0000 </r>
       <r>    -5.1062     0.0000     0.0000 </r>
       <r>    -5.0893     0.0000     0.0000 </r>
       <r>    -5.0723     0.0000     0.0000 </r>
       <r>    -5.0554     0.0000     0.0000 </r>
       <r>    -5.0384     0.0000     0.0000 </r>
       <r>    -5.0215     0.0000     0.0000 </r>
       <r>    -5.0046    -0.0000    -0.0000 </r>
       <r>    -4.9876    -0.0000    -0.0000 </r>
       <r>    -4.9707    -0.0000    -0.0000 </r>
       <r>    -4.9538    -0.0000    -0.0000 </r>
       <r>    -4.9368    -0.0000    -0.0000 </r>
       <r>    -4.9199    -0.0000    -0.0000 </r>
       <r>    -4.9029    -0.0000    -0.0000 </r>
       <r>    -4.8860    -0.0000    -0.0000 </r>
       <r>    -4.8691    -0.0000    -0.0000 </r>
       <r>    -4.8521    -0.0000    -0.0000 </r>
       <r>    -4.8352    -0.0000    -0.0000 </r>
       <r>    -4.8183    -0.0000    -0.0000 </r>
       <r>    -4.8013    -0.0000    -0.0000 </r>
       <r>    -4.7844    -0.0000    -0.0000 </r>
       <r>    -4.7674    -0.0000    -0.0000 </r>
       <r>    -4.7505    -0.0000    -0.0000 </r>
       <r>    -4.7336    -0.0000    -0.0000 </r>
       <r>    -4.7166    -0.0000    -0.0000 </r>
       <r>    -4.6997    -0.0000    -0.0000 </r>
       <r>    -4.6827    -0.0000    -0.0000 </r>
       <r>    -4.6658    -0.0000    -0.0000 </r>
       <r>    -4.6489    -0.0000    -0.0000 </r>
       <r>    -4.6319    -0.0000    -0.0000 </r>
       <r>    -4.6150    -0.0000    -0.0000 </r>
       <r>    -4.5981    -0.0000    -0.0000 </r>
       <r>    -4.5811    -0.0000    -0.0000 </r>
       <r>    -4.5642    -0.0000    -0.0000 </r>
       <r>    -4.5472    -0.0000    -0.0000 </r>
       <r>    -4.5303    -0.0000    -0.0000 </r>
       <r>    -4.5134    -0.0000    -0.0000 </r>
       <r>    -4.4964    -0.0000    -0.0000 </r>
       <r>    -4.4795    -0.0000    -0.0000 </r>
       <r>    -4.4626    -0.0000    -0.0000 </r>
       <r>    -4.4456    -0.0000    -0.0000 </r>
       <r>    -4.4287    -0.0000    -0.0000 </r>
       <r>    -4.4117    -0.0000    -0.0000 </r>
       <r>    -4.3948    -0.0000    -0.0000 </r>
       <r>    -4.3779    -0.0000    -0.0000 </r>
       <r>    -4.3609    -0.0000    -0.0000 </r>
       <r>    -4.3440    -0.0000    -0.0000 </r>
       <r>    -4.3271    -0.0000    -0.0000 </r>
       <r>    -4.3101    -0.0000    -0.0000 </r>
       <r>    -4.2932    -0.0000    -0.0000 </r>
       <r>    -4.2762    -0.0000    -0.0000 </r>
       <r>    -4.2593    -0.0000    -0.0000 </r>
       <r>    -4.2424    -0.0000    -0.0000 </r>
       <r>    -4.2254    -0.0000    -0.0000 </r>
       <r>    -4.2085    -0.0000    -0.0000 </r>
       <r>    -4.1916    -0.0000    -0.0000 </r>
       <r>    -4.1746    -0.0000    -0.0000 </r>
       <r>    -4.1577    -0.0000    -0.0000 </r>
       <r>    -4.1407    -0.0000    -0.0000 </r>
       <r>    -4.1238    -0.0000    -0.0000 </r>
       <r>    -4.1069    -0.0000    -0.0000 </r>
       <r>    -4.0899    -0.0000    -0.0000 </r>
       <r>    -4.0730    -0.0000    -0.0000 </r>
       <r>    -4.0561    -0.0000    -0.0000 </r>
       <r>    -4.0391    -0.0000    -0.0000 </r>
       <r>    -4.0222    -0.0000    -0.0000 </r>
       <r>    -4.0052    -0.0000    -0.0000 </r>
       <r>    -3.9883    -0.0000    -0.0000 </r>
       <r>    -3.9714    -0.0000    -0.0000 </r>
       <r>    -3.9544    -0.0000    -0.0000 </r>
       <r>    -3.9375    -0.0000    -0.0000 </r>
       <r>    -3.9205    -0.0000    -0.0000 </r>
       <r>    -3.9036    -0.0000    -0.0000 </r>
       <r>    -3.8867    -0.0000    -0.0000 </r>
       <r>    -3.8697    -0.0000    -0.0000 </r>
       <r>    -3.8528    -0.0001    -0.0000 </r>
       <r>    -3.8359    -0.0001    -0.0000 </r>
       <r>    -3.8189    -0.0001    -0.0000 </r>
       <r>    -3.8020    -0.0002    -0.0000 </r>
       <r>    -3.7850    -0.0002    -0.0000 </r>
       <r>    -3.7681    -0.0003    -0.0000 </r>
       <r>    -3.7512    -0.0004    -0.0000 </r>
       <r>    -3.7342    -0.0005    -0.0000 </r>
       <r>    -3.7173    -0.0006    -0.0000 </r>
       <r>    -3.7004    -0.0008    -0.0001 </r>
       <r>    -3.6834    -0.0009    -0.0001 </r>
       <r>    -3.6665    -0.0011    -0.0001 </r>
       <r>    -3.6495    -0.0013    -0.0001 </r>
       <r>    -3.6326    -0.0015    -0.0001 </r>
       <r>    -3.6157    -0.0016    -0.0002 </r>
       <r>    -3.5987    -0.0017    -0.0002 </r>
       <r>    -3.5818    -0.0016    -0.0002 </r>
       <r>    -3.5649    -0.0015    -0.0002 </r>
       <r>    -3.5479    -0.0012    -0.0003 </r>
       <r>    -3.5310    -0.0007    -0.0003 </r>
       <r>    -3.5140    -0.0000    -0.0003 </r>
       <r>    -3.4971     0.0009    -0.0003 </r>
       <r>    -3.4802     0.0022    -0.0002 </r>
       <r>    -3.4632     0.0038    -0.0002 </r>
       <r>    -3.4463     0.0057    -0.0001 </r>
       <r>    -3.4294     0.0079     0.0001 </r>
       <r>    -3.4124     0.0105     0.0002 </r>
       <r>    -3.3955     0.0134     0.0005 </r>
       <r>    -3.3785     0.0166     0.0008 </r>
       <r>    -3.3616     0.0200     0.0011 </r>
       <r>    -3.3447     0.0237     0.0015 </r>
       <r>    -3.3277     0.0274     0.0020 </r>
       <r>    -3.3108     0.0313     0.0025 </r>
       <r>    -3.2939     0.0351     0.0031 </r>
       <r>    -3.2769     0.0389     0.0037 </r>
       <r>    -3.2600     0.0427     0.0045 </r>
       <r>    -3.2430     0.0463     0.0053 </r>
       <r>    -3.2261     0.0498     0.0061 </r>
       <r>    -3.2092     0.0531     0.0070 </r>
       <r>    -3.1922     0.0562     0.0079 </r>
       <r>    -3.1753     0.0592     0.0090 </r>
       <r>    -3.1583     0.0621     0.0100 </r>
       <r>    -3.1414     0.0648     0.0111 </r>
       <r>    -3.1245     0.0675     0.0122 </r>
       <r>    -3.1075     0.0700     0.0134 </r>
       <r>    -3.0906     0.0725     0.0147 </r>
       <r>    -3.0737     0.0749     0.0159 </r>
       <r>    -3.0567     0.0773     0.0172 </r>
       <r>    -3.0398     0.0795     0.0186 </r>
       <r>    -3.0228     0.0817     0.0200 </r>
       <r>    -3.0059     0.0837     0.0214 </r>
       <r>    -2.9890     0.0855     0.0228 </r>
       <r>    -2.9720     0.0873     0.0243 </r>
       <r>    -2.9551     0.0888     0.0258 </r>
       <r>    -2.9382     0.0902     0.0273 </r>
       <r>    -2.9212     0.0915     0.0289 </r>
       <r>    -2.9043     0.0928     0.0305 </r>
       <r>    -2.8873     0.0940     0.0321 </r>
       <r>    -2.8704     0.0953     0.0337 </r>
       <r>    -2.8535     0.0967     0.0353 </r>
       <r>    -2.8365     0.0982     0.0370 </r>
       <r>    -2.8196     0.1000     0.0387 </r>
       <r>    -2.8027     0.1020     0.0404 </r>
       <r>    -2.7857     0.1041     0.0422 </r>
       <r>    -2.7688     0.1065     0.0440 </r>
       <r>    -2.7518     0.1090     0.0458 </r>
       <r>    -2.7349     0.1116     0.0477 </r>
       <r>    -2.7180     0.1140     0.0496 </r>
       <r>    -2.7010     0.1164     0.0516 </r>
       <r>    -2.6841     0.1184     0.0536 </r>
       <r>    -2.6672     0.1201     0.0556 </r>
       <r>    -2.6502     0.1214     0.0577 </r>
       <r>    -2.6333     0.1223     0.0598 </r>
       <r>    -2.6163     0.1227     0.0618 </r>
       <r>    -2.5994     0.1228     0.0639 </r>
       <r>    -2.5825     0.1227     0.0660 </r>
       <r>    -2.5655     0.1224     0.0681 </r>
       <r>    -2.5486     0.1223     0.0702 </r>
       <r>    -2.5317     0.1223     0.0722 </r>
       <r>    -2.5147     0.1227     0.0743 </r>
       <r>    -2.4978     0.1236     0.0764 </r>
       <r>    -2.4808     0.1251     0.0785 </r>
       <r>    -2.4639     0.1272     0.0807 </r>
       <r>    -2.4470     0.1299     0.0829 </r>
       <r>    -2.4300     0.1330     0.0851 </r>
       <r>    -2.4131     0.1365     0.0874 </r>
       <r>    -2.3961     0.1401     0.0898 </r>
       <r>    -2.3792     0.1437     0.0922 </r>
       <r>    -2.3623     0.1471     0.0947 </r>
       <r>    -2.3453     0.1500     0.0973 </r>
       <r>    -2.3284     0.1524     0.0999 </r>
       <r>    -2.3115     0.1541     0.1025 </r>
       <r>    -2.2945     0.1552     0.1051 </r>
       <r>    -2.2776     0.1556     0.1077 </r>
       <r>    -2.2606     0.1554     0.1104 </r>
       <r>    -2.2437     0.1548     0.1130 </r>
       <r>    -2.2268     0.1539     0.1156 </r>
       <r>    -2.2098     0.1529     0.1182 </r>
       <r>    -2.1929     0.1521     0.1208 </r>
       <r>    -2.1760     0.1514     0.1233 </r>
       <r>    -2.1590     0.1512     0.1259 </r>
       <r>    -2.1421     0.1514     0.1284 </r>
       <r>    -2.1251     0.1521     0.1310 </r>
       <r>    -2.1082     0.1532     0.1336 </r>
       <r>    -2.0913     0.1549     0.1362 </r>
       <r>    -2.0743     0.1568     0.1389 </r>
       <r>    -2.0574     0.1591     0.1416 </r>
       <r>    -2.0405     0.1614     0.1443 </r>
       <r>    -2.0235     0.1639     0.1471 </r>
       <r>    -2.0066     0.1664     0.1499 </r>
       <r>    -1.9896     0.1689     0.1528 </r>
       <r>    -1.9727     0.1713     0.1557 </r>
       <r>    -1.9558     0.1738     0.1586 </r>
       <r>    -1.9388     0.1762     0.1616 </r>
       <r>    -1.9219     0.1787     0.1646 </r>
       <r>    -1.9050     0.1812     0.1677 </r>
       <r>    -1.8880     0.1838     0.1708 </r>
       <r>    -1.8711     0.1864     0.1740 </r>
       <r>    -1.8541     0.1889     0.1772 </r>
       <r>    -1.8372     0.1912     0.1804 </r>
       <r>    -1.8203     0.1932     0.1837 </r>
       <r>    -1.8033     0.1948     0.1870 </r>
       <r>    -1.7864     0.1959     0.1903 </r>
       <r>    -1.7694     0.1964     0.1936 </r>
       <r>    -1.7525     0.1961     0.1970 </r>
       <r>    -1.7356     0.1952     0.2003 </r>
       <r>    -1.7186     0.1936     0.2035 </r>
       <r>    -1.7017     0.1915     0.2068 </r>
       <r>    -1.6848     0.1891     0.2100 </r>
       <r>    -1.6678     0.1866     0.2131 </r>
       <r>    -1.6509     0.1842     0.2163 </r>
       <r>    -1.6339     0.1823     0.2194 </r>
       <r>    -1.6170     0.1811     0.2224 </r>
       <r>    -1.6001     0.1809     0.2255 </r>
       <r>    -1.5831     0.1817     0.2286 </r>
       <r>    -1.5662     0.1838     0.2317 </r>
       <r>    -1.5493     0.1871     0.2348 </r>
       <r>    -1.5323     0.1915     0.2381 </r>
       <r>    -1.5154     0.1970     0.2414 </r>
       <r>    -1.4984     0.2032     0.2449 </r>
       <r>    -1.4815     0.2099     0.2484 </r>
       <r>    -1.4646     0.2167     0.2521 </r>
       <r>    -1.4476     0.2232     0.2559 </r>
       <r>    -1.4307     0.2292     0.2598 </r>
       <r>    -1.4138     0.2343     0.2637 </r>
       <r>    -1.3968     0.2383     0.2678 </r>
       <r>    -1.3799     0.2410     0.2718 </r>
       <r>    -1.3629     0.2423     0.2759 </r>
       <r>    -1.3460     0.2423     0.2801 </r>
       <r>    -1.3291     0.2411     0.2841 </r>
       <r>    -1.3121     0.2387     0.2882 </r>
       <r>    -1.2952     0.2356     0.2922 </r>
       <r>    -1.2783     0.2319     0.2961 </r>
       <r>    -1.2613     0.2280     0.3000 </r>
       <r>    -1.2444     0.2242     0.3038 </r>
       <r>    -1.2274     0.2207     0.3075 </r>
       <r>    -1.2105     0.2179     0.3112 </r>
       <r>    -1.1936     0.2160     0.3148 </r>
       <r>    -1.1766     0.2151     0.3185 </r>
       <r>    -1.1597     0.2152     0.3221 </r>
       <r>    -1.1428     0.2165     0.3258 </r>
       <r>    -1.1258     0.2189     0.3295 </r>
       <r>    -1.1089     0.2224     0.3333 </r>
       <r>    -1.0919     0.2268     0.3371 </r>
       <r>    -1.0750     0.2320     0.3410 </r>
       <r>    -1.0581     0.2377     0.3451 </r>
       <r>    -1.0411     0.2438     0.3492 </r>
       <r>    -1.0242     0.2501     0.3534 </r>
       <r>    -1.0072     0.2563     0.3578 </r>
       <r>    -0.9903     0.2622     0.3622 </r>
       <r>    -0.9734     0.2676     0.3668 </r>
       <r>    -0.9564     0.2723     0.3714 </r>
       <r>    -0.9395     0.2761     0.3760 </r>
       <r>    -0.9226     0.2789     0.3808 </r>
       <r>    -0.9056     0.2808     0.3855 </r>
       <r>    -0.8887     0.2817     0.3903 </r>
       <r>    -0.8717     0.2817     0.3951 </r>
       <r>    -0.8548     0.2811     0.3998 </r>
       <r>    -0.8379     0.2801     0.4046 </r>
       <r>    -0.8209     0.2791     0.4093 </r>
       <r>    -0.8040     0.2782     0.4140 </r>
       <r>    -0.7871     0.2780     0.4187 </r>
       <r>    -0.7701     0.2785     0.4234 </r>
       <r>    -0.7532     0.2800     0.4282 </r>
       <r>    -0.7362     0.2827     0.4330 </r>
       <r>    -0.7193     0.2865     0.4378 </r>
       <r>    -0.7024     0.2912     0.4428 </r>
       <r>    -0.6854     0.2967     0.4478 </r>
       <r>    -0.6685     0.3026     0.4529 </r>
       <r>    -0.6516     0.3087     0.4581 </r>
       <r>    -0.6346     0.3144     0.4635 </r>
       <r>    -0.6177     0.3194     0.4689 </r>
       <r>    -0.6007     0.3234     0.4743 </r>
       <r>    -0.5838     0.3261     0.4799 </r>
       <r>    -0.5669     0.3275     0.4854 </r>
       <r>    -0.5499     0.3274     0.4910 </r>
       <r>    -0.5330     0.3258     0.4965 </r>
       <r>    -0.5161     0.3230     0.5019 </r>
       <r>    -0.4991     0.3191     0.5074 </r>
       <r>    -0.4822     0.3145     0.5127 </r>
       <r>    -0.4652     0.3094     0.5179 </r>
       <r>    -0.4483     0.3042     0.5231 </r>
       <r>    -0.4314     0.2992     0.5281 </r>
       <r>    -0.4144     0.2948     0.5331 </r>
       <r>    -0.3975     0.2911     0.5381 </r>
       <r>    -0.3806     0.2885     0.5430 </r>
       <r>    -0.3636     0.2871     0.5478 </r>
       <r>    -0.3467     0.2869     0.5527 </r>
       <r>    -0.3297     0.2880     0.5576 </r>
       <r>    -0.3128     0.2902     0.5625 </r>
       <r>    -0.2959     0.2934     0.5674 </r>
       <r>    -0.2789     0.2972     0.5725 </r>
       <r>    -0.2620     0.3013     0.5776 </r>
       <r>    -0.2450     0.3054     0.5827 </r>
       <r>    -0.2281     0.3089     0.5880 </r>
       <r>    -0.2112     0.3115     0.5933 </r>
       <r>    -0.1942     0.3128     0.5986 </r>
       <r>    -0.1773     0.3126     0.6038 </r>
       <r>    -0.1604     0.3107     0.6091 </r>
       <r>    -0.1434     0.3073     0.6143 </r>
       <r>    -0.1265     0.3024     0.6194 </r>
       <r>    -0.1095     0.2964     0.6245 </r>
       <r>    -0.0926     0.2898     0.6294 </r>
       <r>    -0.0757     0.2831     0.6342 </r>
       <r>    -0.0587     0.2769     0.6389 </r>
       <r>    -0.0418     0.2717     0.6435 </r>
       <r>    -0.0249     0.2680     0.6480 </r>
       <r>    -0.0079     0.2661     0.6525 </r>
       <r>     0.0090     0.2664     0.6570 </r>
       <r>     0.0260     0.2688     0.6616 </r>
       <r>     0.0429     0.2732     0.6662 </r>
       <r>     0.0598     0.2792     0.6709 </r>
       <r>     0.0768     0.2865     0.6758 </r>
       <r>     0.0937     0.2944     0.6808 </r>
       <r>     0.1106     0.3024     0.6859 </r>
       <r>     0.1276     0.3100     0.6911 </r>
       <r>     0.1445     0.3165     0.6965 </r>
       <r>     0.1615     0.3217     0.7019 </r>
       <r>     0.1784     0.3251     0.7075 </r>
       <r>     0.1953     0.3269     0.7130 </r>
       <r>     0.2123     0.3269     0.7185 </r>
       <r>     0.2292     0.3255     0.7240 </r>
       <r>     0.2461     0.3230     0.7295 </r>
       <r>     0.2631     0.3199     0.7349 </r>
       <r>     0.2800     0.3167     0.7403 </r>
       <r>     0.2970     0.3139     0.7456 </r>
       <r>     0.3139     0.3120     0.7509 </r>
       <r>     0.3308     0.3113     0.7562 </r>
       <r>     0.3478     0.3123     0.7615 </r>
       <r>     0.3647     0.3149     0.7668 </r>
       <r>     0.3816     0.3193     0.7722 </r>
       <r>     0.3986     0.3252     0.7777 </r>
       <r>     0.4155     0.3326     0.7833 </r>
       <r>     0.4325     0.3409     0.7891 </r>
       <r>     0.4494     0.3499     0.7950 </r>
       <r>     0.4663     0.3591     0.8011 </r>
       <r>     0.4833     0.3681     0.8074 </r>
       <r>     0.5002     0.3766     0.8137 </r>
       <r>     0.5172     0.3843     0.8202 </r>
       <r>     0.5341     0.3909     0.8269 </r>
       <r>     0.5510     0.3964     0.8336 </r>
       <r>     0.5680     0.4005     0.8404 </r>
       <r>     0.5849     0.4035     0.8472 </r>
       <r>     0.6018     0.4052     0.8541 </r>
       <r>     0.6188     0.4058     0.8609 </r>
       <r>     0.6357     0.4056     0.8678 </r>
       <r>     0.6527     0.4045     0.8747 </r>
       <r>     0.6696     0.4029     0.8815 </r>
       <r>     0.6865     0.4009     0.8883 </r>
       <r>     0.7035     0.3987     0.8950 </r>
       <r>     0.7204     0.3966     0.9017 </r>
       <r>     0.7373     0.3948     0.9084 </r>
       <r>     0.7543     0.3936     0.9151 </r>
       <r>     0.7712     0.3932     0.9218 </r>
       <r>     0.7882     0.3938     0.9284 </r>
       <r>     0.8051     0.3957     0.9351 </r>
       <r>     0.8220     0.3991     0.9419 </r>
       <r>     0.8390     0.4042     0.9487 </r>
       <r>     0.8559     0.4110     0.9557 </r>
       <r>     0.8728     0.4197     0.9628 </r>
       <r>     0.8898     0.4301     0.9701 </r>
       <r>     0.9067     0.4423     0.9776 </r>
       <r>     0.9237     0.4560     0.9853 </r>
       <r>     0.9406     0.4710     0.9933 </r>
       <r>     0.9575     0.4869     1.0015 </r>
       <r>     0.9745     0.5033     1.0101 </r>
       <r>     0.9914     0.5198     1.0189 </r>
       <r>     1.0083     0.5358     1.0279 </r>
       <r>     1.0253     0.5507     1.0373 </r>
       <r>     1.0422     0.5639     1.0468 </r>
       <r>     1.0592     0.5749     1.0566 </r>
       <r>     1.0761     0.5830     1.0664 </r>
       <r>     1.0930     0.5877     1.0764 </r>
       <r>     1.1100     0.5887     1.0864 </r>
       <r>     1.1269     0.5857     1.0963 </r>
       <r>     1.1439     0.5785     1.1061 </r>
       <r>     1.1608     0.5672     1.1157 </r>
       <r>     1.1777     0.5520     1.1250 </r>
       <r>     1.1947     0.5332     1.1341 </r>
       <r>     1.2116     0.5116     1.1427 </r>
       <r>     1.2285     0.4876     1.1510 </r>
       <r>     1.2455     0.4622     1.1588 </r>
       <r>     1.2624     0.4361     1.1662 </r>
       <r>     1.2794     0.4101     1.1731 </r>
       <r>     1.2963     0.3852     1.1797 </r>
       <r>     1.3132     0.3621     1.1858 </r>
       <r>     1.3302     0.3414     1.1916 </r>
       <r>     1.3471     0.3237     1.1971 </r>
       <r>     1.3640     0.3093     1.2023 </r>
       <r>     1.3810     0.2984     1.2074 </r>
       <r>     1.3979     0.2913     1.2123 </r>
       <r>     1.4149     0.2877     1.2172 </r>
       <r>     1.4318     0.2874     1.2220 </r>
       <r>     1.4487     0.2903     1.2270 </r>
       <r>     1.4657     0.2958     1.2320 </r>
       <r>     1.4826     0.3035     1.2371 </r>
       <r>     1.4995     0.3130     1.2424 </r>
       <r>     1.5165     0.3238     1.2479 </r>
       <r>     1.5334     0.3354     1.2536 </r>
       <r>     1.5504     0.3475     1.2595 </r>
       <r>     1.5673     0.3598     1.2656 </r>
       <r>     1.5842     0.3721     1.2719 </r>
       <r>     1.6012     0.3840     1.2784 </r>
       <r>     1.6181     0.3956     1.2851 </r>
       <r>     1.6350     0.4067     1.2919 </r>
       <r>     1.6520     0.4174     1.2990 </r>
       <r>     1.6689     0.4276     1.3063 </r>
       <r>     1.6859     0.4374     1.3137 </r>
       <r>     1.7028     0.4468     1.3212 </r>
       <r>     1.7197     0.4559     1.3290 </r>
       <r>     1.7367     0.4647     1.3368 </r>
       <r>     1.7536     0.4732     1.3448 </r>
       <r>     1.7705     0.4816     1.3530 </r>
       <r>     1.7875     0.4897     1.3613 </r>
       <r>     1.8044     0.4978     1.3697 </r>
       <r>     1.8214     0.5059     1.3783 </r>
       <r>     1.8383     0.5140     1.3870 </r>
       <r>     1.8552     0.5225     1.3959 </r>
       <r>     1.8722     0.5313     1.4049 </r>
       <r>     1.8891     0.5407     1.4140 </r>
       <r>     1.9061     0.5509     1.4233 </r>
       <r>     1.9230     0.5621     1.4329 </r>
       <r>     1.9399     0.5745     1.4426 </r>
       <r>     1.9569     0.5882     1.4526 </r>
       <r>     1.9738     0.6033     1.4628 </r>
       <r>     1.9907     0.6198     1.4733 </r>
       <r>     2.0077     0.6377     1.4841 </r>
       <r>     2.0246     0.6568     1.4952 </r>
       <r>     2.0416     0.6771     1.5067 </r>
       <r>     2.0585     0.6982     1.5185 </r>
       <r>     2.0754     0.7197     1.5307 </r>
       <r>     2.0924     0.7413     1.5432 </r>
       <r>     2.1093     0.7626     1.5562 </r>
       <r>     2.1262     0.7831     1.5694 </r>
       <r>     2.1432     0.8023     1.5830 </r>
       <r>     2.1601     0.8200     1.5969 </r>
       <r>     2.1771     0.8358     1.6111 </r>
       <r>     2.1940     0.8496     1.6254 </r>
       <r>     2.2109     0.8613     1.6400 </r>
       <r>     2.2279     0.8711     1.6548 </r>
       <r>     2.2448     0.8792     1.6697 </r>
       <r>     2.2617     0.8861     1.6847 </r>
       <r>     2.2787     0.8922     1.6998 </r>
       <r>     2.2956     0.8980     1.7150 </r>
       <r>     2.3126     0.9042     1.7303 </r>
       <r>     2.3295     0.9112     1.7458 </r>
       <r>     2.3464     0.9195     1.7613 </r>
       <r>     2.3634     0.9293     1.7771 </r>
       <r>     2.3803     0.9408     1.7930 </r>
       <r>     2.3972     0.9541     1.8092 </r>
       <r>     2.4142     0.9689     1.8256 </r>
       <r>     2.4311     0.9851     1.8423 </r>
       <r>     2.4481     1.0022     1.8592 </r>
       <r>     2.4650     1.0200     1.8765 </r>
       <r>     2.4819     1.0380     1.8941 </r>
       <r>     2.4989     1.0558     1.9120 </r>
       <r>     2.5158     1.0731     1.9302 </r>
       <r>     2.5327     1.0895     1.9486 </r>
       <r>     2.5497     1.1048     1.9673 </r>
       <r>     2.5666     1.1186     1.9863 </r>
       <r>     2.5836     1.1308     2.0054 </r>
       <r>     2.6005     1.1410     2.0248 </r>
       <r>     2.6174     1.1490     2.0442 </r>
       <r>     2.6344     1.1545     2.0638 </r>
       <r>     2.6513     1.1574     2.0834 </r>
       <r>     2.6683     1.1574     2.1030 </r>
       <r>     2.6852     1.1547     2.1225 </r>
       <r>     2.7021     1.1491     2.1420 </r>
       <r>     2.7191     1.1412     2.1613 </r>
       <r>     2.7360     1.1312     2.1805 </r>
       <r>     2.7529     1.1200     2.1995 </r>
       <r>     2.7699     1.1086     2.2182 </r>
       <r>     2.7868     1.0979     2.2368 </r>
       <r>     2.8038     1.0892     2.2553 </r>
       <r>     2.8207     1.0838     2.2736 </r>
       <r>     2.8376     1.0829     2.2920 </r>
       <r>     2.8546     1.0875     2.3104 </r>
       <r>     2.8715     1.0984     2.3290 </r>
       <r>     2.8884     1.1160     2.3479 </r>
       <r>     2.9054     1.1404     2.3672 </r>
       <r>     2.9223     1.1709     2.3871 </r>
       <r>     2.9393     1.2067     2.4075 </r>
       <r>     2.9562     1.2464     2.4286 </r>
       <r>     2.9731     1.2881     2.4504 </r>
       <r>     2.9901     1.3299     2.4729 </r>
       <r>     3.0070     1.3697     2.4961 </r>
       <r>     3.0239     1.4053     2.5199 </r>
       <r>     3.0409     1.4348     2.5442 </r>
       <r>     3.0578     1.4568     2.5689 </r>
       <r>     3.0748     1.4701     2.5938 </r>
       <r>     3.0917     1.4741     2.6188 </r>
       <r>     3.1086     1.4688     2.6437 </r>
       <r>     3.1256     1.4546     2.6683 </r>
       <r>     3.1425     1.4326     2.6926 </r>
       <r>     3.1594     1.4041     2.7164 </r>
       <r>     3.1764     1.3707     2.7396 </r>
       <r>     3.1933     1.3342     2.7622 </r>
       <r>     3.2103     1.2964     2.7841 </r>
       <r>     3.2272     1.2590     2.8055 </r>
       <r>     3.2441     1.2232     2.8262 </r>
       <r>     3.2611     1.1903     2.8463 </r>
       <r>     3.2780     1.1609     2.8660 </r>
       <r>     3.2950     1.1355     2.8852 </r>
       <r>     3.3119     1.1142     2.9041 </r>
       <r>     3.3288     1.0968     2.9227 </r>
       <r>     3.3458     1.0831     2.9410 </r>
       <r>     3.3627     1.0730     2.9592 </r>
       <r>     3.3796     1.0664     2.9773 </r>
       <r>     3.3966     1.0637     2.9953 </r>
       <r>     3.4135     1.0653     3.0133 </r>
       <r>     3.4305     1.0725     3.0315 </r>
       <r>     3.4474     1.0868     3.0499 </r>
       <r>     3.4643     1.1100     3.0687 </r>
       <r>     3.4813     1.1445     3.0881 </r>
       <r>     3.4982     1.1927     3.1083 </r>
       <r>     3.5151     1.2570     3.1296 </r>
       <r>     3.5321     1.3396     3.1523 </r>
       <r>     3.5490     1.4424     3.1767 </r>
       <r>     3.5660     1.5664     3.2032 </r>
       <r>     3.5829     1.7120     3.2322 </r>
       <r>     3.5998     1.8786     3.2640 </r>
       <r>     3.6168     2.0647     3.2990 </r>
       <r>     3.6337     2.2676     3.3374 </r>
       <r>     3.6506     2.4840     3.3795 </r>
       <r>     3.6676     2.7097     3.4254 </r>
       <r>     3.6845     2.9400     3.4752 </r>
       <r>     3.7015     3.1697     3.5289 </r>
       <r>     3.7184     3.3936     3.5864 </r>
       <r>     3.7353     3.6066     3.6474 </r>
       <r>     3.7523     3.8038     3.7119 </r>
       <r>     3.7692     3.9807     3.7793 </r>
       <r>     3.7861     4.1337     3.8493 </r>
       <r>     3.8031     4.2594     3.9215 </r>
       <r>     3.8200     4.3554     3.9952 </r>
       <r>     3.8370     4.4201     4.0701 </r>
       <r>     3.8539     4.4525     4.1455 </r>
       <r>     3.8708     4.4524     4.2209 </r>
       <r>     3.8878     4.4205     4.2958 </r>
       <r>     3.9047     4.3581     4.3696 </r>
       <r>     3.9216     4.2673     4.4419 </r>
       <r>     3.9386     4.1509     4.5122 </r>
       <r>     3.9555     4.0124     4.5802 </r>
       <r>     3.9725     3.8561     4.6455 </r>
       <r>     3.9894     3.6868     4.7079 </r>
       <r>     4.0063     3.5097     4.7674 </r>
       <r>     4.0233     3.3306     4.8238 </r>
       <r>     4.0402     3.1553     4.8772 </r>
       <r>     4.0572     2.9896     4.9279 </r>
       <r>     4.0741     2.8390     4.9759 </r>
       <r>     4.0910     2.7086     5.0218 </r>
       <r>     4.1080     2.6025     5.0659 </r>
       <r>     4.1249     2.5241     5.1087 </r>
       <r>     4.1418     2.4754     5.1506 </r>
       <r>     4.1588     2.4573     5.1922 </r>
       <r>     4.1757     2.4692     5.2340 </r>
       <r>     4.1927     2.5092     5.2765 </r>
       <r>     4.2096     2.5744     5.3201 </r>
       <r>     4.2265     2.6607     5.3652 </r>
       <r>     4.2435     2.7634     5.4120 </r>
       <r>     4.2604     2.8773     5.4607 </r>
       <r>     4.2773     2.9971     5.5115 </r>
       <r>     4.2943     3.1178     5.5643 </r>
       <r>     4.3112     3.2348     5.6191 </r>
       <r>     4.3282     3.3444     5.6758 </r>
       <r>     4.3451     3.4436     5.7341 </r>
       <r>     4.3620     3.5305     5.7939 </r>
       <r>     4.3790     3.6040     5.8549 </r>
       <r>     4.3959     3.6639     5.9170 </r>
       <r>     4.4128     3.7106     5.9798 </r>
       <r>     4.4298     3.7447     6.0433 </r>
       <r>     4.4467     3.7671     6.1071 </r>
       <r>     4.4637     3.7787     6.1711 </r>
       <r>     4.4806     3.7800     6.2351 </r>
       <r>     4.4975     3.7712     6.2990 </r>
       <r>     4.5145     3.7522     6.3625 </r>
       <r>     4.5314     3.7227     6.4256 </r>
       <r>     4.5483     3.6823     6.4879 </r>
       <r>     4.5653     3.6304     6.5494 </r>
       <r>     4.5822     3.5668     6.6098 </r>
       <r>     4.5992     3.4915     6.6690 </r>
       <r>     4.6161     3.4053     6.7267 </r>
       <r>     4.6330     3.3092     6.7827 </r>
       <r>     4.6500     3.2047     6.8370 </r>
       <r>     4.6669     3.0942     6.8894 </r>
       <r>     4.6838     2.9799     6.9399 </r>
       <r>     4.7008     2.8646     6.9884 </r>
       <r>     4.7177     2.7510     7.0350 </r>
       <r>     4.7347     2.6419     7.0797 </r>
       <r>     4.7516     2.5398     7.1228 </r>
       <r>     4.7685     2.4470     7.1642 </r>
       <r>     4.7855     2.3657     7.2043 </r>
       <r>     4.8024     2.2977     7.2432 </r>
       <r>     4.8194     2.2450     7.2812 </r>
       <r>     4.8363     2.2092     7.3186 </r>
       <r>     4.8532     2.1920     7.3558 </r>
       <r>     4.8702     2.1950     7.3929 </r>
       <r>     4.8871     2.2198     7.4305 </r>
       <r>     4.9040     2.2677     7.4690 </r>
       <r>     4.9210     2.3398     7.5086 </r>
       <r>     4.9379     2.4368     7.5499 </r>
       <r>     4.9549     2.5586     7.5932 </r>
       <r>     4.9718     2.7043     7.6390 </r>
       <r>     4.9887     2.8722     7.6876 </r>
       <r>     5.0057     3.0593     7.7395 </r>
       <r>     5.0226     3.2613     7.7947 </r>
       <r>     5.0395     3.4733     7.8535 </r>
       <r>     5.0565     3.6891     7.9160 </r>
       <r>     5.0734     3.9018     7.9821 </r>
       <r>     5.0904     4.1041     8.0516 </r>
       <r>     5.1073     4.2889     8.1243 </r>
       <r>     5.1242     4.4490     8.1996 </r>
       <r>     5.1412     4.5784     8.2772 </r>
       <r>     5.1581     4.6718     8.3563 </r>
       <r>     5.1750     4.7255     8.4363 </r>
       <r>     5.1920     4.7374     8.5166 </r>
       <r>     5.2089     4.7073     8.5963 </r>
       <r>     5.2259     4.6366     8.6748 </r>
       <r>     5.2428     4.5285     8.7515 </r>
       <r>     5.2597     4.3877     8.8259 </r>
       <r>     5.2767     4.2199     8.8973 </r>
       <r>     5.2936     4.0318     8.9656 </r>
       <r>     5.3105     3.8305     9.0305 </r>
       <r>     5.3275     3.6231     9.0919 </r>
       <r>     5.3444     3.4162     9.1497 </r>
       <r>     5.3614     3.2158     9.2042 </r>
       <r>     5.3783     3.0268     9.2555 </r>
       <r>     5.3952     2.8530     9.3038 </r>
       <r>     5.4122     2.6971     9.3495 </r>
       <r>     5.4291     2.5602     9.3928 </r>
       <r>     5.4460     2.4425     9.4342 </r>
       <r>     5.4630     2.3433     9.4739 </r>
       <r>     5.4799     2.2610     9.5122 </r>
       <r>     5.4969     2.1935     9.5494 </r>
       <r>     5.5138     2.1386     9.5856 </r>
       <r>     5.5307     2.0940     9.6210 </r>
       <r>     5.5477     2.0576     9.6559 </r>
       <r>     5.5646     2.0279     9.6902 </r>
       <r>     5.5816     2.0036     9.7242 </r>
       <r>     5.5985     1.9844     9.7578 </r>
       <r>     5.6154     1.9701     9.7912 </r>
       <r>     5.6324     1.9615     9.8244 </r>
       <r>     5.6493     1.9597     9.8576 </r>
       <r>     5.6662     1.9660     9.8909 </r>
       <r>     5.6832     1.9821     9.9245 </r>
       <r>     5.7001     2.0098     9.9585 </r>
       <r>     5.7171     2.0506     9.9932 </r>
       <r>     5.7340     2.1059    10.0289 </r>
       <r>     5.7509     2.1769    10.0658 </r>
       <r>     5.7679     2.2643    10.1041 </r>
       <r>     5.7848     2.3683    10.1442 </r>
       <r>     5.8017     2.4887    10.1864 </r>
       <r>     5.8187     2.6248    10.2308 </r>
       <r>     5.8356     2.7754    10.2779 </r>
       <r>     5.8526     2.9390    10.3276 </r>
       <r>     5.8695     3.1138    10.3804 </r>
       <r>     5.8864     3.2976    10.4362 </r>
       <r>     5.9034     3.4881    10.4953 </r>
       <r>     5.9203     3.6829    10.5577 </r>
       <r>     5.9372     3.8796    10.6234 </r>
       <r>     5.9542     4.0757    10.6924 </r>
       <r>     5.9711     4.2689    10.7647 </r>
       <r>     5.9881     4.4572    10.8402 </r>
       <r>     6.0050     4.6386    10.9188 </r>
       <r>     6.0219     4.8117    11.0003 </r>
       <r>     6.0389     4.9752    11.0846 </r>
       <r>     6.0558     5.1286    11.1714 </r>
       <r>     6.0727     5.2717    11.2607 </r>
       <r>     6.0897     5.4049    11.3523 </r>
       <r>     6.1066     5.5289    11.4459 </r>
       <r>     6.1236     5.6450    11.5415 </r>
       <r>     6.1405     5.7544    11.6390 </r>
       <r>     6.1574     5.8586    11.7382 </r>
       <r>     6.1744     5.9588    11.8392 </r>
       <r>     6.1913     6.0557    11.9417 </r>
       <r>     6.2083     6.1493    12.0459 </r>
       <r>     6.2252     6.2390    12.1516 </r>
       <r>     6.2421     6.3229    12.2587 </r>
       <r>     6.2591     6.3985    12.3670 </r>
       <r>     6.2760     6.4624    12.4765 </r>
       <r>     6.2929     6.5107    12.5868 </r>
       <r>     6.3099     6.5393    12.6975 </r>
       <r>     6.3268     6.5439    12.8084 </r>
       <r>     6.3438     6.5211    12.9188 </r>
       <r>     6.3607     6.4680    13.0284 </r>
       <r>     6.3776     6.3831    13.1365 </r>
       <r>     6.3946     6.2663    13.2426 </r>
       <r>     6.4115     6.1189    13.3463 </r>
       <r>     6.4284     5.9437    13.4470 </r>
       <r>     6.4454     5.7449    13.5443 </r>
       <r>     6.4623     5.5278    13.6379 </r>
       <r>     6.4793     5.2988    13.7276 </r>
       <r>     6.4962     5.0644    13.8134 </r>
       <r>     6.5131     4.8316    13.8953 </r>
       <r>     6.5301     4.6068    13.9733 </r>
       <r>     6.5470     4.3962    14.0477 </r>
       <r>     6.5639     4.2048    14.1190 </r>
       <r>     6.5809     4.0367    14.1873 </r>
       <r>     6.5978     3.8947    14.2533 </r>
       <r>     6.6148     3.7800    14.3173 </r>
       <r>     6.6317     3.6928    14.3799 </r>
       <r>     6.6486     3.6315    14.4414 </r>
       <r>     6.6656     3.5936    14.5023 </r>
       <r>     6.6825     3.5754    14.5628 </r>
       <r>     6.6994     3.5721    14.6233 </r>
       <r>     6.7164     3.5787    14.6839 </r>
       <r>     6.7333     3.5897    14.7447 </r>
       <r>     6.7503     3.5995    14.8057 </r>
       <r>     6.7672     3.6029    14.8667 </r>
       <r>     6.7841     3.5954    14.9276 </r>
       <r>     6.8011     3.5733    14.9881 </r>
       <r>     6.8180     3.5339    15.0480 </r>
       <r>     6.8349     3.4757    15.1069 </r>
       <r>     6.8519     3.3984    15.1644 </r>
       <r>     6.8688     3.3029    15.2204 </r>
       <r>     6.8858     3.1912    15.2744 </r>
       <r>     6.9027     3.0661    15.3264 </r>
       <r>     6.9196     2.9312    15.3760 </r>
       <r>     6.9366     2.7904    15.4233 </r>
       <r>     6.9535     2.6480    15.4681 </r>
       <r>     6.9705     2.5081    15.5106 </r>
       <r>     6.9874     2.3748    15.5508 </r>
       <r>     7.0043     2.2514    15.5890 </r>
       <r>     7.0213     2.1412    15.6252 </r>
       <r>     7.0382     2.0464    15.6599 </r>
       <r>     7.0551     1.9690    15.6932 </r>
       <r>     7.0721     1.9101    15.7256 </r>
       <r>     7.0890     1.8703    15.7573 </r>
       <r>     7.1060     1.8496    15.7886 </r>
       <r>     7.1229     1.8476    15.8199 </r>
       <r>     7.1398     1.8631    15.8515 </r>
       <r>     7.1568     1.8947    15.8836 </r>
       <r>     7.1737     1.9404    15.9164 </r>
       <r>     7.1906     1.9979    15.9503 </r>
       <r>     7.2076     2.0646    15.9852 </r>
       <r>     7.2245     2.1374    16.0214 </r>
       <r>     7.2415     2.2131    16.0589 </r>
       <r>     7.2584     2.2885    16.0977 </r>
       <r>     7.2753     2.3602    16.1377 </r>
       <r>     7.2923     2.4250    16.1787 </r>
       <r>     7.3092     2.4798    16.2207 </r>
       <r>     7.3261     2.5221    16.2634 </r>
       <r>     7.3431     2.5498    16.3066 </r>
       <r>     7.3600     2.5614    16.3500 </r>
       <r>     7.3770     2.5559    16.3933 </r>
       <r>     7.3939     2.5330    16.4362 </r>
       <r>     7.4108     2.4932    16.4784 </r>
       <r>     7.4278     2.4374    16.5197 </r>
       <r>     7.4447     2.3669    16.5598 </r>
       <r>     7.4616     2.2836    16.5985 </r>
       <r>     7.4786     2.1893    16.6356 </r>
       <r>     7.4955     2.0861    16.6709 </r>
       <r>     7.5125     1.9762    16.7044 </r>
       <r>     7.5294     1.8613    16.7359 </r>
       <r>     7.5463     1.7434    16.7654 </r>
       <r>     7.5633     1.6241    16.7929 </r>
       <r>     7.5802     1.5050    16.8184 </r>
       <r>     7.5971     1.3872    16.8419 </r>
       <r>     7.6141     1.2720    16.8635 </r>
       <r>     7.6310     1.1605    16.8831 </r>
       <r>     7.6480     1.0537    16.9010 </r>
       <r>     7.6649     0.9523    16.9171 </r>
       <r>     7.6818     0.8573    16.9316 </r>
       <r>     7.6988     0.7692    16.9447 </r>
       <r>     7.7157     0.6887    16.9563 </r>
       <r>     7.7327     0.6161    16.9668 </r>
       <r>     7.7496     0.5517    16.9761 </r>
       <r>     7.7665     0.4955    16.9845 </r>
       <r>     7.7835     0.4476    16.9921 </r>
       <r>     7.8004     0.4074    16.9990 </r>
       <r>     7.8173     0.3748    17.0053 </r>
       <r>     7.8343     0.3490    17.0112 </r>
       <r>     7.8512     0.3294    17.0168 </r>
       <r>     7.8682     0.3152    17.0222 </r>
       <r>     7.8851     0.3057    17.0273 </r>
       <r>     7.9020     0.2999    17.0324 </r>
       <r>     7.9190     0.2970    17.0375 </r>
       <r>     7.9359     0.2962    17.0425 </r>
       <r>     7.9528     0.2969    17.0475 </r>
       <r>     7.9698     0.2982    17.0525 </r>
       <r>     7.9867     0.2997    17.0576 </r>
       <r>     8.0037     0.3010    17.0627 </r>
       <r>     8.0206     0.3019    17.0678 </r>
       <r>     8.0375     0.3020    17.0730 </r>
       <r>     8.0545     0.3015    17.0781 </r>
       <r>     8.0714     0.3005    17.0832 </r>
       <r>     8.0883     0.2992    17.0882 </r>
       <r>     8.1053     0.2978    17.0933 </r>
       <r>     8.1222     0.2966    17.0983 </r>
       <r>     8.1392     0.2959    17.1033 </r>
       <r>     8.1561     0.2961    17.1083 </r>
       <r>     8.1730     0.2974    17.1134 </r>
       <r>     8.1900     0.2999    17.1184 </r>
       <r>     8.2069     0.3039    17.1236 </r>
       <r>     8.2238     0.3095    17.1288 </r>
       <r>     8.2408     0.3168    17.1342 </r>
       <r>     8.2577     0.3257    17.1397 </r>
       <r>     8.2747     0.3365    17.1454 </r>
       <r>     8.2916     0.3490    17.1513 </r>
       <r>     8.3085     0.3634    17.1575 </r>
       <r>     8.3255     0.3797    17.1639 </r>
       <r>     8.3424     0.3980    17.1706 </r>
       <r>     8.3593     0.4183    17.1777 </r>
       <r>     8.3763     0.4407    17.1852 </r>
       <r>     8.3932     0.4653    17.1931 </r>
       <r>     8.4102     0.4920    17.2014 </r>
       <r>     8.4271     0.5208    17.2102 </r>
       <r>     8.4440     0.5517    17.2196 </r>
       <r>     8.4610     0.5846    17.2295 </r>
       <r>     8.4779     0.6193    17.2400 </r>
       <r>     8.4949     0.6556    17.2511 </r>
       <r>     8.5118     0.6934    17.2628 </r>
       <r>     8.5287     0.7322    17.2752 </r>
       <r>     8.5457     0.7718    17.2883 </r>
       <r>     8.5626     0.8116    17.3020 </r>
       <r>     8.5795     0.8514    17.3165 </r>
       <r>     8.5965     0.8904    17.3315 </r>
       <r>     8.6134     0.9282    17.3473 </r>
       <r>     8.6304     0.9642    17.3636 </r>
       <r>     8.6473     0.9975    17.3805 </r>
       <r>     8.6642     1.0278    17.3979 </r>
       <r>     8.6812     1.0542    17.4157 </r>
       <r>     8.6981     1.0761    17.4340 </r>
       <r>     8.7150     1.0932    17.4525 </r>
       <r>     8.7320     1.1049    17.4712 </r>
       <r>     8.7489     1.1109    17.4900 </r>
       <r>     8.7659     1.1112    17.5088 </r>
       <r>     8.7828     1.1058    17.5276 </r>
       <r>     8.7997     1.0947    17.5461 </r>
       <r>     8.8167     1.0785    17.5644 </r>
       <r>     8.8336     1.0576    17.5823 </r>
       <r>     8.8505     1.0326    17.5998 </r>
       <r>     8.8675     1.0043    17.6168 </r>
       <r>     8.8844     0.9734    17.6333 </r>
       <r>     8.9014     0.9409    17.6492 </r>
       <r>     8.9183     0.9077    17.6646 </r>
       <r>     8.9352     0.8745    17.6794 </r>
       <r>     8.9522     0.8422    17.6937 </r>
       <r>     8.9691     0.8117    17.7074 </r>
       <r>     8.9860     0.7835    17.7207 </r>
       <r>     9.0030     0.7583    17.7335 </r>
       <r>     9.0199     0.7365    17.7460 </r>
       <r>     9.0369     0.7184    17.7582 </r>
       <r>     9.0538     0.7041    17.7701 </r>
       <r>     9.0707     0.6936    17.7819 </r>
       <r>     9.0877     0.6867    17.7935 </r>
       <r>     9.1046     0.6832    17.8051 </r>
       <r>     9.1216     0.6825    17.8166 </r>
       <r>     9.1385     0.6840    17.8282 </r>
       <r>     9.1554     0.6870    17.8398 </r>
       <r>     9.1724     0.6910    17.8515 </r>
       <r>     9.1893     0.6950    17.8633 </r>
       <r>     9.2062     0.6985    17.8751 </r>
       <r>     9.2232     0.7009    17.8870 </r>
       <r>     9.2401     0.7017    17.8989 </r>
       <r>     9.2571     0.7007    17.9108 </r>
       <r>     9.2740     0.6977    17.9226 </r>
       <r>     9.2909     0.6928    17.9343 </r>
       <r>     9.3079     0.6861    17.9459 </r>
       <r>     9.3248     0.6781    17.9574 </r>
       <r>     9.3417     0.6691    17.9688 </r>
       <r>     9.3587     0.6597    17.9799 </r>
       <r>     9.3756     0.6504    17.9909 </r>
       <r>     9.3926     0.6415    18.0018 </r>
       <r>     9.4095     0.6334    18.0125 </r>
       <r>     9.4264     0.6262    18.0231 </r>
       <r>     9.4434     0.6200    18.0337 </r>
       <r>     9.4603     0.6146    18.0441 </r>
       <r>     9.4772     0.6099    18.0544 </r>
       <r>     9.4942     0.6054    18.0646 </r>
       <r>     9.5111     0.6009    18.0748 </r>
       <r>     9.5281     0.5961    18.0849 </r>
       <r>     9.5450     0.5906    18.0949 </r>
       <r>     9.5619     0.5843    18.1048 </r>
       <r>     9.5789     0.5772    18.1146 </r>
       <r>     9.5958     0.5692    18.1242 </r>
       <r>     9.6127     0.5607    18.1337 </r>
       <r>     9.6297     0.5518    18.1431 </r>
       <r>     9.6466     0.5429    18.1523 </r>
       <r>     9.6636     0.5342    18.1613 </r>
       <r>     9.6805     0.5261    18.1702 </r>
       <r>     9.6974     0.5189    18.1790 </r>
       <r>     9.7144     0.5127    18.1877 </r>
       <r>     9.7313     0.5076    18.1963 </r>
       <r>     9.7482     0.5038    18.2048 </r>
       <r>     9.7652     0.5011    18.2133 </r>
       <r>     9.7821     0.4995    18.2218 </r>
       <r>     9.7991     0.4989    18.2302 </r>
       <r>     9.8160     0.4990    18.2387 </r>
       <r>     9.8329     0.4998    18.2472 </r>
       <r>     9.8499     0.5009    18.2556 </r>
       <r>     9.8668     0.5021    18.2641 </r>
       <r>     9.8838     0.5034    18.2727 </r>
       <r>     9.9007     0.5044    18.2812 </r>
       <r>     9.9176     0.5052    18.2898 </r>
       <r>     9.9346     0.5054    18.2983 </r>
       <r>     9.9515     0.5052    18.3069 </r>
       <r>     9.9684     0.5045    18.3154 </r>
       <r>     9.9854     0.5033    18.3240 </r>
       <r>    10.0023     0.5017    18.3325 </r>
       <r>    10.0193     0.4997    18.3409 </r>
       <r>    10.0362     0.4975    18.3493 </r>
       <r>    10.0531     0.4951    18.3577 </r>
       <r>    10.0701     0.4926    18.3661 </r>
       <r>    10.0870     0.4900    18.3744 </r>
       <r>    10.1039     0.4873    18.3826 </r>
       <r>    10.1209     0.4845    18.3908 </r>
       <r>    10.1378     0.4814    18.3990 </r>
       <r>    10.1548     0.4780    18.4071 </r>
       <r>    10.1717     0.4742    18.4151 </r>
       <r>    10.1886     0.4698    18.4231 </r>
       <r>    10.2056     0.4647    18.4309 </r>
       <r>    10.2225     0.4591    18.4387 </r>
       <r>    10.2394     0.4527    18.4464 </r>
       <r>    10.2564     0.4458    18.4539 </r>
       <r>    10.2733     0.4384    18.4614 </r>
       <r>    10.2903     0.4306    18.4687 </r>
       <r>    10.3072     0.4227    18.4758 </r>
       <r>    10.3241     0.4149    18.4828 </r>
       <r>    10.3411     0.4072    18.4897 </r>
       <r>    10.3580     0.4000    18.4965 </r>
       <r>    10.3749     0.3933    18.5032 </r>
       <r>    10.3919     0.3871    18.5097 </r>
       <r>    10.4088     0.3816    18.5162 </r>
       <r>    10.4258     0.3766    18.5226 </r>
       <r>    10.4427     0.3720    18.5289 </r>
       <r>    10.4596     0.3678    18.5351 </r>
       <r>    10.4766     0.3639    18.5413 </r>
       <r>    10.4935     0.3602    18.5474 </r>
       <r>    10.5104     0.3566    18.5534 </r>
       <r>    10.5274     0.3533    18.5594 </r>
       <r>    10.5443     0.3501    18.5653 </r>
       <r>    10.5613     0.3474    18.5712 </r>
       <r>    10.5782     0.3453    18.5771 </r>
       <r>    10.5951     0.3439    18.5829 </r>
       <r>    10.6121     0.3436    18.5887 </r>
       <r>    10.6290     0.3445    18.5945 </r>
       <r>    10.6460     0.3467    18.6004 </r>
       <r>    10.6629     0.3503    18.6063 </r>
       <r>    10.6798     0.3551    18.6124 </r>
       <r>    10.6968     0.3610    18.6185 </r>
       <r>    10.7137     0.3677    18.6247 </r>
       <r>    10.7306     0.3748    18.6311 </r>
       <r>    10.7476     0.3819    18.6375 </r>
       <r>    10.7645     0.3886    18.6441 </r>
       <r>    10.7815     0.3943    18.6508 </r>
       <r>    10.7984     0.3988    18.6575 </r>
       <r>    10.8153     0.4016    18.6643 </r>
       <r>    10.8323     0.4026    18.6712 </r>
       <r>    10.8492     0.4016    18.6780 </r>
       <r>    10.8661     0.3987    18.6847 </r>
       <r>    10.8831     0.3938    18.6914 </r>
       <r>    10.9000     0.3872    18.6979 </r>
       <r>    10.9170     0.3789    18.7044 </r>
       <r>    10.9339     0.3691    18.7106 </r>
       <r>    10.9508     0.3582    18.7167 </r>
       <r>    10.9678     0.3461    18.7225 </r>
       <r>    10.9847     0.3331    18.7282 </r>
       <r>    11.0016     0.3194    18.7336 </r>
       <r>    11.0186     0.3051    18.7388 </r>
       <r>    11.0355     0.2903    18.7437 </r>
       <r>    11.0525     0.2752    18.7483 </r>
       <r>    11.0694     0.2602    18.7527 </r>
       <r>    11.0863     0.2454    18.7569 </r>
       <r>    11.1033     0.2313    18.7608 </r>
       <r>    11.1202     0.2182    18.7645 </r>
       <r>    11.1371     0.2066    18.7680 </r>
       <r>    11.1541     0.1970    18.7714 </r>
       <r>    11.1710     0.1897    18.7746 </r>
       <r>    11.1880     0.1851    18.7777 </r>
       <r>    11.2049     0.1834    18.7808 </r>
       <r>    11.2218     0.1847    18.7839 </r>
       <r>    11.2388     0.1889    18.7871 </r>
       <r>    11.2557     0.1959    18.7905 </r>
       <r>    11.2726     0.2053    18.7939 </r>
       <r>    11.2896     0.2165    18.7976 </r>
       <r>    11.3065     0.2291    18.8015 </r>
       <r>    11.3235     0.2422    18.8056 </r>
       <r>    11.3404     0.2553    18.8099 </r>
       <r>    11.3573     0.2677    18.8144 </r>
       <r>    11.3743     0.2789    18.8192 </r>
       <r>    11.3912     0.2883    18.8240 </r>
       <r>    11.4082     0.2957    18.8291 </r>
       <r>    11.4251     0.3009    18.8341 </r>
       <r>    11.4420     0.3037    18.8393 </r>
       <r>    11.4590     0.3042    18.8444 </r>
       <r>    11.4759     0.3027    18.8496 </r>
       <r>    11.4928     0.2993    18.8546 </r>
       <r>    11.5098     0.2944    18.8596 </r>
       <r>    11.5267     0.2885    18.8645 </r>
       <r>    11.5437     0.2820    18.8693 </r>
       <r>    11.5606     0.2753    18.8740 </r>
       <r>    11.5775     0.2688    18.8785 </r>
       <r>    11.5945     0.2630    18.8830 </r>
       <r>    11.6114     0.2581    18.8873 </r>
       <r>    11.6283     0.2545    18.8916 </r>
       <r>    11.6453     0.2524    18.8959 </r>
       <r>    11.6622     0.2517    18.9002 </r>
       <r>    11.6792     0.2527    18.9045 </r>
       <r>    11.6961     0.2551    18.9088 </r>
       <r>    11.7130     0.2588    18.9132 </r>
       <r>    11.7300     0.2637    18.9176 </r>
       <r>    11.7469     0.2695    18.9222 </r>
       <r>    11.7638     0.2760    18.9269 </r>
       <r>    11.7808     0.2830    18.9317 </r>
       <r>    11.7977     0.2904    18.9366 </r>
       <r>    11.8147     0.2979    18.9416 </r>
       <r>    11.8316     0.3056    18.9468 </r>
       <r>    11.8485     0.3136    18.9521 </r>
       <r>    11.8655     0.3218    18.9576 </r>
       <r>    11.8824     0.3306    18.9632 </r>
       <r>    11.8993     0.3400    18.9689 </r>
       <r>    11.9163     0.3505    18.9749 </r>
       <r>    11.9332     0.3621    18.9810 </r>
       <r>    11.9502     0.3752    18.9873 </r>
       <r>    11.9671     0.3900    18.9940 </r>
       <r>    11.9840     0.4065    19.0008 </r>
       <r>    12.0010     0.4249    19.0080 </r>
       <r>    12.0179     0.4451    19.0156 </r>
       <r>    12.0349     0.4670    19.0235 </r>
       <r>    12.0518     0.4904    19.0318 </r>
       <r>    12.0687     0.5150    19.0405 </r>
       <r>    12.0857     0.5405    19.0497 </r>
       <r>    12.1026     0.5667    19.0593 </r>
       <r>    12.1195     0.5930    19.0693 </r>
       <r>    12.1365     0.6192    19.0798 </r>
       <r>    12.1534     0.6448    19.0907 </r>
       <r>    12.1704     0.6694    19.1021 </r>
       <r>    12.1873     0.6925    19.1138 </r>
       <r>    12.2042     0.7140    19.1259 </r>
       <r>    12.2212     0.7333    19.1383 </r>
       <r>    12.2381     0.7501    19.1510 </r>
       <r>    12.2550     0.7644    19.1640 </r>
       <r>    12.2720     0.7759    19.1771 </r>
       <r>    12.2889     0.7845    19.1904 </r>
       <r>    12.3059     0.7905    19.2038 </r>
       <r>    12.3228     0.7938    19.2172 </r>
       <r>    12.3397     0.7950    19.2307 </r>
       <r>    12.3567     0.7943    19.2441 </r>
       <r>    12.3736     0.7921    19.2576 </r>
       <r>    12.3905     0.7889    19.2709 </r>
       <r>    12.4075     0.7852    19.2842 </r>
       <r>    12.4244     0.7812    19.2974 </r>
       <r>    12.4414     0.7772    19.3106 </r>
       <r>    12.4583     0.7735    19.3237 </r>
       <r>    12.4752     0.7701    19.3368 </r>
       <r>    12.4922     0.7670    19.3497 </r>
       <r>    12.5091     0.7642    19.3627 </r>
       <r>    12.5260     0.7616    19.3756 </r>
       <r>    12.5430     0.7592    19.3885 </r>
       <r>    12.5599     0.7568    19.4013 </r>
       <r>    12.5769     0.7545    19.4141 </r>
       <r>    12.5938     0.7523    19.4268 </r>
       <r>    12.6107     0.7500    19.4395 </r>
       <r>    12.6277     0.7479    19.4522 </r>
       <r>    12.6446     0.7457    19.4648 </r>
       <r>    12.6615     0.7435    19.4774 </r>
       <r>    12.6785     0.7411    19.4899 </r>
       <r>    12.6954     0.7383    19.5024 </r>
       <r>    12.7124     0.7349    19.5149 </r>
       <r>    12.7293     0.7304    19.5273 </r>
       <r>    12.7462     0.7247    19.5395 </r>
       <r>    12.7632     0.7175    19.5517 </r>
       <r>    12.7801     0.7086    19.5637 </r>
       <r>    12.7971     0.6980    19.5755 </r>
       <r>    12.8140     0.6858    19.5871 </r>
       <r>    12.8309     0.6723    19.5985 </r>
       <r>    12.8479     0.6581    19.6097 </r>
       <r>    12.8648     0.6437    19.6206 </r>
       <r>    12.8817     0.6298    19.6312 </r>
       <r>    12.8987     0.6171    19.6417 </r>
       <r>    12.9156     0.6061    19.6520 </r>
       <r>    12.9326     0.5975    19.6621 </r>
       <r>    12.9495     0.5915    19.6721 </r>
       <r>    12.9664     0.5883    19.6821 </r>
       <r>    12.9834     0.5877    19.6920 </r>
       <r>    13.0003     0.5894    19.7020 </r>
       <r>    13.0172     0.5930    19.7120 </r>
       <r>    13.0342     0.5980    19.7222 </r>
       <r>    13.0511     0.6036    19.7324 </r>
       <r>    13.0681     0.6092    19.7427 </r>
       <r>    13.0850     0.6143    19.7531 </r>
       <r>    13.1019     0.6184    19.7636 </r>
       <r>    13.1189     0.6213    19.7741 </r>
       <r>    13.1358     0.6227    19.7847 </r>
       <r>    13.1527     0.6227    19.7952 </r>
       <r>    13.1697     0.6213    19.8057 </r>
       <r>    13.1866     0.6189    19.8162 </r>
       <r>    13.2036     0.6156    19.8266 </r>
       <r>    13.2205     0.6117    19.8370 </r>
       <r>    13.2374     0.6075    19.8473 </r>
       <r>    13.2544     0.6033    19.8575 </r>
       <r>    13.2713     0.5992    19.8677 </r>
       <r>    13.2882     0.5953    19.8777 </r>
       <r>    13.3052     0.5918    19.8878 </r>
       <r>    13.3221     0.5886    19.8977 </r>
       <r>    13.3391     0.5856    19.9077 </r>
       <r>    13.3560     0.5829    19.9175 </r>
       <r>    13.3729     0.5802    19.9274 </r>
       <r>    13.3899     0.5775    19.9371 </r>
       <r>    13.4068     0.5746    19.9469 </r>
       <r>    13.4237     0.5714    19.9565 </r>
       <r>    13.4407     0.5677    19.9662 </r>
       <r>    13.4576     0.5635    19.9757 </r>
       <r>    13.4746     0.5586    19.9852 </r>
       <r>    13.4915     0.5530    19.9945 </r>
       <r>    13.5084     0.5468    20.0038 </r>
       <r>    13.5254     0.5401    20.0129 </r>
       <r>    13.5423     0.5331    20.0220 </r>
       <r>    13.5593     0.5261    20.0309 </r>
       <r>    13.5762     0.5194    20.0397 </r>
       <r>    13.5931     0.5135    20.0484 </r>
       <r>    13.6101     0.5087    20.0570 </r>
       <r>    13.6270     0.5053    20.0656 </r>
       <r>    13.6439     0.5035    20.0741 </r>
       <r>    13.6609     0.5034    20.0826 </r>
       <r>    13.6778     0.5050    20.0912 </r>
       <r>    13.6948     0.5081    20.0998 </r>
       <r>    13.7117     0.5124    20.1084 </r>
       <r>    13.7286     0.5172    20.1172 </r>
       <r>    13.7456     0.5222    20.1261 </r>
       <r>    13.7625     0.5268    20.1350 </r>
       <r>    13.7794     0.5304    20.1440 </r>
       <r>    13.7964     0.5326    20.1530 </r>
       <r>    13.8133     0.5333    20.1620 </r>
       <r>    13.8303     0.5322    20.1710 </r>
       <r>    13.8472     0.5294    20.1800 </r>
       <r>    13.8641     0.5254    20.1889 </r>
       <r>    13.8811     0.5204    20.1977 </r>
       <r>    13.8980     0.5149    20.2064 </r>
       <r>    13.9149     0.5095    20.2151 </r>
       <r>    13.9319     0.5047    20.2236 </r>
       <r>    13.9488     0.5009    20.2321 </r>
       <r>    13.9658     0.4985    20.2405 </r>
       <r>    13.9827     0.4975    20.2490 </r>
       <r>    13.9996     0.4981    20.2574 </r>
       <r>    14.0166     0.5001    20.2659 </r>
       <r>    14.0335     0.5034    20.2744 </r>
       <r>    14.0504     0.5078    20.2830 </r>
       <r>    14.0674     0.5128    20.2917 </r>
       <r>    14.0843     0.5184    20.3005 </r>
       <r>    14.1013     0.5242    20.3093 </r>
       <r>    14.1182     0.5300    20.3183 </r>
       <r>    14.1351     0.5356    20.3274 </r>
       <r>    14.1521     0.5408    20.3366 </r>
       <r>    14.1690     0.5455    20.3458 </r>
       <r>    14.1860     0.5495    20.3551 </r>
       <r>    14.2029     0.5526    20.3645 </r>
       <r>    14.2198     0.5547    20.3739 </r>
       <r>    14.2368     0.5556    20.3833 </r>
       <r>    14.2537     0.5553    20.3927 </r>
       <r>    14.2706     0.5539    20.4020 </r>
       <r>    14.2876     0.5513    20.4114 </r>
       <r>    14.3045     0.5481    20.4207 </r>
       <r>    14.3215     0.5445    20.4299 </r>
       <r>    14.3384     0.5411    20.4391 </r>
       <r>    14.3553     0.5387    20.4482 </r>
       <r>    14.3723     0.5379    20.4573 </r>
       <r>    14.3892     0.5394    20.4664 </r>
       <r>    14.4061     0.5437    20.4756 </r>
       <r>    14.4231     0.5512    20.4850 </r>
       <r>    14.4400     0.5619    20.4945 </r>
       <r>    14.4570     0.5756    20.5042 </r>
       <r>    14.4739     0.5918    20.5143 </r>
       <r>    14.4908     0.6097    20.5246 </r>
       <r>    14.5078     0.6282    20.5352 </r>
       <r>    14.5247     0.6462    20.5462 </r>
       <r>    14.5416     0.6624    20.5574 </r>
       <r>    14.5586     0.6758    20.5688 </r>
       <r>    14.5755     0.6855    20.5805 </r>
       <r>    14.5925     0.6907    20.5922 </r>
       <r>    14.6094     0.6912    20.6039 </r>
       <r>    14.6263     0.6870    20.6155 </r>
       <r>    14.6433     0.6784    20.6270 </r>
       <r>    14.6602     0.6662    20.6383 </r>
       <r>    14.6771     0.6511    20.6493 </r>
       <r>    14.6941     0.6341    20.6600 </r>
       <r>    14.7110     0.6162    20.6705 </r>
       <r>    14.7280     0.5983    20.6806 </r>
       <r>    14.7449     0.5812    20.6905 </r>
       <r>    14.7618     0.5654    20.7000 </r>
       <r>    14.7788     0.5515    20.7094 </r>
       <r>    14.7957     0.5396    20.7185 </r>
       <r>    14.8126     0.5300    20.7275 </r>
       <r>    14.8296     0.5226    20.7363 </r>
       <r>    14.8465     0.5174    20.7451 </r>
       <r>    14.8635     0.5143    20.7538 </r>
       <r>    14.8804     0.5133    20.7625 </r>
       <r>    14.8973     0.5141    20.7712 </r>
       <r>    14.9143     0.5168    20.7800 </r>
       <r>    14.9312     0.5211    20.7888 </r>
       <r>    14.9482     0.5268    20.7977 </r>
       <r>    14.9651     0.5336    20.8068 </r>
       <r>    14.9820     0.5412    20.8159 </r>
       <r>    14.9990     0.5490    20.8252 </r>
       <r>    15.0159     0.5567    20.8346 </r>
       <r>    15.0328     0.5635    20.8442 </r>
       <r>    15.0498     0.5692    20.8538 </r>
       <r>    15.0667     0.5732    20.8635 </r>
       <r>    15.0837     0.5753    20.8733 </r>
       <r>    15.1006     0.5754    20.8830 </r>
       <r>    15.1175     0.5737    20.8927 </r>
       <r>    15.1345     0.5705    20.9024 </r>
       <r>    15.1514     0.5664    20.9120 </r>
       <r>    15.1683     0.5620    20.9215 </r>
       <r>    15.1853     0.5582    20.9310 </r>
       <r>    15.2022     0.5557    20.9404 </r>
       <r>    15.2192     0.5553    20.9498 </r>
       <r>    15.2361     0.5576    20.9592 </r>
       <r>    15.2530     0.5630    20.9688 </r>
       <r>    15.2700     0.5715    20.9785 </r>
       <r>    15.2869     0.5830    20.9883 </r>
       <r>    15.3038     0.5971    20.9984 </r>
       <r>    15.3208     0.6131    21.0088 </r>
       <r>    15.3377     0.6301    21.0195 </r>
       <r>    15.3547     0.6471    21.0305 </r>
       <r>    15.3716     0.6633    21.0417 </r>
       <r>    15.3885     0.6777    21.0532 </r>
       <r>    15.4055     0.6897    21.0649 </r>
       <r>    15.4224     0.6987    21.0767 </r>
       <r>    15.4393     0.7046    21.0886 </r>
       <r>    15.4563     0.7074    21.1006 </r>
       <r>    15.4732     0.7075    21.1126 </r>
       <r>    15.4902     0.7054    21.1245 </r>
       <r>    15.5071     0.7018    21.1364 </r>
       <r>    15.5240     0.6978    21.1482 </r>
       <r>    15.5410     0.6941    21.1600 </r>
       <r>    15.5579     0.6917    21.1717 </r>
       <r>    15.5748     0.6913    21.1834 </r>
       <r>    15.5918     0.6937    21.1952 </r>
       <r>    15.6087     0.6991    21.2070 </r>
       <r>    15.6257     0.7078    21.2190 </r>
       <r>    15.6426     0.7198    21.2312 </r>
       <r>    15.6595     0.7345    21.2436 </r>
       <r>    15.6765     0.7515    21.2564 </r>
       <r>    15.6934     0.7699    21.2694 </r>
       <r>    15.7104     0.7887    21.2828 </r>
       <r>    15.7273     0.8069    21.2964 </r>
       <r>    15.7442     0.8233    21.3104 </r>
       <r>    15.7612     0.8370    21.3246 </r>
       <r>    15.7781     0.8470    21.3389 </r>
       <r>    15.7950     0.8528    21.3534 </r>
       <r>    15.8120     0.8541    21.3678 </r>
       <r>    15.8289     0.8507    21.3822 </r>
       <r>    15.8459     0.8431    21.3965 </r>
       <r>    15.8628     0.8318    21.4106 </r>
       <r>    15.8797     0.8178    21.4244 </r>
       <r>    15.8967     0.8019    21.4380 </r>
       <r>    15.9136     0.7853    21.4513 </r>
       <r>    15.9305     0.7691    21.4644 </r>
       <r>    15.9475     0.7542    21.4771 </r>
       <r>    15.9644     0.7413    21.4897 </r>
       <r>    15.9814     0.7310    21.5021 </r>
       <r>    15.9983     0.7235    21.5143 </r>
       <r>    16.0152     0.7186    21.5265 </r>
       <r>    16.0322     0.7162    21.5386 </r>
       <r>    16.0491     0.7156    21.5507 </r>
       <r>    16.0660     0.7163    21.5629 </r>
       <r>    16.0830     0.7174    21.5750 </r>
       <r>    16.0999     0.7183    21.5872 </r>
       <r>    16.1169     0.7184    21.5994 </r>
       <r>    16.1338     0.7170    21.6115 </r>
       <r>    16.1507     0.7138    21.6236 </r>
       <r>    16.1677     0.7088    21.6356 </r>
       <r>    16.1846     0.7019    21.6475 </r>
       <r>    16.2015     0.6935    21.6592 </r>
       <r>    16.2185     0.6841    21.6708 </r>
       <r>    16.2354     0.6744    21.6823 </r>
       <r>    16.2524     0.6652    21.6935 </r>
       <r>    16.2693     0.6573    21.7047 </r>
       <r>    16.2862     0.6516    21.7157 </r>
       <r>    16.3032     0.6488    21.7267 </r>
       <r>    16.3201     0.6495    21.7377 </r>
       <r>    16.3370     0.6542    21.7488 </r>
       <r>    16.3540     0.6629    21.7600 </r>
       <r>    16.3709     0.6755    21.7714 </r>
       <r>    16.3879     0.6915    21.7831 </r>
       <r>    16.4048     0.7102    21.7952 </r>
       <r>    16.4217     0.7307    21.8076 </r>
       <r>    16.4387     0.7518    21.8203 </r>
       <r>    16.4556     0.7722    21.8334 </r>
       <r>    16.4726     0.7909    21.8468 </r>
       <r>    16.4895     0.8067    21.8604 </r>
       <r>    16.5064     0.8186    21.8743 </r>
       <r>    16.5234     0.8259    21.8883 </r>
       <r>    16.5403     0.8281    21.9023 </r>
       <r>    16.5572     0.8250    21.9163 </r>
       <r>    16.5742     0.8166    21.9301 </r>
       <r>    16.5911     0.8034    21.9437 </r>
       <r>    16.6081     0.7857    21.9570 </r>
       <r>    16.6250     0.7645    21.9700 </r>
       <r>    16.6419     0.7404    21.9825 </r>
       <r>    16.6589     0.7143    21.9946 </r>
       <r>    16.6758     0.6872    22.0063 </r>
       <r>    16.6927     0.6598    22.0174 </r>
       <r>    16.7097     0.6331    22.0281 </r>
       <r>    16.7266     0.6076    22.0384 </r>
       <r>    16.7436     0.5840    22.0483 </r>
       <r>    16.7605     0.5628    22.0579 </r>
       <r>    16.7774     0.5443    22.0671 </r>
       <r>    16.7944     0.5288    22.0760 </r>
       <r>    16.8113     0.5163    22.0848 </r>
       <r>    16.8282     0.5070    22.0934 </r>
       <r>    16.8452     0.5007    22.1019 </r>
       <r>    16.8621     0.4972    22.1103 </r>
       <r>    16.8791     0.4962    22.1187 </r>
       <r>    16.8960     0.4972    22.1271 </r>
       <r>    16.9129     0.4998    22.1356 </r>
       <r>    16.9299     0.5035    22.1441 </r>
       <r>    16.9468     0.5077    22.1527 </r>
       <r>    16.9637     0.5120    22.1614 </r>
       <r>    16.9807     0.5160    22.1701 </r>
       <r>    16.9976     0.5194    22.1789 </r>
       <r>    17.0146     0.5220    22.1877 </r>
       <r>    17.0315     0.5240    22.1966 </r>
       <r>    17.0484     0.5254    22.2055 </r>
       <r>    17.0654     0.5268    22.2144 </r>
       <r>    17.0823     0.5285    22.2234 </r>
       <r>    17.0993     0.5311    22.2324 </r>
       <r>    17.1162     0.5352    22.2415 </r>
       <r>    17.1331     0.5414    22.2506 </r>
       <r>    17.1501     0.5499    22.2599 </r>
       <r>    17.1670     0.5613    22.2694 </r>
       <r>    17.1839     0.5754    22.2792 </r>
       <r>    17.2009     0.5923    22.2892 </r>
       <r>    17.2178     0.6116    22.2996 </r>
       <r>    17.2348     0.6327    22.3103 </r>
       <r>    17.2517     0.6551    22.3214 </r>
       <r>    17.2686     0.6780    22.3329 </r>
       <r>    17.2856     0.7005    22.3447 </r>
       <r>    17.3025     0.7216    22.3570 </r>
       <r>    17.3194     0.7407    22.3695 </r>
       <r>    17.3364     0.7569    22.3823 </r>
       <r>    17.3533     0.7696    22.3954 </r>
       <r>    17.3703     0.7784    22.4085 </r>
       <r>    17.3872     0.7829    22.4218 </r>
       <r>    17.4041     0.7832    22.4351 </r>
       <r>    17.4211     0.7793    22.4483 </r>
       <r>    17.4380     0.7716    22.4613 </r>
       <r>    17.4549     0.7606    22.4742 </r>
       <r>    17.4719     0.7470    22.4869 </r>
       <r>    17.4888     0.7315    22.4993 </r>
       <r>    17.5058     0.7150    22.5114 </r>
       <r>    17.5227     0.6982    22.5232 </r>
       <r>    17.5396     0.6820    22.5348 </r>
       <r>    17.5566     0.6669    22.5461 </r>
       <r>    17.5735     0.6535    22.5571 </r>
       <r>    17.5904     0.6422    22.5680 </r>
       <r>    17.6074     0.6332    22.5787 </r>
       <r>    17.6243     0.6264    22.5893 </r>
       <r>    17.6413     0.6217    22.5999 </r>
       <r>    17.6582     0.6187    22.6103 </r>
       <r>    17.6751     0.6170    22.6208 </r>
       <r>    17.6921     0.6162    22.6312 </r>
       <r>    17.7090     0.6158    22.6417 </r>
       <r>    17.7259     0.6153    22.6521 </r>
       <r>    17.7429     0.6145    22.6625 </r>
       <r>    17.7598     0.6131    22.6729 </r>
       <r>    17.7768     0.6113    22.6832 </r>
       <r>    17.7937     0.6092    22.6936 </r>
       <r>    17.8106     0.6073    22.7038 </r>
       <r>    17.8276     0.6060    22.7141 </r>
       <r>    17.8445     0.6062    22.7244 </r>
       <r>    17.8615     0.6085    22.7347 </r>
       <r>    17.8784     0.6136    22.7451 </r>
       <r>    17.8953     0.6222    22.7556 </r>
       <r>    17.9123     0.6345    22.7664 </r>
       <r>    17.9292     0.6509    22.7774 </r>
       <r>    17.9461     0.6710    22.7887 </r>
       <r>    17.9631     0.6945    22.8005 </r>
       <r>    17.9800     0.7207    22.8127 </r>
       <r>    17.9970     0.7485    22.8254 </r>
       <r>    18.0139     0.7769    22.8385 </r>
       <r>    18.0308     0.8047    22.8522 </r>
       <r>    18.0478     0.8308    22.8663 </r>
       <r>    18.0647     0.8543    22.8807 </r>
       <r>    18.0816     0.8744    22.8955 </r>
       <r>    18.0986     0.8907    22.9106 </r>
       <r>    18.1155     0.9028    22.9259 </r>
       <r>    18.1325     0.9110    22.9413 </r>
       <r>    18.1494     0.9152    22.9568 </r>
       <r>    18.1663     0.9161    22.9724 </r>
       <r>    18.1833     0.9138    22.9878 </r>
       <r>    18.2002     0.9088    23.0032 </r>
       <r>    18.2171     0.9014    23.0185 </r>
       <r>    18.2341     0.8917    23.0336 </r>
       <r>    18.2510     0.8797    23.0485 </r>
       <r>    18.2680     0.8653    23.0632 </r>
       <r>    18.2849     0.8483    23.0775 </r>
       <r>    18.3018     0.8287    23.0916 </r>
       <r>    18.3188     0.8063    23.1052 </r>
       <r>    18.3357     0.7812    23.1184 </r>
       <r>    18.3526     0.7538    23.1312 </r>
       <r>    18.3696     0.7247    23.1435 </r>
       <r>    18.3865     0.6947    23.1553 </r>
       <r>    18.4035     0.6649    23.1665 </r>
       <r>    18.4204     0.6366    23.1773 </r>
       <r>    18.4373     0.6110    23.1876 </r>
       <r>    18.4543     0.5896    23.1976 </r>
       <r>    18.4712     0.5733    23.2073 </r>
       <r>    18.4881     0.5632    23.2169 </r>
       <r>    18.5051     0.5597    23.2264 </r>
       <r>    18.5220     0.5631    23.2359 </r>
       <r>    18.5390     0.5730    23.2456 </r>
       <r>    18.5559     0.5887    23.2556 </r>
       <r>    18.5728     0.6093    23.2659 </r>
       <r>    18.5898     0.6335    23.2766 </r>
       <r>    18.6067     0.6598    23.2878 </r>
       <r>    18.6237     0.6868    23.2994 </r>
       <r>    18.6406     0.7129    23.3115 </r>
       <r>    18.6575     0.7370    23.3240 </r>
       <r>    18.6745     0.7579    23.3368 </r>
       <r>    18.6914     0.7750    23.3500 </r>
       <r>    18.7083     0.7878    23.3633 </r>
       <r>    18.7253     0.7963    23.3768 </r>
       <r>    18.7422     0.8005    23.3904 </r>
       <r>    18.7592     0.8009    23.4039 </r>
       <r>    18.7761     0.7980    23.4174 </r>
       <r>    18.7930     0.7924    23.4309 </r>
       <r>    18.8100     0.7848    23.4441 </r>
       <r>    18.8269     0.7757    23.4573 </r>
       <r>    18.8438     0.7656    23.4703 </r>
       <r>    18.8608     0.7550    23.4830 </r>
       <r>    18.8777     0.7440    23.4956 </r>
       <r>    18.8947     0.7328    23.5081 </r>
       <r>    18.9116     0.7215    23.5203 </r>
       <r>    18.9285     0.7100    23.5323 </r>
       <r>    18.9455     0.6982    23.5441 </r>
       <r>    18.9624     0.6860    23.5557 </r>
       <r>    18.9793     0.6733    23.5672 </r>
       <r>    18.9963     0.6600    23.5783 </r>
       <r>    19.0132     0.6460    23.5893 </r>
       <r>    19.0302     0.6311    23.6000 </r>
       <r>    19.0471     0.6154    23.6104 </r>
       <r>    19.0640     0.5987    23.6205 </r>
       <r>    19.0810     0.5812    23.6304 </r>
       <r>    19.0979     0.5626    23.6399 </r>
       <r>    19.1148     0.5429    23.6491 </r>
       <r>    19.1318     0.5222    23.6579 </r>
       <r>    19.1487     0.5004    23.6664 </r>
       <r>    19.1657     0.4775    23.6745 </r>
       <r>    19.1826     0.4537    23.6822 </r>
       <r>    19.1995     0.4290    23.6895 </r>
       <r>    19.2165     0.4038    23.6963 </r>
       <r>    19.2334     0.3783    23.7027 </r>
       <r>    19.2503     0.3529    23.7087 </r>
       <r>    19.2673     0.3282    23.7142 </r>
       <r>    19.2842     0.3045    23.7194 </r>
       <r>    19.3012     0.2825    23.7242 </r>
       <r>    19.3181     0.2626    23.7286 </r>
       <r>    19.3350     0.2451    23.7328 </r>
       <r>    19.3520     0.2305    23.7367 </r>
       <r>    19.3689     0.2188    23.7404 </r>
       <r>    19.3859     0.2102    23.7439 </r>
       <r>    19.4028     0.2045    23.7474 </r>
       <r>    19.4197     0.2016    23.7508 </r>
       <r>    19.4367     0.2010    23.7542 </r>
       <r>    19.4536     0.2024    23.7577 </r>
       <r>    19.4705     0.2053    23.7611 </r>
       <r>    19.4875     0.2092    23.7647 </r>
       <r>    19.5044     0.2134    23.7683 </r>
       <r>    19.5214     0.2177    23.7720 </r>
       <r>    19.5383     0.2213    23.7757 </r>
       <r>    19.5552     0.2241    23.7795 </r>
       <r>    19.5722     0.2257    23.7834 </r>
       <r>    19.5891     0.2257    23.7872 </r>
       <r>    19.6060     0.2240    23.7910 </r>
       <r>    19.6230     0.2204    23.7947 </r>
       <r>    19.6399     0.2151    23.7983 </r>
       <r>    19.6569     0.2079    23.8019 </r>
       <r>    19.6738     0.1991    23.8052 </r>
       <r>    19.6907     0.1887    23.8084 </r>
       <r>    19.7077     0.1770    23.8114 </r>
       <r>    19.7246     0.1645    23.8142 </r>
       <r>    19.7415     0.1512    23.8168 </r>
       <r>    19.7585     0.1377    23.8191 </r>
       <r>    19.7754     0.1243    23.8212 </r>
       <r>    19.7924     0.1114    23.8231 </r>
       <r>    19.8093     0.0993    23.8248 </r>
       <r>    19.8262     0.0884    23.8263 </r>
       <r>    19.8432     0.0788    23.8276 </r>
       <r>    19.8601     0.0708    23.8288 </r>
       <r>    19.8770     0.0644    23.8299 </r>
       <r>    19.8940     0.0598    23.8309 </r>
       <r>    19.9109     0.0569    23.8319 </r>
       <r>    19.9279     0.0555    23.8328 </r>
       <r>    19.9448     0.0556    23.8338 </r>
       <r>    19.9617     0.0568    23.8347 </r>
       <r>    19.9787     0.0590    23.8357 </r>
       <r>    19.9956     0.0618    23.8368 </r>
       <r>    20.0126     0.0649    23.8379 </r>
       <r>    20.0295     0.0682    23.8390 </r>
       <r>    20.0464     0.0713    23.8402 </r>
       <r>    20.0634     0.0741    23.8415 </r>
       <r>    20.0803     0.0764    23.8428 </r>
       <r>    20.0972     0.0781    23.8441 </r>
       <r>    20.1142     0.0793    23.8455 </r>
       <r>    20.1311     0.0800    23.8468 </r>
       <r>    20.1481     0.0803    23.8482 </r>
       <r>    20.1650     0.0802    23.8495 </r>
       <r>    20.1819     0.0799    23.8509 </r>
       <r>    20.1989     0.0796    23.8522 </r>
       <r>    20.2158     0.0792    23.8536 </r>
       <r>    20.2327     0.0789    23.8549 </r>
       <r>    20.2497     0.0787    23.8562 </r>
       <r>    20.2666     0.0786    23.8576 </r>
       <r>    20.2836     0.0785    23.8589 </r>
       <r>    20.3005     0.0785    23.8602 </r>
       <r>    20.3174     0.0784    23.8616 </r>
       <r>    20.3344     0.0782    23.8629 </r>
       <r>    20.3513     0.0778    23.8642 </r>
       <r>    20.3682     0.0773    23.8655 </r>
       <r>    20.3852     0.0766    23.8668 </r>
       <r>    20.4021     0.0758    23.8681 </r>
       <r>    20.4191     0.0749    23.8694 </r>
       <r>    20.4360     0.0740    23.8706 </r>
       <r>    20.4529     0.0732    23.8718 </r>
       <r>    20.4699     0.0726    23.8731 </r>
       <r>    20.4868     0.0723    23.8743 </r>
       <r>    20.5037     0.0723    23.8755 </r>
       <r>    20.5207     0.0725    23.8768 </r>
       <r>    20.5376     0.0730    23.8780 </r>
       <r>    20.5546     0.0735    23.8792 </r>
       <r>    20.5715     0.0741    23.8805 </r>
       <r>    20.5884     0.0744    23.8817 </r>
       <r>    20.6054     0.0744    23.8830 </r>
       <r>    20.6223     0.0738    23.8843 </r>
       <r>    20.6392     0.0725    23.8855 </r>
       <r>    20.6562     0.0705    23.8867 </r>
       <r>    20.6731     0.0676    23.8878 </r>
       <r>    20.6901     0.0640    23.8889 </r>
       <r>    20.7070     0.0597    23.8899 </r>
       <r>    20.7239     0.0549    23.8908 </r>
       <r>    20.7409     0.0497    23.8917 </r>
       <r>    20.7578     0.0445    23.8924 </r>
       <r>    20.7748     0.0394    23.8931 </r>
       <r>    20.7917     0.0348    23.8937 </r>
       <r>    20.8086     0.0307    23.8942 </r>
       <r>    20.8256     0.0275    23.8947 </r>
       <r>    20.8425     0.0251    23.8951 </r>
       <r>    20.8594     0.0236    23.8955 </r>
       <r>    20.8764     0.0230    23.8959 </r>
       <r>    20.8933     0.0233    23.8963 </r>
       <r>    20.9103     0.0242    23.8967 </r>
       <r>    20.9272     0.0258    23.8971 </r>
       <r>    20.9441     0.0278    23.8976 </r>
       <r>    20.9611     0.0300    23.8981 </r>
       <r>    20.9780     0.0325    23.8987 </r>
       <r>    20.9949     0.0349    23.8993 </r>
       <r>    21.0119     0.0374    23.8999 </r>
       <r>    21.0288     0.0399    23.9006 </r>
       <r>    21.0458     0.0423    23.9013 </r>
       <r>    21.0627     0.0446    23.9020 </r>
       <r>    21.0796     0.0469    23.9028 </r>
       <r>    21.0966     0.0492    23.9037 </r>
       <r>    21.1135     0.0514    23.9045 </r>
       <r>    21.1304     0.0535    23.9054 </r>
       <r>    21.1474     0.0554    23.9064 </r>
       <r>    21.1643     0.0570    23.9074 </r>
       <r>    21.1813     0.0582    23.9083 </r>
       <r>    21.1982     0.0589    23.9093 </r>
       <r>    21.2151     0.0591    23.9103 </r>
       <r>    21.2321     0.0585    23.9113 </r>
       <r>    21.2490     0.0573    23.9123 </r>
       <r>    21.2659     0.0555    23.9132 </r>
       <r>    21.2829     0.0531    23.9141 </r>
       <r>    21.2998     0.0502    23.9150 </r>
       <r>    21.3168     0.0471    23.9158 </r>
       <r>    21.3337     0.0439    23.9165 </r>
       <r>    21.3506     0.0408    23.9172 </r>
       <r>    21.3676     0.0380    23.9179 </r>
       <r>    21.3845     0.0358    23.9185 </r>
       <r>    21.4014     0.0342    23.9191 </r>
       <r>    21.4184     0.0334    23.9196 </r>
       <r>    21.4353     0.0333    23.9202 </r>
       <r>    21.4523     0.0339    23.9208 </r>
       <r>    21.4692     0.0351    23.9213 </r>
       <r>    21.4861     0.0368    23.9220 </r>
       <r>    21.5031     0.0389    23.9226 </r>
       <r>    21.5200     0.0410    23.9233 </r>
       <r>    21.5370     0.0431    23.9241 </r>
       <r>    21.5539     0.0449    23.9248 </r>
       <r>    21.5708     0.0464    23.9256 </r>
       <r>    21.5878     0.0474    23.9264 </r>
       <r>    21.6047     0.0479    23.9272 </r>
       <r>    21.6216     0.0480    23.9280 </r>
       <r>    21.6386     0.0476    23.9288 </r>
       <r>    21.6555     0.0470    23.9296 </r>
       <r>    21.6725     0.0461    23.9304 </r>
       <r>    21.6894     0.0452    23.9312 </r>
       <r>    21.7063     0.0443    23.9319 </r>
       <r>    21.7233     0.0434    23.9327 </r>
       <r>    21.7402     0.0428    23.9334 </r>
       <r>    21.7571     0.0423    23.9341 </r>
       <r>    21.7741     0.0420    23.9348 </r>
       <r>    21.7910     0.0418    23.9355 </r>
       <r>    21.8080     0.0418    23.9362 </r>
       <r>    21.8249     0.0418    23.9369 </r>
       <r>    21.8418     0.0418    23.9376 </r>
       <r>    21.8588     0.0417    23.9383 </r>
       <r>    21.8757     0.0414    23.9391 </r>
       <r>    21.8926     0.0411    23.9397 </r>
       <r>    21.9096     0.0405    23.9404 </r>
       <r>    21.9265     0.0398    23.9411 </r>
       <r>    21.9435     0.0389    23.9418 </r>
       <r>    21.9604     0.0379    23.9424 </r>
       <r>    21.9773     0.0368    23.9430 </r>
       <r>    21.9943     0.0357    23.9436 </r>
       <r>    22.0112     0.0346    23.9442 </r>
       <r>    22.0281     0.0336    23.9448 </r>
       <r>    22.0451     0.0327    23.9453 </r>
       <r>    22.0620     0.0318    23.9459 </r>
       <r>    22.0790     0.0311    23.9464 </r>
       <r>    22.0959     0.0305    23.9469 </r>
       <r>    22.1128     0.0299    23.9474 </r>
       <r>    22.1298     0.0294    23.9479 </r>
       <r>    22.1467     0.0288    23.9484 </r>
       <r>    22.1637     0.0281    23.9489 </r>
       <r>    22.1806     0.0273    23.9494 </r>
       <r>    22.1975     0.0263    23.9498 </r>
       <r>    22.2145     0.0251    23.9502 </r>
       <r>    22.2314     0.0237    23.9506 </r>
       <r>    22.2483     0.0221    23.9510 </r>
       <r>    22.2653     0.0203    23.9513 </r>
       <r>    22.2822     0.0185    23.9517 </r>
       <r>    22.2992     0.0167    23.9519 </r>
       <r>    22.3161     0.0149    23.9522 </r>
       <r>    22.3330     0.0134    23.9524 </r>
       <r>    22.3500     0.0121    23.9526 </r>
       <r>    22.3669     0.0111    23.9528 </r>
       <r>    22.3838     0.0104    23.9530 </r>
       <r>    22.4008     0.0101    23.9532 </r>
       <r>    22.4177     0.0101    23.9533 </r>
       <r>    22.4347     0.0104    23.9535 </r>
       <r>    22.4516     0.0110    23.9537 </r>
       <r>    22.4685     0.0118    23.9539 </r>
       <r>    22.4855     0.0127    23.9541 </r>
       <r>    22.5024     0.0138    23.9543 </r>
       <r>    22.5193     0.0150    23.9546 </r>
       <r>    22.5363     0.0163    23.9549 </r>
       <r>    22.5532     0.0177    23.9552 </r>
       <r>    22.5702     0.0194    23.9555 </r>
       <r>    22.5871     0.0212    23.9559 </r>
       <r>    22.6040     0.0234    23.9563 </r>
       <r>    22.6210     0.0257    23.9567 </r>
       <r>    22.6379     0.0284    23.9572 </r>
       <r>    22.6548     0.0312    23.9577 </r>
       <r>    22.6718     0.0342    23.9583 </r>
       <r>    22.6887     0.0372    23.9589 </r>
       <r>    22.7057     0.0401    23.9596 </r>
       <r>    22.7226     0.0427    23.9603 </r>
       <r>    22.7395     0.0449    23.9611 </r>
       <r>    22.7565     0.0465    23.9619 </r>
       <r>    22.7734     0.0474    23.9627 </r>
       <r>    22.7903     0.0476    23.9635 </r>
       <r>    22.8073     0.0471    23.9643 </r>
       <r>    22.8242     0.0459    23.9650 </r>
       <r>    22.8412     0.0441    23.9658 </r>
       <r>    22.8581     0.0419    23.9665 </r>
       <r>    22.8750     0.0395    23.9672 </r>
       <r>    22.8920     0.0370    23.9678 </r>
       <r>    22.9089     0.0346    23.9684 </r>
       <r>    22.9259     0.0324    23.9689 </r>
       <r>    22.9428     0.0307    23.9695 </r>
       <r>    22.9597     0.0295    23.9700 </r>
       <r>    22.9767     0.0287    23.9704 </r>
       <r>    22.9936     0.0285    23.9709 </r>
       <r>    23.0105     0.0286    23.9714 </r>
       <r>    23.0275     0.0291    23.9719 </r>
       <r>    23.0444     0.0297    23.9724 </r>
       <r>    23.0614     0.0303    23.9729 </r>
       <r>    23.0783     0.0308    23.9734 </r>
       <r>    23.0952     0.0311    23.9740 </r>
       <r>    23.1122     0.0310    23.9745 </r>
       <r>    23.1291     0.0306    23.9750 </r>
       <r>    23.1460     0.0296    23.9755 </r>
       <r>    23.1630     0.0282    23.9760 </r>
       <r>    23.1799     0.0265    23.9764 </r>
       <r>    23.1969     0.0243    23.9768 </r>
       <r>    23.2138     0.0219    23.9772 </r>
       <r>    23.2307     0.0193    23.9775 </r>
       <r>    23.2477     0.0166    23.9778 </r>
       <r>    23.2646     0.0139    23.9781 </r>
       <r>    23.2815     0.0113    23.9782 </r>
       <r>    23.2985     0.0089    23.9784 </r>
       <r>    23.3154     0.0067    23.9785 </r>
       <r>    23.3324     0.0047    23.9786 </r>
       <r>    23.3493     0.0030    23.9786 </r>
       <r>    23.3662     0.0017    23.9787 </r>
       <r>    23.3832     0.0006    23.9787 </r>
       <r>    23.4001    -0.0001    23.9787 </r>
       <r>    23.4170    -0.0006    23.9787 </r>
       <r>    23.4340    -0.0008    23.9787 </r>
       <r>    23.4509    -0.0008    23.9786 </r>
       <r>    23.4679    -0.0006    23.9786 </r>
       <r>    23.4848    -0.0002    23.9786 </r>
       <r>    23.5017     0.0004    23.9786 </r>
       <r>    23.5187     0.0011    23.9787 </r>
       <r>    23.5356     0.0019    23.9787 </r>
       <r>    23.5525     0.0029    23.9787 </r>
       <r>    23.5695     0.0040    23.9788 </r>
       <r>    23.5864     0.0053    23.9789 </r>
       <r>    23.6034     0.0067    23.9790 </r>
       <r>    23.6203     0.0082    23.9791 </r>
       <r>    23.6372     0.0099    23.9793 </r>
       <r>    23.6542     0.0117    23.9795 </r>
       <r>    23.6711     0.0136    23.9797 </r>
       <r>    23.6881     0.0155    23.9800 </r>
       <r>    23.7050     0.0175    23.9803 </r>
       <r>    23.7219     0.0195    23.9806 </r>
       <r>    23.7389     0.0213    23.9810 </r>
       <r>    23.7558     0.0229    23.9814 </r>
       <r>    23.7727     0.0242    23.9818 </r>
       <r>    23.7897     0.0251    23.9822 </r>
       <r>    23.8066     0.0256    23.9826 </r>
       <r>    23.8236     0.0256    23.9831 </r>
       <r>    23.8405     0.0251    23.9835 </r>
       <r>    23.8574     0.0242    23.9839 </r>
       <r>    23.8744     0.0227    23.9843 </r>
       <r>    23.8913     0.0208    23.9847 </r>
       <r>    23.9082     0.0186    23.9850 </r>
       <r>    23.9252     0.0162    23.9852 </r>
       <r>    23.9421     0.0136    23.9855 </r>
       <r>    23.9591     0.0110    23.9857 </r>
       <r>    23.9760     0.0086    23.9858 </r>
       <r>    23.9929     0.0063    23.9859 </r>
       <r>    24.0099     0.0044    23.9860 </r>
       <r>    24.0268     0.0028    23.9860 </r>
       <r>    24.0437     0.0017    23.9861 </r>
       <r>    24.0607     0.0011    23.9861 </r>
       <r>    24.0776     0.0010    23.9861 </r>
       <r>    24.0946     0.0014    23.9861 </r>
       <r>    24.1115     0.0024    23.9862 </r>
       <r>    24.1284     0.0038    23.9862 </r>
       <r>    24.1454     0.0057    23.9863 </r>
       <r>    24.1623     0.0079    23.9865 </r>
       <r>    24.1792     0.0105    23.9866 </r>
       <r>    24.1962     0.0133    23.9869 </r>
       <r>    24.2131     0.0162    23.9871 </r>
       <r>    24.2301     0.0191    23.9875 </r>
       <r>    24.2470     0.0219    23.9878 </r>
       <r>    24.2639     0.0245    23.9882 </r>
       <r>    24.2809     0.0268    23.9887 </r>
       <r>    24.2978     0.0287    23.9892 </r>
       <r>    24.3147     0.0301    23.9897 </r>
       <r>    24.3317     0.0311    23.9902 </r>
       <r>    24.3486     0.0314    23.9908 </r>
       <r>    24.3656     0.0312    23.9913 </r>
       <r>    24.3825     0.0305    23.9918 </r>
       <r>    24.3994     0.0293    23.9923 </r>
       <r>    24.4164     0.0277    23.9928 </r>
       <r>    24.4333     0.0257    23.9932 </r>
       <r>    24.4503     0.0235    23.9936 </r>
       <r>    24.4672     0.0211    23.9940 </r>
       <r>    24.4841     0.0186    23.9943 </r>
       <r>    24.5011     0.0161    23.9945 </r>
       <r>    24.5180     0.0137    23.9948 </r>
       <r>    24.5349     0.0114    23.9950 </r>
       <r>    24.5519     0.0092    23.9951 </r>
       <r>    24.5688     0.0073    23.9952 </r>
       <r>    24.5858     0.0056    23.9953 </r>
       <r>    24.6027     0.0041    23.9954 </r>
       <r>    24.6196     0.0029    23.9955 </r>
       <r>    24.6366     0.0018    23.9955 </r>
       <r>    24.6535     0.0010    23.9955 </r>
       <r>    24.6704     0.0004    23.9955 </r>
       <r>    24.6874    -0.0001    23.9955 </r>
       <r>    24.7043    -0.0004    23.9955 </r>
       <r>    24.7213    -0.0006    23.9955 </r>
       <r>    24.7382    -0.0008    23.9955 </r>
       <r>    24.7551    -0.0008    23.9955 </r>
       <r>    24.7721    -0.0008    23.9955 </r>
       <r>    24.7890    -0.0008    23.9954 </r>
       <r>    24.8059    -0.0007    23.9954 </r>
       <r>    24.8229    -0.0007    23.9954 </r>
       <r>    24.8398    -0.0006    23.9954 </r>
       <r>    24.8568    -0.0005    23.9954 </r>
       <r>    24.8737    -0.0004    23.9954 </r>
       <r>    24.8906    -0.0004    23.9954 </r>
       <r>    24.9076    -0.0003    23.9954 </r>
       <r>    24.9245    -0.0003    23.9954 </r>
       <r>    24.9414    -0.0003    23.9954 </r>
       <r>    24.9584    -0.0003    23.9954 </r>
       <r>    24.9753    -0.0003    23.9954 </r>
       <r>    24.9923    -0.0004    23.9954 </r>
       <r>    25.0092    -0.0004    23.9953 </r>
       <r>    25.0261    -0.0005    23.9953 </r>
       <r>    25.0431    -0.0005    23.9953 </r>
       <r>    25.0600    -0.0006    23.9953 </r>
       <r>    25.0770    -0.0006    23.9953 </r>
       <r>    25.0939    -0.0007    23.9953 </r>
       <r>    25.1108    -0.0006    23.9953 </r>
       <r>    25.1278    -0.0006    23.9953 </r>
       <r>    25.1447    -0.0004    23.9953 </r>
       <r>    25.1616    -0.0001    23.9953 </r>
       <r>    25.1786     0.0003    23.9953 </r>
       <r>    25.1955     0.0008    23.9953 </r>
       <r>    25.2125     0.0014    23.9953 </r>
       <r>    25.2294     0.0022    23.9953 </r>
       <r>    25.2463     0.0032    23.9954 </r>
       <r>    25.2633     0.0043    23.9955 </r>
       <r>    25.2802     0.0055    23.9956 </r>
       <r>    25.2971     0.0068    23.9957 </r>
       <r>    25.3141     0.0080    23.9958 </r>
       <r>    25.3310     0.0093    23.9960 </r>
       <r>    25.3480     0.0105    23.9962 </r>
       <r>    25.3649     0.0115    23.9963 </r>
       <r>    25.3818     0.0124    23.9966 </r>
       <r>    25.3988     0.0130    23.9968 </r>
       <r>    25.4157     0.0134    23.9970 </r>
       <r>    25.4326     0.0134    23.9972 </r>
       <r>    25.4496     0.0132    23.9975 </r>
       <r>    25.4665     0.0128    23.9977 </r>
       <r>    25.4835     0.0121    23.9979 </r>
       <r>    25.5004     0.0112    23.9981 </r>
       <r>    25.5173     0.0102    23.9982 </r>
       <r>    25.5343     0.0092    23.9984 </r>
       <r>    25.5512     0.0081    23.9985 </r>
       <r>    25.5681     0.0071    23.9987 </r>
       <r>    25.5851     0.0062    23.9988 </r>
       <r>    25.6020     0.0055    23.9989 </r>
       <r>    25.6190     0.0049    23.9989 </r>
       <r>    25.6359     0.0044    23.9990 </r>
       <r>    25.6528     0.0041    23.9991 </r>
       <r>    25.6698     0.0039    23.9991 </r>
       <r>    25.6867     0.0038    23.9992 </r>
       <r>    25.7036     0.0037    23.9993 </r>
       <r>    25.7206     0.0037    23.9993 </r>
       <r>    25.7375     0.0037    23.9994 </r>
       <r>    25.7545     0.0036    23.9995 </r>
       <r>    25.7714     0.0036    23.9995 </r>
       <r>    25.7883     0.0034    23.9996 </r>
       <r>    25.8053     0.0032    23.9996 </r>
       <r>    25.8222     0.0029    23.9997 </r>
       <r>    25.8392     0.0026    23.9997 </r>
       <r>    25.8561     0.0022    23.9998 </r>
       <r>    25.8730     0.0018    23.9998 </r>
       <r>    25.8900     0.0015    23.9998 </r>
       <r>    25.9069     0.0011    23.9998 </r>
       <r>    25.9238     0.0008    23.9999 </r>
       <r>    25.9408     0.0005    23.9999 </r>
       <r>    25.9577     0.0003    23.9999 </r>
       <r>    25.9747     0.0001    23.9999 </r>
       <r>    25.9916    -0.0000    23.9999 </r>
       <r>    26.0085    -0.0002    23.9999 </r>
       <r>    26.0255    -0.0002    23.9999 </r>
       <r>    26.0424    -0.0003    23.9999 </r>
       <r>    26.0593    -0.0003    23.9998 </r>
       <r>    26.0763    -0.0003    23.9998 </r>
       <r>    26.0932    -0.0003    23.9998 </r>
       <r>    26.1102    -0.0002    23.9998 </r>
       <r>    26.1271    -0.0002    23.9998 </r>
       <r>    26.1440    -0.0002    23.9998 </r>
       <r>    26.1610    -0.0001    23.9998 </r>
       <r>    26.1779    -0.0001    23.9998 </r>
       <r>    26.1948    -0.0001    23.9998 </r>
       <r>    26.2118    -0.0000    23.9998 </r>
       <r>    26.2287     0.0000    23.9998 </r>
       <r>    26.2457     0.0001    23.9998 </r>
       <r>    26.2626     0.0001    23.9998 </r>
       <r>    26.2795     0.0002    23.9998 </r>
       <r>    26.2965     0.0003    23.9998 </r>
       <r>    26.3134     0.0003    23.9998 </r>
       <r>    26.3303     0.0004    23.9999 </r>
       <r>    26.3473     0.0005    23.9999 </r>
       <r>    26.3642     0.0006    23.9999 </r>
       <r>    26.3812     0.0006    23.9999 </r>
       <r>    26.3981     0.0007    23.9999 </r>
       <r>    26.4150     0.0007    23.9999 </r>
       <r>    26.4320     0.0007    23.9999 </r>
       <r>    26.4489     0.0007    23.9999 </r>
       <r>    26.4658     0.0007    23.9999 </r>
       <r>    26.4828     0.0007    23.9999 </r>
       <r>    26.4997     0.0006    24.0000 </r>
       <r>    26.5167     0.0006    24.0000 </r>
       <r>    26.5336     0.0005    24.0000 </r>
       <r>    26.5505     0.0004    24.0000 </r>
       <r>    26.5675     0.0004    24.0000 </r>
       <r>    26.5844     0.0003    24.0000 </r>
       <r>    26.6014     0.0002    24.0000 </r>
       <r>    26.6183     0.0002    24.0000 </r>
       <r>    26.6352     0.0001    24.0000 </r>
       <r>    26.6522     0.0001    24.0000 </r>
       <r>    26.6691     0.0000    24.0000 </r>
       <r>    26.6860    -0.0000    24.0000 </r>
       <r>    26.7030    -0.0000    24.0000 </r>
       <r>    26.7199    -0.0000    24.0000 </r>
       <r>    26.7369    -0.0000    24.0000 </r>
       <r>    26.7538    -0.0000    24.0000 </r>
       <r>    26.7707    -0.0000    24.0000 </r>
       <r>    26.7877    -0.0000    24.0000 </r>
       <r>    26.8046    -0.0000    24.0000 </r>
       <r>    26.8215    -0.0000    24.0000 </r>
       <r>    26.8385    -0.0000    24.0000 </r>
       <r>    26.8554    -0.0000    24.0000 </r>
       <r>    26.8724    -0.0000    24.0000 </r>
       <r>    26.8893    -0.0000    24.0000 </r>
       <r>    26.9062    -0.0000    24.0000 </r>
       <r>    26.9232    -0.0000    24.0000 </r>
       <r>    26.9401    -0.0000    24.0000 </r>
       <r>    26.9570    -0.0000    24.0000 </r>
       <r>    26.9740    -0.0000    24.0000 </r>
       <r>    26.9909    -0.0000    24.0000 </r>
       <r>    27.0079    -0.0000    24.0000 </r>
       <r>    27.0248    -0.0000    24.0000 </r>
       <r>    27.0417    -0.0000    24.0000 </r>
       <r>    27.0587    -0.0000    24.0000 </r>
       <r>    27.0756    -0.0000    24.0000 </r>
       <r>    27.0925    -0.0000    24.0000 </r>
       <r>    27.1095    -0.0000    24.0000 </r>
       <r>    27.1264    -0.0000    24.0000 </r>
       <r>    27.1434    -0.0000    24.0000 </r>
       <r>    27.1603    -0.0000    24.0000 </r>
       <r>    27.1772    -0.0000    24.0000 </r>
       <r>    27.1942    -0.0000    24.0000 </r>
       <r>    27.2111    -0.0000    24.0000 </r>
       <r>    27.2280    -0.0000    24.0000 </r>
       <r>    27.2450    -0.0000    24.0000 </r>
       <r>    27.2619    -0.0000    24.0000 </r>
       <r>    27.2789    -0.0000    24.0000 </r>
       <r>    27.2958    -0.0000    24.0000 </r>
       <r>    27.3127    -0.0000    24.0000 </r>
       <r>    27.3297    -0.0000    24.0000 </r>
       <r>    27.3466    -0.0000    24.0000 </r>
       <r>    27.3636    -0.0000    24.0000 </r>
       <r>    27.3805    -0.0000    24.0000 </r>
       <r>    27.3974    -0.0000    24.0000 </r>
       <r>    27.4144    -0.0000    24.0000 </r>
       <r>    27.4313    -0.0000    24.0000 </r>
       <r>    27.4482    -0.0000    24.0000 </r>
       <r>    27.4652    -0.0000    24.0000 </r>
       <r>    27.4821    -0.0000    24.0000 </r>
       <r>    27.4991    -0.0000    24.0000 </r>
       <r>    27.5160    -0.0000    24.0000 </r>
       <r>    27.5329    -0.0000    24.0000 </r>
       <r>    27.5499    -0.0000    24.0000 </r>
       <r>    27.5668    -0.0000    24.0000 </r>
       <r>    27.5837    -0.0000    24.0000 </r>
       <r>    27.6007    -0.0000    24.0000 </r>
       <r>    27.6176    -0.0000    24.0000 </r>
       <r>    27.6346    -0.0000    24.0000 </r>
       <r>    27.6515    -0.0000    24.0000 </r>
       <r>    27.6684    -0.0000    24.0000 </r>
       <r>    27.6854     0.0000    24.0000 </r>
       <r>    27.7023     0.0000    24.0000 </r>
       <r>    27.7192     0.0000    24.0000 </r>
       <r>    27.7362     0.0000    24.0000 </r>
       <r>    27.7531     0.0000    24.0000 </r>
       <r>    27.7701     0.0000    24.0000 </r>
       <r>    27.7870     0.0000    24.0000 </r>
       <r>    27.8039     0.0000    24.0000 </r>
       <r>    27.8209     0.0000    24.0000 </r>
       <r>    27.8378     0.0000    24.0000 </r>
       <r>    27.8547     0.0000    24.0000 </r>
       <r>    27.8717     0.0000    24.0000 </r>
       <r>    27.8886     0.0000    24.0000 </r>
       <r>    27.9056     0.0000    24.0000 </r>
       <r>    27.9225     0.0000    24.0000 </r>
       <r>    27.9394     0.0000    24.0000 </r>
       <r>    27.9564     0.0000    24.0000 </r>
       <r>    27.9733     0.0000    24.0000 </r>
       <r>    27.9903     0.0000    24.0000 </r>
       <r>    28.0072     0.0000    24.0000 </r>
       <r>    28.0241     0.0000    24.0000 </r>
       <r>    28.0411     0.0000    24.0000 </r>
       <r>    28.0580     0.0000    24.0000 </r>
       <r>    28.0749     0.0000    24.0000 </r>
       <r>    28.0919     0.0000    24.0000 </r>
       <r>    28.1088     0.0000    24.0000 </r>
       <r>    28.1258     0.0000    24.0000 </r>
       <r>    28.1427     0.0000    24.0000 </r>
       <r>    28.1596     0.0000    24.0000 </r>
       <r>    28.1766     0.0000    24.0000 </r>
       <r>    28.1935     0.0000    24.0000 </r>
       <r>    28.2104     0.0000    24.0000 </r>
       <r>    28.2274     0.0000    24.0000 </r>
       <r>    28.2443     0.0000    24.0000 </r>
       <r>    28.2613     0.0000    24.0000 </r>
       <r>    28.2782     0.0000    24.0000 </r>
       <r>    28.2951     0.0000    24.0000 </r>
       <r>    28.3121     0.0000    24.0000 </r>
       <r>    28.3290     0.0000    24.0000 </r>
       <r>    28.3459     0.0000    24.0000 </r>
       <r>    28.3629     0.0000    24.0000 </r>
       <r>    28.3798     0.0000    24.0000 </r>
       <r>    28.3968     0.0000    24.0000 </r>
       <r>    28.4137     0.0000    24.0000 </r>
       <r>    28.4306     0.0000    24.0000 </r>
       <r>    28.4476     0.0000    24.0000 </r>
       <r>    28.4645     0.0000    24.0000 </r>
      </set>
     </set>
    </array>
   </total>
  </dos>
 </calculation>
 <structure name="finalpos" >
  <crystal>
   <varray name="basis" >
    <v>       3.44000000       0.00000000       0.00000000 </v>
    <v>       0.00000000       3.44000000       0.00000000 </v>
    <v>       0.00000000       0.00000000       3.44000000 </v>
   </varray>
   <i name="volume">     40.70758400 </i>
   <varray name="rec_basis" >
    <v>       0.29069767       0.00000000       0.00000000 </v>
    <v>       0.00000000       0.29069767       0.00000000 </v>
    <v>       0.00000000       0.00000000       0.29069767 </v>
   </varray>
  </crystal>
  <varray name="positions" >
   <v>       0.00000000       0.00000000       0.00000000 </v>
   <v>       0.50000000       0.00000000       0.50000000 </v>
   <v>       0.50000000       0.50000000       0.00000000 </v>
   <v>       0.00000000       0.50000000       0.50000000 </v>
  </varray>
 </structure>
</modeling>
