Al1 Ni3
3.470000
   1.0000000000000000    0.0000000000000000    0.0000000000000000
   0.0000000000000000    1.0000000000000000    0.0000000000000000
   0.0000000000000000    0.0000000000000000    1.0000000000000000
Al Ni
1 3
direct
   0.0000000000000000    0.0000000000000000    0.0000000000000000 Al
   0.5000000000000000    0.0000000000000000    0.5000000000000000 Ni
   0.5000000000000000    0.5000000000000000    0.0000000000000000 Ni
   0.0000000000000000    0.5000000000000000    0.5000000000000000 Ni
