       N       E                     dE             d eps       ncg     rms          rms(c)
DAV:   1     0.231231998491E+04    0.23123E+04   -0.12168E+05 22680   0.240E+03
DAV:   2     0.710320475364E+02   -0.22413E+04   -0.21608E+04 22680   0.498E+02
DAV:   3    -0.198105714912E+03   -0.26914E+03   -0.23357E+03 22686   0.200E+02
DAV:   4    -0.210231389081E+03   -0.12126E+02   -0.11737E+02 25608   0.457E+01
DAV:   5    -0.210513007933E+03   -0.28162E+00   -0.28075E+00 27348   0.590E+00    0.489E+01
DAV:   6    -0.219392790993E+03   -0.88798E+01   -0.56669E+02 25242   0.140E+02    0.488E+01
DAV:   7    -0.177928225237E+03    0.41465E+02   -0.17044E+02 25488   0.773E+01    0.507E+00
DAV:   8    -0.177845134015E+03    0.83091E-01   -0.51283E+00 23760   0.783E+00    0.389E+00
DAV:   9    -0.177639888011E+03    0.20525E+00   -0.49526E-01 27222   0.376E+00    0.141E+00
DAV:  10    -0.177644658145E+03   -0.47701E-02   -0.20351E-02 25284   0.617E-01    0.159E+00
DAV:  11    -0.177614616348E+03    0.30042E-01   -0.27343E-02 28596   0.826E-01    0.107E+00
DAV:  12    -0.177608002815E+03    0.66135E-02   -0.13690E-02 29028   0.618E-01    0.662E-01
DAV:  13    -0.177605521492E+03    0.24813E-02   -0.11332E-02 30054   0.592E-01    0.215E-01
DAV:  14    -0.177609586266E+03   -0.40648E-02   -0.33682E-03 31326   0.340E-01    0.225E-01
DAV:  15    -0.177609299318E+03    0.28695E-03   -0.14963E-03 27762   0.220E-01    0.304E-01
DAV:  16    -0.177608574368E+03    0.72495E-03   -0.63098E-04 28272   0.150E-01    0.224E-01
DAV:  17    -0.177608077577E+03    0.49679E-03   -0.24466E-03 28284   0.286E-01    0.325E-02
DAV:  18    -0.177609016625E+03   -0.93905E-03   -0.38109E-04 32952   0.151E-01    0.146E-01
DAV:  19    -0.177608572974E+03    0.44365E-03   -0.56177E-04 26682   0.128E-01    0.149E-01
DAV:  20    -0.177608340791E+03    0.23218E-03   -0.10234E-03 29076   0.188E-01    0.283E-02
DAV:  21    -0.177608676915E+03   -0.33612E-03   -0.13101E-04 31764   0.932E-02    0.749E-02
DAV:  22    -0.177608494404E+03    0.18251E-03   -0.35144E-04 26532   0.102E-01    0.583E-02
DAV:  23    -0.177608548054E+03   -0.53650E-04   -0.62905E-05 30102   0.587E-02    0.329E-03
DAV:  24    -0.177608568367E+03   -0.20314E-04   -0.13117E-05 27468   0.261E-02    0.212E-02
DAV:  25    -0.177608561702E+03    0.66657E-05   -0.63714E-06 20964   0.136E-02    0.201E-02
DAV:  26    -0.177608559682E+03    0.20198E-05   -0.24531E-06 15378   0.103E-02    0.119E-02
DAV:  27    -0.177608559960E+03   -0.27806E-06   -0.15665E-06 12744   0.770E-03
   1 F= -.17760856E+03 E0= -.17757531E+03  d E =-.177609E+03  mag=    -0.0030
