       N       E                     dE             d eps       ncg     rms          rms(c)
DAV:   1     0.156642893968E+03    0.15664E+03   -0.16509E+04 21168   0.191E+03
DAV:   2    -0.214828851657E+02   -0.17813E+03   -0.17184E+03 21144   0.290E+02
DAV:   3    -0.258104809300E+02   -0.43276E+01   -0.42725E+01 28344   0.639E+01
DAV:   4    -0.258501275165E+02   -0.39647E-01   -0.39638E-01 24816   0.486E+00
DAV:   5    -0.258510771465E+02   -0.94963E-03   -0.94962E-03 29256   0.741E-01    0.171E+01
DAV:   6    -0.280515395958E+02   -0.22005E+01   -0.54801E+01 23472   0.119E+02    0.192E+01
DAV:   7    -0.220656145022E+02    0.59859E+01   -0.25277E+01 24240   0.653E+01    0.181E+00
DAV:   8    -0.220382946895E+02    0.27320E-01   -0.26733E-01 22536   0.370E+00    0.118E+00
DAV:   9    -0.220244303080E+02    0.13864E-01   -0.37488E-02 28212   0.224E+00    0.572E-01
DAV:  10    -0.220245351684E+02   -0.10486E-03   -0.21807E-03 28692   0.543E-01    0.136E-01
DAV:  11    -0.220241776099E+02    0.35756E-03   -0.71086E-04 27720   0.307E-01    0.709E-02
DAV:  12    -0.220242134267E+02   -0.35817E-04   -0.21101E-04 27348   0.183E-01    0.280E-02
DAV:  13    -0.220242198078E+02   -0.63811E-05   -0.13199E-05 26088   0.398E-02    0.213E-02
DAV:  14    -0.220242226687E+02   -0.28609E-05   -0.52456E-06 20988   0.287E-02    0.406E-03
DAV:  15    -0.220242214266E+02    0.12421E-05   -0.88023E-07 12132   0.115E-02    0.520E-03
DAV:  16    -0.220242212801E+02    0.14653E-06   -0.38643E-07 11736   0.962E-03
   1 F= -.22024221E+02 E0= -.22025871E+02  d E =-.220242E+02  mag=     0.7810
