 vasp.6.3.0 20Jan22 (build Jun 30 2026 15:27:26) complex                        
  
 executed on             LinuxIFC date 2026.07.21  05:56:49
 running on   24 total cores
 distrk:  each k-point on   24 cores,    1 groups
 distr:  one band on NCORE=   4 cores,    6 groups


--------------------------------------------------------------------------------------------------------


 INCAR:
   SYSTEM = Ni3Al EOS
   PREC = Accurate
   NCORE = 4
   LREAL = .FALSE.
   LWAVE = .FALSE.
   LASPH = .TRUE.
   ADDGRID = .TRUE.
   SYMPREC = 1.0E-5
   ISYM = 2
   ISPIN = 2
   MAGMOM = 1*0.0 3*0.6
   ISMEAR = 1
   SIGMA = 0.2
   ISTART = 0
   ICHARG = 2
   ENCUT = 600
   NEDOS = 2000
   EDIFF = 1.0E-6
   IBRION = 2
   ISIF = 2
   NSW = 100
   EDIFFG = -0.01

 POTCAR:   PAW_PBE Al 04Jan2001                   
 POTCAR:   PAW_PBE Ni 06Sep2000                   
 POTCAR:   PAW_PBE Al 04Jan2001                   
   VRHFIN =Al: s2p1                                                                                 
   LEXCH  = PE                                                                                      
   EATOM  =    53.5387 eV,    3.9350 Ry                                                             
                                                                                                    
   TITEL  = PAW_PBE Al 04Jan2001                                                                    
   LULTRA =        F    use ultrasoft PP ?                                                          
   IUNSCR =        1    unscreen: 0-lin 1-nonlin 2-no                                               
   RPACOR =    1.500    partial core radius                                                         
   POMASS =   26.982; ZVAL   =    3.000    mass and valenz                                          
   RCORE  =    1.900    outmost cutoff radius                                                       
   RWIGS  =    2.650; RWIGS  =    1.402    wigner-seitz radius (au A)                               
   ENMAX  =  240.300; ENMIN  =  180.225 eV                                                          
   ICORE  =        2    local potential                                                             
   LCOR   =        T    correct aug charges                                                         
   LPAW   =        T    paw PP                                                                      
   EAUG   =  291.052                                                                                
   DEXC   =    -.041                                                                                
   RMAX   =    2.974    core radius for proj-oper                                                   
   RAUG   =    1.300    factor for augmentation sphere                                              
   RDEP   =    1.966    radius for radial grids                                                     
   QCUT   =   -4.203; QGAM   =    8.405    optimization parameters                                  
                                                                                                    
   Description                                                                                      
     l     E      TYP  RCUT    TYP  RCUT                                                            
     0   .000     23  1.900                                                                         
     0   .000     23  1.900                                                                         
     1   .000     23  1.900                                                                         
     1  1.000     23  1.900                                                                         
     2   .000      7  1.900                                                                         
  local pseudopotential read in
  partial core-charges read in
  atomic valenz-charges read in
  non local Contribution for L=           0  read in
    real space projection operators read in
  non local Contribution for L=           0  read in
    real space projection operators read in
  non local Contribution for L=           1  read in
    real space projection operators read in
  non local Contribution for L=           1  read in
    real space projection operators read in
    PAW grid and wavefunctions read in
 
   number of l-projection  operators is LMAX  =           4
   number of lm-projection operators is LMMAX =           8
 
 POTCAR:   PAW_PBE Ni 06Sep2000                   
   VRHFIN =Ni:                                                                                      
   LEXCH  = PE                                                                                      
   EATOM  =  1077.9025 eV,   79.2236 Ry                                                             
                                                                                                    
   TITEL  = PAW_PBE Ni 06Sep2000                                                                    
   LULTRA =        F    use ultrasoft PP ?                                                          
   IUNSCR =        1    unscreen: 0-lin 1-nonlin 2-no                                               
   RPACOR =    2.000    partial core radius                                                         
   POMASS =   58.690; ZVAL   =   10.000    mass and valenz                                          
   RCORE  =    2.300    outmost cutoff radius                                                       
   RWIGS  =    2.430; RWIGS  =    1.286    wigner-seitz radius (au A)                               
   ENMAX  =  269.533; ENMIN  =  202.150 eV                                                          
   RCLOC  =    1.681    cutoff for local pot                                                        
   LCOR   =        T    correct aug charges                                                         
   LPAW   =        T    paw PP                                                                      
   EAUG   =  544.565                                                                                
   DEXC   =    -.009                                                                                
   RMAX   =    2.808    core radius for proj-oper                                                   
   RAUG   =    1.300    factor for augmentation sphere                                              
   RDEP   =    2.390    radius for radial grids                                                     
   QCUT   =   -4.451; QGAM   =    8.902    optimization parameters                                  
                                                                                                    
   Description                                                                                      
     l     E      TYP  RCUT    TYP  RCUT                                                            
     2   .000     23  2.300                                                                         
     2   .000     23  2.300                                                                         
     0   .000     23  2.300                                                                         
     0   .000     23  2.300                                                                         
     1  -.200     23  2.300                                                                         
     1   .000     23  2.300                                                                         
     3   .000      7   .000                                                                         
  local pseudopotential read in
  partial core-charges read in
  atomic valenz-charges read in
  non local Contribution for L=           2  read in
    real space projection operators read in
  non local Contribution for L=           2  read in
    real space projection operators read in
  non local Contribution for L=           0  read in
    real space projection operators read in
  non local Contribution for L=           0  read in
    real space projection operators read in
  non local Contribution for L=           1  read in
    real space projection operators read in
  non local Contribution for L=           1  read in
    real space projection operators read in
    PAW grid and wavefunctions read in
 
   number of l-projection  operators is LMAX  =           6
   number of lm-projection operators is LMMAX =          18
 
 PAW_PBE Al 04Jan2001                   :
 energy of atom  1       EATOM=  -53.5387
 kinetic energy error for atom=    0.0002 (will be added to EATOM!!)
 PAW_PBE Ni 06Sep2000                   :
 energy of atom  2       EATOM=-1077.9025
 kinetic energy error for atom=    0.0019 (will be added to EATOM!!)
 
 
 POSCAR: Al1 Ni3
  positions in direct lattice
  No initial velocities read in
 exchange correlation table for  LEXCH =        8
   RHO(1)=    0.500       N(1)  =     2000
   RHO(2)=  100.500       N(2)  =     4000
 


--------------------------------------------------------------------------------------------------------


 ion  position               nearest neighbor table
   1  0.000  0.000  0.000-   2 2.60   3 2.60   4 2.60   2 2.60   4 2.60   3 2.60   4 2.60   4 2.60
                             2 2.60   3 2.60   2 2.60   3 2.60
   2  0.500  0.000  0.500-   1 2.60   3 2.60   4 2.60   1 2.60   3 2.60   3 2.60   4 2.60   3 2.60
                             1 2.60   4 2.60   1 2.60   4 2.60
   3  0.500  0.500  0.000-   1 2.60   2 2.60   4 2.60   2 2.60   4 2.60   1 2.60   2 2.60   2 2.60
                             1 2.60   4 2.60   4 2.60   1 2.60
   4  0.000  0.500  0.500-   1 2.60   2 2.60   3 2.60   1 2.60   3 2.60   1 2.60   2 2.60   1 2.60
                             2 2.60   3 2.60   3 2.60   2 2.60
 
  LATTYP: Found a simple cubic cell.
 ALAT       =     3.6800000000
  
  Lattice vectors:
  
 A1 = (   3.6800000000,   0.0000000000,   0.0000000000)
 A2 = (   0.0000000000,   3.6800000000,   0.0000000000)
 A3 = (   0.0000000000,   0.0000000000,   3.6800000000)


Analysis of symmetry for initial positions (statically):
=====================================================================
 Subroutine PRICEL returns:
 Original cell was already a primitive cell.
 

 Routine SETGRP: Setting up the symmetry group for a 
 simple cubic supercell.


 Subroutine GETGRP returns: Found 48 space group operations
 (whereof 48 operations were pure point group operations)
 out of a pool of 48 trial point group operations.


The static configuration has the point symmetry O_h .


Analysis of symmetry for dynamics (positions and initial velocities):
=====================================================================
 Subroutine PRICEL returns:
 Original cell was already a primitive cell.
 

 Routine SETGRP: Setting up the symmetry group for a 
 simple cubic supercell.


 Subroutine GETGRP returns: Found 48 space group operations
 (whereof 48 operations were pure point group operations)
 out of a pool of 48 trial point group operations.


The dynamic configuration has the point symmetry O_h .


Analysis of structural, dynamic, and magnetic symmetry:
=====================================================================
 Subroutine PRICEL returns:
 Original cell was already a primitive cell.
 

 Routine SETGRP: Setting up the symmetry group for a 
 simple cubic supercell.


 Subroutine GETGRP returns: Found 48 space group operations
 (whereof 48 operations were pure point group operations)
 out of a pool of 48 trial point group operations.


The overall configuration has the point symmetry O_h .


 Subroutine INISYM returns: Found 48 space group operations
 (whereof 48 operations are pure point group operations),
 and found     1 'primitive' translations


----------------------------------------------------------------------------------------

                                     Primitive cell                                     

  volume of cell :      49.8360

  direct lattice vectors                    reciprocal lattice vectors
     3.680000000  0.000000000  0.000000000     0.271739130  0.000000000  0.000000000
     0.000000000  3.680000000  0.000000000     0.000000000  0.271739130  0.000000000
     0.000000000  0.000000000  3.680000000     0.000000000  0.000000000  0.271739130

  length of vectors
     3.680000000  3.680000000  3.680000000     0.271739130  0.271739130  0.271739130

  position of ions in fractional coordinates (direct lattice)
     0.000000000  0.000000000  0.000000000
     0.500000000  0.000000000  0.500000000
     0.500000000  0.500000000  0.000000000
     0.000000000  0.500000000  0.500000000

  ion indices of the primitive-cell ions
   primitive index   ion index
                 1           1
                 2           2
                 3           3
                 4           4

----------------------------------------------------------------------------------------

 
 
 KPOINTS: Automatic mesh                          

Automatic generation of k-mesh.
 Grid dimensions read from file:
 generate k-points for:   18   18   18

 Generating k-lattice:

  Cartesian coordinates                     Fractional coordinates (reciprocal lattice)
     0.015096618  0.000000000  0.000000000     0.055555556  0.000000000  0.000000000
     0.000000000  0.015096618  0.000000000     0.000000000  0.055555556  0.000000000
     0.000000000  0.000000000  0.015096618     0.000000000  0.000000000  0.055555556

  Length of vectors
     0.015096618  0.015096618  0.015096618

  Shift w.r.t. Gamma in fractional coordinates (k-lattice)
     0.000000000  0.000000000  0.000000000

 
 Subroutine IBZKPT returns following result:
 ===========================================
 
 Found    220 irreducible k-points:
 
 Following reciprocal coordinates:
            Coordinates               Weight
  0.000000  0.000000  0.000000      1.000000
  0.055556  0.000000  0.000000      6.000000
  0.111111  0.000000  0.000000      6.000000
  0.166667  0.000000  0.000000      6.000000
  0.222222  0.000000  0.000000      6.000000
  0.277778  0.000000  0.000000      6.000000
  0.333333  0.000000  0.000000      6.000000
  0.388889  0.000000  0.000000      6.000000
  0.444444  0.000000  0.000000      6.000000
  0.500000  0.000000  0.000000      3.000000
  0.055556  0.055556  0.000000     12.000000
  0.111111  0.055556  0.000000     24.000000
  0.166667  0.055556  0.000000     24.000000
  0.222222  0.055556  0.000000     24.000000
  0.277778  0.055556  0.000000     24.000000
  0.333333  0.055556  0.000000     24.000000
  0.388889  0.055556  0.000000     24.000000
  0.444444  0.055556  0.000000     24.000000
  0.500000  0.055556  0.000000     12.000000
  0.111111  0.111111  0.000000     12.000000
  0.166667  0.111111  0.000000     24.000000
  0.222222  0.111111  0.000000     24.000000
  0.277778  0.111111  0.000000     24.000000
  0.333333  0.111111  0.000000     24.000000
  0.388889  0.111111  0.000000     24.000000
  0.444444  0.111111  0.000000     24.000000
  0.500000  0.111111  0.000000     12.000000
  0.166667  0.166667  0.000000     12.000000
  0.222222  0.166667  0.000000     24.000000
  0.277778  0.166667  0.000000     24.000000
  0.333333  0.166667  0.000000     24.000000
  0.388889  0.166667  0.000000     24.000000
  0.444444  0.166667  0.000000     24.000000
  0.500000  0.166667  0.000000     12.000000
  0.222222  0.222222  0.000000     12.000000
  0.277778  0.222222  0.000000     24.000000
  0.333333  0.222222  0.000000     24.000000
  0.388889  0.222222  0.000000     24.000000
  0.444444  0.222222  0.000000     24.000000
  0.500000  0.222222  0.000000     12.000000
  0.277778  0.277778  0.000000     12.000000
  0.333333  0.277778  0.000000     24.000000
  0.388889  0.277778  0.000000     24.000000
  0.444444  0.277778  0.000000     24.000000
  0.500000  0.277778  0.000000     12.000000
  0.333333  0.333333  0.000000     12.000000
  0.388889  0.333333  0.000000     24.000000
  0.444444  0.333333  0.000000     24.000000
  0.500000  0.333333  0.000000     12.000000
  0.388889  0.388889  0.000000     12.000000
  0.444444  0.388889  0.000000     24.000000
  0.500000  0.388889  0.000000     12.000000
  0.444444  0.444444  0.000000     12.000000
  0.500000  0.444444  0.000000     12.000000
  0.500000  0.500000  0.000000      3.000000
  0.055556  0.055556  0.055556      8.000000
  0.111111  0.055556  0.055556     24.000000
  0.166667  0.055556  0.055556     24.000000
  0.222222  0.055556  0.055556     24.000000
  0.277778  0.055556  0.055556     24.000000
  0.333333  0.055556  0.055556     24.000000
  0.388889  0.055556  0.055556     24.000000
  0.444444  0.055556  0.055556     24.000000
  0.500000  0.055556  0.055556     12.000000
  0.111111  0.111111  0.055556     24.000000
  0.166667  0.111111  0.055556     48.000000
  0.222222  0.111111  0.055556     48.000000
  0.277778  0.111111  0.055556     48.000000
  0.333333  0.111111  0.055556     48.000000
  0.388889  0.111111  0.055556     48.000000
  0.444444  0.111111  0.055556     48.000000
  0.500000  0.111111  0.055556     24.000000
  0.166667  0.166667  0.055556     24.000000
  0.222222  0.166667  0.055556     48.000000
  0.277778  0.166667  0.055556     48.000000
  0.333333  0.166667  0.055556     48.000000
  0.388889  0.166667  0.055556     48.000000
  0.444444  0.166667  0.055556     48.000000
  0.500000  0.166667  0.055556     24.000000
  0.222222  0.222222  0.055556     24.000000
  0.277778  0.222222  0.055556     48.000000
  0.333333  0.222222  0.055556     48.000000
  0.388889  0.222222  0.055556     48.000000
  0.444444  0.222222  0.055556     48.000000
  0.500000  0.222222  0.055556     24.000000
  0.277778  0.277778  0.055556     24.000000
  0.333333  0.277778  0.055556     48.000000
  0.388889  0.277778  0.055556     48.000000
  0.444444  0.277778  0.055556     48.000000
  0.500000  0.277778  0.055556     24.000000
  0.333333  0.333333  0.055556     24.000000
  0.388889  0.333333  0.055556     48.000000
  0.444444  0.333333  0.055556     48.000000
  0.500000  0.333333  0.055556     24.000000
  0.388889  0.388889  0.055556     24.000000
  0.444444  0.388889  0.055556     48.000000
  0.500000  0.388889  0.055556     24.000000
  0.444444  0.444444  0.055556     24.000000
  0.500000  0.444444  0.055556     24.000000
  0.500000  0.500000  0.055556      6.000000
  0.111111  0.111111  0.111111      8.000000
  0.166667  0.111111  0.111111     24.000000
  0.222222  0.111111  0.111111     24.000000
  0.277778  0.111111  0.111111     24.000000
  0.333333  0.111111  0.111111     24.000000
  0.388889  0.111111  0.111111     24.000000
  0.444444  0.111111  0.111111     24.000000
  0.500000  0.111111  0.111111     12.000000
  0.166667  0.166667  0.111111     24.000000
  0.222222  0.166667  0.111111     48.000000
  0.277778  0.166667  0.111111     48.000000
  0.333333  0.166667  0.111111     48.000000
  0.388889  0.166667  0.111111     48.000000
  0.444444  0.166667  0.111111     48.000000
  0.500000  0.166667  0.111111     24.000000
  0.222222  0.222222  0.111111     24.000000
  0.277778  0.222222  0.111111     48.000000
  0.333333  0.222222  0.111111     48.000000
  0.388889  0.222222  0.111111     48.000000
  0.444444  0.222222  0.111111     48.000000
  0.500000  0.222222  0.111111     24.000000
  0.277778  0.277778  0.111111     24.000000
  0.333333  0.277778  0.111111     48.000000
  0.388889  0.277778  0.111111     48.000000
  0.444444  0.277778  0.111111     48.000000
  0.500000  0.277778  0.111111     24.000000
  0.333333  0.333333  0.111111     24.000000
  0.388889  0.333333  0.111111     48.000000
  0.444444  0.333333  0.111111     48.000000
  0.500000  0.333333  0.111111     24.000000
  0.388889  0.388889  0.111111     24.000000
  0.444444  0.388889  0.111111     48.000000
  0.500000  0.388889  0.111111     24.000000
  0.444444  0.444444  0.111111     24.000000
  0.500000  0.444444  0.111111     24.000000
  0.500000  0.500000  0.111111      6.000000
  0.166667  0.166667  0.166667      8.000000
  0.222222  0.166667  0.166667     24.000000
  0.277778  0.166667  0.166667     24.000000
  0.333333  0.166667  0.166667     24.000000
  0.388889  0.166667  0.166667     24.000000
  0.444444  0.166667  0.166667     24.000000
  0.500000  0.166667  0.166667     12.000000
  0.222222  0.222222  0.166667     24.000000
  0.277778  0.222222  0.166667     48.000000
  0.333333  0.222222  0.166667     48.000000
  0.388889  0.222222  0.166667     48.000000
  0.444444  0.222222  0.166667     48.000000
  0.500000  0.222222  0.166667     24.000000
  0.277778  0.277778  0.166667     24.000000
  0.333333  0.277778  0.166667     48.000000
  0.388889  0.277778  0.166667     48.000000
  0.444444  0.277778  0.166667     48.000000
  0.500000  0.277778  0.166667     24.000000
  0.333333  0.333333  0.166667     24.000000
  0.388889  0.333333  0.166667     48.000000
  0.444444  0.333333  0.166667     48.000000
  0.500000  0.333333  0.166667     24.000000
  0.388889  0.388889  0.166667     24.000000
  0.444444  0.388889  0.166667     48.000000
  0.500000  0.388889  0.166667     24.000000
  0.444444  0.444444  0.166667     24.000000
  0.500000  0.444444  0.166667     24.000000
  0.500000  0.500000  0.166667      6.000000
  0.222222  0.222222  0.222222      8.000000
  0.277778  0.222222  0.222222     24.000000
  0.333333  0.222222  0.222222     24.000000
  0.388889  0.222222  0.222222     24.000000
  0.444444  0.222222  0.222222     24.000000
  0.500000  0.222222  0.222222     12.000000
  0.277778  0.277778  0.222222     24.000000
  0.333333  0.277778  0.222222     48.000000
  0.388889  0.277778  0.222222     48.000000
  0.444444  0.277778  0.222222     48.000000
  0.500000  0.277778  0.222222     24.000000
  0.333333  0.333333  0.222222     24.000000
  0.388889  0.333333  0.222222     48.000000
  0.444444  0.333333  0.222222     48.000000
  0.500000  0.333333  0.222222     24.000000
  0.388889  0.388889  0.222222     24.000000
  0.444444  0.388889  0.222222     48.000000
  0.500000  0.388889  0.222222     24.000000
  0.444444  0.444444  0.222222     24.000000
  0.500000  0.444444  0.222222     24.000000
  0.500000  0.500000  0.222222      6.000000
  0.277778  0.277778  0.277778      8.000000
  0.333333  0.277778  0.277778     24.000000
  0.388889  0.277778  0.277778     24.000000
  0.444444  0.277778  0.277778     24.000000
  0.500000  0.277778  0.277778     12.000000
  0.333333  0.333333  0.277778     24.000000
  0.388889  0.333333  0.277778     48.000000
  0.444444  0.333333  0.277778     48.000000
  0.500000  0.333333  0.277778     24.000000
  0.388889  0.388889  0.277778     24.000000
  0.444444  0.388889  0.277778     48.000000
  0.500000  0.388889  0.277778     24.000000
  0.444444  0.444444  0.277778     24.000000
  0.500000  0.444444  0.277778     24.000000
  0.500000  0.500000  0.277778      6.000000
  0.333333  0.333333  0.333333      8.000000
  0.388889  0.333333  0.333333     24.000000
  0.444444  0.333333  0.333333     24.000000
  0.500000  0.333333  0.333333     12.000000
  0.388889  0.388889  0.333333     24.000000
  0.444444  0.388889  0.333333     48.000000
  0.500000  0.388889  0.333333     24.000000
  0.444444  0.444444  0.333333     24.000000
  0.500000  0.444444  0.333333     24.000000
  0.500000  0.500000  0.333333      6.000000
  0.388889  0.388889  0.388889      8.000000
  0.444444  0.388889  0.388889     24.000000
  0.500000  0.388889  0.388889     12.000000
  0.444444  0.444444  0.388889     24.000000
  0.500000  0.444444  0.388889     24.000000
  0.500000  0.500000  0.388889      6.000000
  0.444444  0.444444  0.444444      8.000000
  0.500000  0.444444  0.444444     12.000000
  0.500000  0.500000  0.444444      6.000000
  0.500000  0.500000  0.500000      1.000000
 
 Following cartesian coordinates:
            Coordinates               Weight
  0.000000  0.000000  0.000000      1.000000
  0.055556  0.000000  0.000000      6.000000
  0.111111  0.000000  0.000000      6.000000
  0.166667  0.000000  0.000000      6.000000
  0.222222  0.000000  0.000000      6.000000
  0.277778  0.000000  0.000000      6.000000
  0.333333  0.000000  0.000000      6.000000
  0.388889  0.000000  0.000000      6.000000
  0.444444  0.000000  0.000000      6.000000
  0.500000  0.000000  0.000000      3.000000
  0.055556  0.055556  0.000000     12.000000
  0.111111  0.055556  0.000000     24.000000
  0.166667  0.055556  0.000000     24.000000
  0.222222  0.055556  0.000000     24.000000
  0.277778  0.055556  0.000000     24.000000
  0.333333  0.055556  0.000000     24.000000
  0.388889  0.055556  0.000000     24.000000
  0.444444  0.055556  0.000000     24.000000
  0.500000  0.055556  0.000000     12.000000
  0.111111  0.111111  0.000000     12.000000
  0.166667  0.111111  0.000000     24.000000
  0.222222  0.111111  0.000000     24.000000
  0.277778  0.111111  0.000000     24.000000
  0.333333  0.111111  0.000000     24.000000
  0.388889  0.111111  0.000000     24.000000
  0.444444  0.111111  0.000000     24.000000
  0.500000  0.111111  0.000000     12.000000
  0.166667  0.166667  0.000000     12.000000
  0.222222  0.166667  0.000000     24.000000
  0.277778  0.166667  0.000000     24.000000
  0.333333  0.166667  0.000000     24.000000
  0.388889  0.166667  0.000000     24.000000
  0.444444  0.166667  0.000000     24.000000
  0.500000  0.166667  0.000000     12.000000
  0.222222  0.222222  0.000000     12.000000
  0.277778  0.222222  0.000000     24.000000
  0.333333  0.222222  0.000000     24.000000
  0.388889  0.222222  0.000000     24.000000
  0.444444  0.222222  0.000000     24.000000
  0.500000  0.222222  0.000000     12.000000
  0.277778  0.277778  0.000000     12.000000
  0.333333  0.277778  0.000000     24.000000
  0.388889  0.277778  0.000000     24.000000
  0.444444  0.277778  0.000000     24.000000
  0.500000  0.277778  0.000000     12.000000
  0.333333  0.333333  0.000000     12.000000
  0.388889  0.333333  0.000000     24.000000
  0.444444  0.333333  0.000000     24.000000
  0.500000  0.333333  0.000000     12.000000
  0.388889  0.388889  0.000000     12.000000
  0.444444  0.388889  0.000000     24.000000
  0.500000  0.388889  0.000000     12.000000
  0.444444  0.444444  0.000000     12.000000
  0.500000  0.444444  0.000000     12.000000
  0.500000  0.500000  0.000000      3.000000
  0.055556  0.055556  0.055556      8.000000
  0.111111  0.055556  0.055556     24.000000
  0.166667  0.055556  0.055556     24.000000
  0.222222  0.055556  0.055556     24.000000
  0.277778  0.055556  0.055556     24.000000
  0.333333  0.055556  0.055556     24.000000
  0.388889  0.055556  0.055556     24.000000
  0.444444  0.055556  0.055556     24.000000
  0.500000  0.055556  0.055556     12.000000
  0.111111  0.111111  0.055556     24.000000
  0.166667  0.111111  0.055556     48.000000
  0.222222  0.111111  0.055556     48.000000
  0.277778  0.111111  0.055556     48.000000
  0.333333  0.111111  0.055556     48.000000
  0.388889  0.111111  0.055556     48.000000
  0.444444  0.111111  0.055556     48.000000
  0.500000  0.111111  0.055556     24.000000
  0.166667  0.166667  0.055556     24.000000
  0.222222  0.166667  0.055556     48.000000
  0.277778  0.166667  0.055556     48.000000
  0.333333  0.166667  0.055556     48.000000
  0.388889  0.166667  0.055556     48.000000
  0.444444  0.166667  0.055556     48.000000
  0.500000  0.166667  0.055556     24.000000
  0.222222  0.222222  0.055556     24.000000
  0.277778  0.222222  0.055556     48.000000
  0.333333  0.222222  0.055556     48.000000
  0.388889  0.222222  0.055556     48.000000
  0.444444  0.222222  0.055556     48.000000
  0.500000  0.222222  0.055556     24.000000
  0.277778  0.277778  0.055556     24.000000
  0.333333  0.277778  0.055556     48.000000
  0.388889  0.277778  0.055556     48.000000
  0.444444  0.277778  0.055556     48.000000
  0.500000  0.277778  0.055556     24.000000
  0.333333  0.333333  0.055556     24.000000
  0.388889  0.333333  0.055556     48.000000
  0.444444  0.333333  0.055556     48.000000
  0.500000  0.333333  0.055556     24.000000
  0.388889  0.388889  0.055556     24.000000
  0.444444  0.388889  0.055556     48.000000
  0.500000  0.388889  0.055556     24.000000
  0.444444  0.444444  0.055556     24.000000
  0.500000  0.444444  0.055556     24.000000
  0.500000  0.500000  0.055556      6.000000
  0.111111  0.111111  0.111111      8.000000
  0.166667  0.111111  0.111111     24.000000
  0.222222  0.111111  0.111111     24.000000
  0.277778  0.111111  0.111111     24.000000
  0.333333  0.111111  0.111111     24.000000
  0.388889  0.111111  0.111111     24.000000
  0.444444  0.111111  0.111111     24.000000
  0.500000  0.111111  0.111111     12.000000
  0.166667  0.166667  0.111111     24.000000
  0.222222  0.166667  0.111111     48.000000
  0.277778  0.166667  0.111111     48.000000
  0.333333  0.166667  0.111111     48.000000
  0.388889  0.166667  0.111111     48.000000
  0.444444  0.166667  0.111111     48.000000
  0.500000  0.166667  0.111111     24.000000
  0.222222  0.222222  0.111111     24.000000
  0.277778  0.222222  0.111111     48.000000
  0.333333  0.222222  0.111111     48.000000
  0.388889  0.222222  0.111111     48.000000
  0.444444  0.222222  0.111111     48.000000
  0.500000  0.222222  0.111111     24.000000
  0.277778  0.277778  0.111111     24.000000
  0.333333  0.277778  0.111111     48.000000
  0.388889  0.277778  0.111111     48.000000
  0.444444  0.277778  0.111111     48.000000
  0.500000  0.277778  0.111111     24.000000
  0.333333  0.333333  0.111111     24.000000
  0.388889  0.333333  0.111111     48.000000
  0.444444  0.333333  0.111111     48.000000
  0.500000  0.333333  0.111111     24.000000
  0.388889  0.388889  0.111111     24.000000
  0.444444  0.388889  0.111111     48.000000
  0.500000  0.388889  0.111111     24.000000
  0.444444  0.444444  0.111111     24.000000
  0.500000  0.444444  0.111111     24.000000
  0.500000  0.500000  0.111111      6.000000
  0.166667  0.166667  0.166667      8.000000
  0.222222  0.166667  0.166667     24.000000
  0.277778  0.166667  0.166667     24.000000
  0.333333  0.166667  0.166667     24.000000
  0.388889  0.166667  0.166667     24.000000
  0.444444  0.166667  0.166667     24.000000
  0.500000  0.166667  0.166667     12.000000
  0.222222  0.222222  0.166667     24.000000
  0.277778  0.222222  0.166667     48.000000
  0.333333  0.222222  0.166667     48.000000
  0.388889  0.222222  0.166667     48.000000
  0.444444  0.222222  0.166667     48.000000
  0.500000  0.222222  0.166667     24.000000
  0.277778  0.277778  0.166667     24.000000
  0.333333  0.277778  0.166667     48.000000
  0.388889  0.277778  0.166667     48.000000
  0.444444  0.277778  0.166667     48.000000
  0.500000  0.277778  0.166667     24.000000
  0.333333  0.333333  0.166667     24.000000
  0.388889  0.333333  0.166667     48.000000
  0.444444  0.333333  0.166667     48.000000
  0.500000  0.333333  0.166667     24.000000
  0.388889  0.388889  0.166667     24.000000
  0.444444  0.388889  0.166667     48.000000
  0.500000  0.388889  0.166667     24.000000
  0.444444  0.444444  0.166667     24.000000
  0.500000  0.444444  0.166667     24.000000
  0.500000  0.500000  0.166667      6.000000
  0.222222  0.222222  0.222222      8.000000
  0.277778  0.222222  0.222222     24.000000
  0.333333  0.222222  0.222222     24.000000
  0.388889  0.222222  0.222222     24.000000
  0.444444  0.222222  0.222222     24.000000
  0.500000  0.222222  0.222222     12.000000
  0.277778  0.277778  0.222222     24.000000
  0.333333  0.277778  0.222222     48.000000
  0.388889  0.277778  0.222222     48.000000
  0.444444  0.277778  0.222222     48.000000
  0.500000  0.277778  0.222222     24.000000
  0.333333  0.333333  0.222222     24.000000
  0.388889  0.333333  0.222222     48.000000
  0.444444  0.333333  0.222222     48.000000
  0.500000  0.333333  0.222222     24.000000
  0.388889  0.388889  0.222222     24.000000
  0.444444  0.388889  0.222222     48.000000
  0.500000  0.388889  0.222222     24.000000
  0.444444  0.444444  0.222222     24.000000
  0.500000  0.444444  0.222222     24.000000
  0.500000  0.500000  0.222222      6.000000
  0.277778  0.277778  0.277778      8.000000
  0.333333  0.277778  0.277778     24.000000
  0.388889  0.277778  0.277778     24.000000
  0.444444  0.277778  0.277778     24.000000
  0.500000  0.277778  0.277778     12.000000
  0.333333  0.333333  0.277778     24.000000
  0.388889  0.333333  0.277778     48.000000
  0.444444  0.333333  0.277778     48.000000
  0.500000  0.333333  0.277778     24.000000
  0.388889  0.388889  0.277778     24.000000
  0.444444  0.388889  0.277778     48.000000
  0.500000  0.388889  0.277778     24.000000
  0.444444  0.444444  0.277778     24.000000
  0.500000  0.444444  0.277778     24.000000
  0.500000  0.500000  0.277778      6.000000
  0.333333  0.333333  0.333333      8.000000
  0.388889  0.333333  0.333333     24.000000
  0.444444  0.333333  0.333333     24.000000
  0.500000  0.333333  0.333333     12.000000
  0.388889  0.388889  0.333333     24.000000
  0.444444  0.388889  0.333333     48.000000
  0.500000  0.388889  0.333333     24.000000
  0.444444  0.444444  0.333333     24.000000
  0.500000  0.444444  0.333333     24.000000
  0.500000  0.500000  0.333333      6.000000
  0.388889  0.388889  0.388889      8.000000
  0.444444  0.388889  0.388889     24.000000
  0.500000  0.388889  0.388889     12.000000
  0.444444  0.444444  0.388889     24.000000
  0.500000  0.444444  0.388889     24.000000
  0.500000  0.500000  0.388889      6.000000
  0.444444  0.444444  0.444444      8.000000
  0.500000  0.444444  0.444444     12.000000
  0.500000  0.500000  0.444444      6.000000
  0.500000  0.500000  0.500000      1.000000
 


--------------------------------------------------------------------------------------------------------




 Dimension of arrays:
   k-points           NKPTS =    220   k-points in BZ     NKDIM =    220   number of bands    NBANDS=     24
   number of dos      NEDOS =   2000   number of ions     NIONS =      4
   non local maximal  LDIM  =      6   non local SUM 2l+1 LMDIM =     18
   total plane-waves  NPLWV =  27000
   max r-space proj   IRMAX =      1   max aug-charges    IRDMAX= 168866
   dimension x,y,z NGX =    30 NGY =   30 NGZ =   30
   dimension x,y,z NGXF=    60 NGYF=   60 NGZF=   60
   support grid    NGXF=   120 NGYF=  120 NGZF=  120
   ions per type =               1   3
   NGX,Y,Z   is equivalent  to a cutoff of  13.55, 13.55, 13.55 a.u.
   NGXF,Y,Z  is equivalent  to a cutoff of  27.11, 27.11, 27.11 a.u.

 SYSTEM =  Ni3Al EOS                               
 POSCAR =  Al1 Ni3                                 

 Startparameter for this run:
   NWRITE =      2    write-flag & timer
   PREC   = accura    normal or accurate (medium, high low for compatibility)
   ISTART =      0    job   : 0-new  1-cont  2-samecut
   ICHARG =      2    charge: 1-file 2-atom 10-const
   ISPIN  =      2    spin polarized calculation?
   LNONCOLLINEAR =      F non collinear calculations
   LSORBIT =      F    spin-orbit coupling
   INIWAV =      1    electr: 0-lowe 1-rand  2-diag
   LASPH  =      T    aspherical Exc in radial PAW
 Electronic Relaxation 1
   ENCUT  =  600.0 eV  44.10 Ry    6.64 a.u.   7.35  7.35  7.35*2*pi/ulx,y,z
   ENINI  =  600.0     initial cutoff
   ENAUG  =  544.6 eV  augmentation charge cutoff
   NELM   =     60;   NELMIN=  2; NELMDL= -5     # of ELM steps 
   EDIFF  = 0.1E-05   stopping-criterion for ELM
   LREAL  =      F    real-space projection
   NLSPLINE    = F    spline interpolate recip. space projectors
   LCOMPAT=      F    compatible to vasp.4.4
   GGA_COMPAT  = T    GGA compatible to vasp.4.4-vasp.4.6
   LMAXPAW     = -100 max onsite density
   LMAXMIX     =    2 max onsite mixed and CHGCAR
   VOSKOWN=      0    Vosko Wilk Nusair interpolation
   ROPT   =    0.00000   0.00000
 Ionic relaxation
   EDIFFG = -.1E-01   stopping-criterion for IOM
   NSW    =    100    number of steps for IOM
   NBLOCK =      1;   KBLOCK =    100    inner block; outer block 
   IBRION =      2    ionic relax: 0-MD 1-quasi-New 2-CG
   NFREE  =      1    steps in history (QN), initial steepest desc. (CG)
   ISIF   =      2    stress and relaxation
   IWAVPR =     11    prediction:  0-non 1-charg 2-wave 3-comb
   ISYM   =      2    0-nonsym 1-usesym 2-fastsym
   LCORR  =      T    Harris-Foulkes like correction to forces

   POTIM  = 0.5000    time-step for ionic-motion
   TEIN   =    0.0    initial temperature
   TEBEG  =    0.0;   TEEND  =   0.0 temperature during run
   SMASS  =  -3.00    Nose mass-parameter (am)
   estimated Nose-frequenzy (Omega)   =  0.10E-29 period in steps = 0.13E+47 mass=  -0.309E-27a.u.
   SCALEE = 1.0000    scale energy and forces
   NPACO  =    256;   APACO  = 10.0  distance and # of slots for P.C.
   PSTRESS=    0.0 pullay stress

  Mass of Ions in am
   POMASS =  26.98 58.69
  Ionic Valenz
   ZVAL   =   3.00 10.00
  Atomic Wigner-Seitz radii
   RWIGS  =  -1.00 -1.00
  virtual crystal weights 
   VCA    =   1.00  1.00
   NELECT =      33.0000    total number of electrons
   NUPDOWN=      -1.0000    fix difference up-down

 DOS related values:
   EMIN   =  10.00;   EMAX   =-10.00  energy-range for DOS
   EFERMI =   0.00
   ISMEAR =     1;   SIGMA  =   0.20  broadening in eV -4-tet -1-fermi 0-gaus

 Electronic relaxation 2 (details)
   IALGO  =     38    algorithm
   LDIAG  =      T    sub-space diagonalisation (order eigenvalues)
   LSUBROT=      F    optimize rotation matrix (better conditioning)
   TURBO    =      0    0=normal 1=particle mesh
   IRESTART =      0    0=no restart 2=restart with 2 vectors
   NREBOOT  =      0    no. of reboots
   NMIN     =      0    reboot dimension
   EREF     =   0.00    reference energy to select bands
   IMIX   =      4    mixing-type and parameters
     AMIX     =   0.40;   BMIX     =  1.00
     AMIX_MAG =   1.60;   BMIX_MAG =  1.00
     AMIN     =   0.10
     WC   =   100.;   INIMIX=   1;  MIXPRE=   1;  MAXMIX= -45

 Intra band minimization:
   WEIMIN = 0.0010     energy-eigenvalue tresh-hold
   EBREAK =  0.10E-07  absolut break condition
   DEPER  =   0.30     relativ break condition  

   TIME   =   0.40     timestep for ELM

  volume/ion in A,a.u.               =      12.46        84.08
  Fermi-wavevector in a.u.,A,eV,Ry     =   1.426916  2.696480 27.702666  2.036089
  Thomas-Fermi vector in A             =   2.547141
 
 Write flags
   LWAVE        =      F    write WAVECAR
   LDOWNSAMPLE  =      F    k-point downsampling of WAVECAR
   LCHARG       =      T    write CHGCAR
   LVTOT        =      F    write LOCPOT, total local potential
   LVHAR        =      F    write LOCPOT, Hartree potential only
   LELF         =      F    write electronic localiz. function (ELF)
   LORBIT       =      0    0 simple, 1 ext, 2 COOP (PROOUT), +10 PAW based schemes


 Dipole corrections
   LMONO  =      F    monopole corrections only (constant potential shift)
   LDIPOL =      F    correct potential (dipole corrections)
   IDIPOL =      0    1-x, 2-y, 3-z, 4-all directions 
   EPSILON=  1.0000000 bulk dielectric constant

 Exchange correlation treatment:
   GGA     =    --    GGA type
   LEXCH   =     8    internal setting for exchange type
   LIBXC   =     F    Libxc                    
   VOSKOWN =     0    Vosko Wilk Nusair interpolation
   LHFCALC =     F    Hartree Fock is set to
   LHFONE  =     F    Hartree Fock one center treatment
   AEXX    =    0.0000 exact exchange contribution

 Linear response parameters
   LEPSILON=     F    determine dielectric tensor
   LRPA    =     F    only Hartree local field effects (RPA)
   LNABLA  =     F    use nabla operator in PAW spheres
   LVEL    =     F    velocity operator in full k-point grid
   CSHIFT  =0.1000    complex shift for real part using Kramers Kronig
   OMEGAMAX=  -1.0    maximum frequency
   DEG_THRESHOLD= 0.2000000E-02 threshold for treating states as degnerate
   RTIME   =   -0.100 relaxation time in fs
  (WPLASMAI=    0.000 imaginary part of plasma frequency in eV, 0.658/RTIME)
   DFIELD  = 0.0000000 0.0000000 0.0000000 field for delta impulse in time
 
  Optional k-point grid parameters
   LKPOINTS_OPT  =     F    use optional k-point grid
   KPOINTS_OPT_MODE=     1    mode for optional k-point grid
 
 Orbital magnetization related:
   ORBITALMAG=     F  switch on orbital magnetization
   LCHIMAG   =     F  perturbation theory with respect to B field
   DQ        =  0.001000  dq finite difference perturbation B field
   LLRAUG    =     F  two centre corrections for induced B field



--------------------------------------------------------------------------------------------------------


 conjugate gradient relaxation of ions
 charge density and potential will be updated during run
 spin polarized calculation
 Variant of blocked Davidson
 Davidson routine will perform the subspace rotation
 perform sub-space diagonalisation
    after iterative eigenvector-optimisation
 modified Broyden-mixing scheme, WC =      100.0
 initial mixing is a Kerker type mixing with AMIX =  0.4000 and BMIX =      1.0000
 Hartree-type preconditioning will be used
 using additional bands            7
 reciprocal scheme for non local part
 use partial core corrections
 calculate Harris-corrections to forces 
   (improved forces if not selfconsistent)
 use gradient corrections 
 use of overlap-Matrix (Vanderbilt PP)
 Methfessel and Paxton  Order N= 1 SIGMA  =   0.20


--------------------------------------------------------------------------------------------------------


  energy-cutoff  :      600.00
  volume of cell :       49.84
      direct lattice vectors                 reciprocal lattice vectors
     3.680000000  0.000000000  0.000000000     0.271739130  0.000000000  0.000000000
     0.000000000  3.680000000  0.000000000     0.000000000  0.271739130  0.000000000
     0.000000000  0.000000000  3.680000000     0.000000000  0.000000000  0.271739130

  length of vectors
     3.680000000  3.680000000  3.680000000     0.271739130  0.271739130  0.271739130


 
 k-points in units of 2pi/SCALE and weight: Automatic mesh                          
   0.00000000  0.00000000  0.00000000       0.000
   0.05555556  0.00000000  0.00000000       0.001
   0.11111111  0.00000000  0.00000000       0.001
   0.16666667  0.00000000  0.00000000       0.001
   0.22222222  0.00000000  0.00000000       0.001
   0.27777778  0.00000000  0.00000000       0.001
   0.33333333  0.00000000  0.00000000       0.001
   0.38888889  0.00000000  0.00000000       0.001
   0.44444444  0.00000000  0.00000000       0.001
   0.50000000  0.00000000  0.00000000       0.001
   0.05555556  0.05555556  0.00000000       0.002
   0.11111111  0.05555556  0.00000000       0.004
   0.16666667  0.05555556  0.00000000       0.004
   0.22222222  0.05555556  0.00000000       0.004
   0.27777778  0.05555556  0.00000000       0.004
   0.33333333  0.05555556  0.00000000       0.004
   0.38888889  0.05555556  0.00000000       0.004
   0.44444444  0.05555556  0.00000000       0.004
   0.50000000  0.05555556  0.00000000       0.002
   0.11111111  0.11111111  0.00000000       0.002
   0.16666667  0.11111111  0.00000000       0.004
   0.22222222  0.11111111  0.00000000       0.004
   0.27777778  0.11111111  0.00000000       0.004
   0.33333333  0.11111111  0.00000000       0.004
   0.38888889  0.11111111  0.00000000       0.004
   0.44444444  0.11111111  0.00000000       0.004
   0.50000000  0.11111111  0.00000000       0.002
   0.16666667  0.16666667  0.00000000       0.002
   0.22222222  0.16666667  0.00000000       0.004
   0.27777778  0.16666667  0.00000000       0.004
   0.33333333  0.16666667  0.00000000       0.004
   0.38888889  0.16666667  0.00000000       0.004
   0.44444444  0.16666667  0.00000000       0.004
   0.50000000  0.16666667  0.00000000       0.002
   0.22222222  0.22222222  0.00000000       0.002
   0.27777778  0.22222222  0.00000000       0.004
   0.33333333  0.22222222  0.00000000       0.004
   0.38888889  0.22222222  0.00000000       0.004
   0.44444444  0.22222222  0.00000000       0.004
   0.50000000  0.22222222  0.00000000       0.002
   0.27777778  0.27777778  0.00000000       0.002
   0.33333333  0.27777778  0.00000000       0.004
   0.38888889  0.27777778  0.00000000       0.004
   0.44444444  0.27777778  0.00000000       0.004
   0.50000000  0.27777778  0.00000000       0.002
   0.33333333  0.33333333  0.00000000       0.002
   0.38888889  0.33333333  0.00000000       0.004
   0.44444444  0.33333333  0.00000000       0.004
   0.50000000  0.33333333  0.00000000       0.002
   0.38888889  0.38888889  0.00000000       0.002
   0.44444444  0.38888889  0.00000000       0.004
   0.50000000  0.38888889  0.00000000       0.002
   0.44444444  0.44444444  0.00000000       0.002
   0.50000000  0.44444444  0.00000000       0.002
   0.50000000  0.50000000  0.00000000       0.001
   0.05555556  0.05555556  0.05555556       0.001
   0.11111111  0.05555556  0.05555556       0.004
   0.16666667  0.05555556  0.05555556       0.004
   0.22222222  0.05555556  0.05555556       0.004
   0.27777778  0.05555556  0.05555556       0.004
   0.33333333  0.05555556  0.05555556       0.004
   0.38888889  0.05555556  0.05555556       0.004
   0.44444444  0.05555556  0.05555556       0.004
   0.50000000  0.05555556  0.05555556       0.002
   0.11111111  0.11111111  0.05555556       0.004
   0.16666667  0.11111111  0.05555556       0.008
   0.22222222  0.11111111  0.05555556       0.008
   0.27777778  0.11111111  0.05555556       0.008
   0.33333333  0.11111111  0.05555556       0.008
   0.38888889  0.11111111  0.05555556       0.008
   0.44444444  0.11111111  0.05555556       0.008
   0.50000000  0.11111111  0.05555556       0.004
   0.16666667  0.16666667  0.05555556       0.004
   0.22222222  0.16666667  0.05555556       0.008
   0.27777778  0.16666667  0.05555556       0.008
   0.33333333  0.16666667  0.05555556       0.008
   0.38888889  0.16666667  0.05555556       0.008
   0.44444444  0.16666667  0.05555556       0.008
   0.50000000  0.16666667  0.05555556       0.004
   0.22222222  0.22222222  0.05555556       0.004
   0.27777778  0.22222222  0.05555556       0.008
   0.33333333  0.22222222  0.05555556       0.008
   0.38888889  0.22222222  0.05555556       0.008
   0.44444444  0.22222222  0.05555556       0.008
   0.50000000  0.22222222  0.05555556       0.004
   0.27777778  0.27777778  0.05555556       0.004
   0.33333333  0.27777778  0.05555556       0.008
   0.38888889  0.27777778  0.05555556       0.008
   0.44444444  0.27777778  0.05555556       0.008
   0.50000000  0.27777778  0.05555556       0.004
   0.33333333  0.33333333  0.05555556       0.004
   0.38888889  0.33333333  0.05555556       0.008
   0.44444444  0.33333333  0.05555556       0.008
   0.50000000  0.33333333  0.05555556       0.004
   0.38888889  0.38888889  0.05555556       0.004
   0.44444444  0.38888889  0.05555556       0.008
   0.50000000  0.38888889  0.05555556       0.004
   0.44444444  0.44444444  0.05555556       0.004
   0.50000000  0.44444444  0.05555556       0.004
   0.50000000  0.50000000  0.05555556       0.001
   0.11111111  0.11111111  0.11111111       0.001
   0.16666667  0.11111111  0.11111111       0.004
   0.22222222  0.11111111  0.11111111       0.004
   0.27777778  0.11111111  0.11111111       0.004
   0.33333333  0.11111111  0.11111111       0.004
   0.38888889  0.11111111  0.11111111       0.004
   0.44444444  0.11111111  0.11111111       0.004
   0.50000000  0.11111111  0.11111111       0.002
   0.16666667  0.16666667  0.11111111       0.004
   0.22222222  0.16666667  0.11111111       0.008
   0.27777778  0.16666667  0.11111111       0.008
   0.33333333  0.16666667  0.11111111       0.008
   0.38888889  0.16666667  0.11111111       0.008
   0.44444444  0.16666667  0.11111111       0.008
   0.50000000  0.16666667  0.11111111       0.004
   0.22222222  0.22222222  0.11111111       0.004
   0.27777778  0.22222222  0.11111111       0.008
   0.33333333  0.22222222  0.11111111       0.008
   0.38888889  0.22222222  0.11111111       0.008
   0.44444444  0.22222222  0.11111111       0.008
   0.50000000  0.22222222  0.11111111       0.004
   0.27777778  0.27777778  0.11111111       0.004
   0.33333333  0.27777778  0.11111111       0.008
   0.38888889  0.27777778  0.11111111       0.008
   0.44444444  0.27777778  0.11111111       0.008
   0.50000000  0.27777778  0.11111111       0.004
   0.33333333  0.33333333  0.11111111       0.004
   0.38888889  0.33333333  0.11111111       0.008
   0.44444444  0.33333333  0.11111111       0.008
   0.50000000  0.33333333  0.11111111       0.004
   0.38888889  0.38888889  0.11111111       0.004
   0.44444444  0.38888889  0.11111111       0.008
   0.50000000  0.38888889  0.11111111       0.004
   0.44444444  0.44444444  0.11111111       0.004
   0.50000000  0.44444444  0.11111111       0.004
   0.50000000  0.50000000  0.11111111       0.001
   0.16666667  0.16666667  0.16666667       0.001
   0.22222222  0.16666667  0.16666667       0.004
   0.27777778  0.16666667  0.16666667       0.004
   0.33333333  0.16666667  0.16666667       0.004
   0.38888889  0.16666667  0.16666667       0.004
   0.44444444  0.16666667  0.16666667       0.004
   0.50000000  0.16666667  0.16666667       0.002
   0.22222222  0.22222222  0.16666667       0.004
   0.27777778  0.22222222  0.16666667       0.008
   0.33333333  0.22222222  0.16666667       0.008
   0.38888889  0.22222222  0.16666667       0.008
   0.44444444  0.22222222  0.16666667       0.008
   0.50000000  0.22222222  0.16666667       0.004
   0.27777778  0.27777778  0.16666667       0.004
   0.33333333  0.27777778  0.16666667       0.008
   0.38888889  0.27777778  0.16666667       0.008
   0.44444444  0.27777778  0.16666667       0.008
   0.50000000  0.27777778  0.16666667       0.004
   0.33333333  0.33333333  0.16666667       0.004
   0.38888889  0.33333333  0.16666667       0.008
   0.44444444  0.33333333  0.16666667       0.008
   0.50000000  0.33333333  0.16666667       0.004
   0.38888889  0.38888889  0.16666667       0.004
   0.44444444  0.38888889  0.16666667       0.008
   0.50000000  0.38888889  0.16666667       0.004
   0.44444444  0.44444444  0.16666667       0.004
   0.50000000  0.44444444  0.16666667       0.004
   0.50000000  0.50000000  0.16666667       0.001
   0.22222222  0.22222222  0.22222222       0.001
   0.27777778  0.22222222  0.22222222       0.004
   0.33333333  0.22222222  0.22222222       0.004
   0.38888889  0.22222222  0.22222222       0.004
   0.44444444  0.22222222  0.22222222       0.004
   0.50000000  0.22222222  0.22222222       0.002
   0.27777778  0.27777778  0.22222222       0.004
   0.33333333  0.27777778  0.22222222       0.008
   0.38888889  0.27777778  0.22222222       0.008
   0.44444444  0.27777778  0.22222222       0.008
   0.50000000  0.27777778  0.22222222       0.004
   0.33333333  0.33333333  0.22222222       0.004
   0.38888889  0.33333333  0.22222222       0.008
   0.44444444  0.33333333  0.22222222       0.008
   0.50000000  0.33333333  0.22222222       0.004
   0.38888889  0.38888889  0.22222222       0.004
   0.44444444  0.38888889  0.22222222       0.008
   0.50000000  0.38888889  0.22222222       0.004
   0.44444444  0.44444444  0.22222222       0.004
   0.50000000  0.44444444  0.22222222       0.004
   0.50000000  0.50000000  0.22222222       0.001
   0.27777778  0.27777778  0.27777778       0.001
   0.33333333  0.27777778  0.27777778       0.004
   0.38888889  0.27777778  0.27777778       0.004
   0.44444444  0.27777778  0.27777778       0.004
   0.50000000  0.27777778  0.27777778       0.002
   0.33333333  0.33333333  0.27777778       0.004
   0.38888889  0.33333333  0.27777778       0.008
   0.44444444  0.33333333  0.27777778       0.008
   0.50000000  0.33333333  0.27777778       0.004
   0.38888889  0.38888889  0.27777778       0.004
   0.44444444  0.38888889  0.27777778       0.008
   0.50000000  0.38888889  0.27777778       0.004
   0.44444444  0.44444444  0.27777778       0.004
   0.50000000  0.44444444  0.27777778       0.004
   0.50000000  0.50000000  0.27777778       0.001
   0.33333333  0.33333333  0.33333333       0.001
   0.38888889  0.33333333  0.33333333       0.004
   0.44444444  0.33333333  0.33333333       0.004
   0.50000000  0.33333333  0.33333333       0.002
   0.38888889  0.38888889  0.33333333       0.004
   0.44444444  0.38888889  0.33333333       0.008
   0.50000000  0.38888889  0.33333333       0.004
   0.44444444  0.44444444  0.33333333       0.004
   0.50000000  0.44444444  0.33333333       0.004
   0.50000000  0.50000000  0.33333333       0.001
   0.38888889  0.38888889  0.38888889       0.001
   0.44444444  0.38888889  0.38888889       0.004
   0.50000000  0.38888889  0.38888889       0.002
   0.44444444  0.44444444  0.38888889       0.004
   0.50000000  0.44444444  0.38888889       0.004
   0.50000000  0.50000000  0.38888889       0.001
   0.44444444  0.44444444  0.44444444       0.001
   0.50000000  0.44444444  0.44444444       0.002
   0.50000000  0.50000000  0.44444444       0.001
   0.50000000  0.50000000  0.50000000       0.000
 
 k-points in reciprocal lattice and weights: Automatic mesh                          
   0.00000000  0.00000000  0.00000000       0.000
   0.05555556  0.00000000  0.00000000       0.001
   0.11111111  0.00000000  0.00000000       0.001
   0.16666667  0.00000000  0.00000000       0.001
   0.22222222  0.00000000  0.00000000       0.001
   0.27777778  0.00000000  0.00000000       0.001
   0.33333333  0.00000000  0.00000000       0.001
   0.38888889  0.00000000  0.00000000       0.001
   0.44444444  0.00000000  0.00000000       0.001
   0.50000000  0.00000000  0.00000000       0.001
   0.05555556  0.05555556  0.00000000       0.002
   0.11111111  0.05555556  0.00000000       0.004
   0.16666667  0.05555556  0.00000000       0.004
   0.22222222  0.05555556  0.00000000       0.004
   0.27777778  0.05555556  0.00000000       0.004
   0.33333333  0.05555556  0.00000000       0.004
   0.38888889  0.05555556  0.00000000       0.004
   0.44444444  0.05555556  0.00000000       0.004
   0.50000000  0.05555556  0.00000000       0.002
   0.11111111  0.11111111  0.00000000       0.002
   0.16666667  0.11111111  0.00000000       0.004
   0.22222222  0.11111111  0.00000000       0.004
   0.27777778  0.11111111  0.00000000       0.004
   0.33333333  0.11111111  0.00000000       0.004
   0.38888889  0.11111111  0.00000000       0.004
   0.44444444  0.11111111  0.00000000       0.004
   0.50000000  0.11111111  0.00000000       0.002
   0.16666667  0.16666667  0.00000000       0.002
   0.22222222  0.16666667  0.00000000       0.004
   0.27777778  0.16666667  0.00000000       0.004
   0.33333333  0.16666667  0.00000000       0.004
   0.38888889  0.16666667  0.00000000       0.004
   0.44444444  0.16666667  0.00000000       0.004
   0.50000000  0.16666667  0.00000000       0.002
   0.22222222  0.22222222  0.00000000       0.002
   0.27777778  0.22222222  0.00000000       0.004
   0.33333333  0.22222222  0.00000000       0.004
   0.38888889  0.22222222  0.00000000       0.004
   0.44444444  0.22222222  0.00000000       0.004
   0.50000000  0.22222222  0.00000000       0.002
   0.27777778  0.27777778  0.00000000       0.002
   0.33333333  0.27777778  0.00000000       0.004
   0.38888889  0.27777778  0.00000000       0.004
   0.44444444  0.27777778  0.00000000       0.004
   0.50000000  0.27777778  0.00000000       0.002
   0.33333333  0.33333333  0.00000000       0.002
   0.38888889  0.33333333  0.00000000       0.004
   0.44444444  0.33333333  0.00000000       0.004
   0.50000000  0.33333333  0.00000000       0.002
   0.38888889  0.38888889  0.00000000       0.002
   0.44444444  0.38888889  0.00000000       0.004
   0.50000000  0.38888889  0.00000000       0.002
   0.44444444  0.44444444  0.00000000       0.002
   0.50000000  0.44444444  0.00000000       0.002
   0.50000000  0.50000000  0.00000000       0.001
   0.05555556  0.05555556  0.05555556       0.001
   0.11111111  0.05555556  0.05555556       0.004
   0.16666667  0.05555556  0.05555556       0.004
   0.22222222  0.05555556  0.05555556       0.004
   0.27777778  0.05555556  0.05555556       0.004
   0.33333333  0.05555556  0.05555556       0.004
   0.38888889  0.05555556  0.05555556       0.004
   0.44444444  0.05555556  0.05555556       0.004
   0.50000000  0.05555556  0.05555556       0.002
   0.11111111  0.11111111  0.05555556       0.004
   0.16666667  0.11111111  0.05555556       0.008
   0.22222222  0.11111111  0.05555556       0.008
   0.27777778  0.11111111  0.05555556       0.008
   0.33333333  0.11111111  0.05555556       0.008
   0.38888889  0.11111111  0.05555556       0.008
   0.44444444  0.11111111  0.05555556       0.008
   0.50000000  0.11111111  0.05555556       0.004
   0.16666667  0.16666667  0.05555556       0.004
   0.22222222  0.16666667  0.05555556       0.008
   0.27777778  0.16666667  0.05555556       0.008
   0.33333333  0.16666667  0.05555556       0.008
   0.38888889  0.16666667  0.05555556       0.008
   0.44444444  0.16666667  0.05555556       0.008
   0.50000000  0.16666667  0.05555556       0.004
   0.22222222  0.22222222  0.05555556       0.004
   0.27777778  0.22222222  0.05555556       0.008
   0.33333333  0.22222222  0.05555556       0.008
   0.38888889  0.22222222  0.05555556       0.008
   0.44444444  0.22222222  0.05555556       0.008
   0.50000000  0.22222222  0.05555556       0.004
   0.27777778  0.27777778  0.05555556       0.004
   0.33333333  0.27777778  0.05555556       0.008
   0.38888889  0.27777778  0.05555556       0.008
   0.44444444  0.27777778  0.05555556       0.008
   0.50000000  0.27777778  0.05555556       0.004
   0.33333333  0.33333333  0.05555556       0.004
   0.38888889  0.33333333  0.05555556       0.008
   0.44444444  0.33333333  0.05555556       0.008
   0.50000000  0.33333333  0.05555556       0.004
   0.38888889  0.38888889  0.05555556       0.004
   0.44444444  0.38888889  0.05555556       0.008
   0.50000000  0.38888889  0.05555556       0.004
   0.44444444  0.44444444  0.05555556       0.004
   0.50000000  0.44444444  0.05555556       0.004
   0.50000000  0.50000000  0.05555556       0.001
   0.11111111  0.11111111  0.11111111       0.001
   0.16666667  0.11111111  0.11111111       0.004
   0.22222222  0.11111111  0.11111111       0.004
   0.27777778  0.11111111  0.11111111       0.004
   0.33333333  0.11111111  0.11111111       0.004
   0.38888889  0.11111111  0.11111111       0.004
   0.44444444  0.11111111  0.11111111       0.004
   0.50000000  0.11111111  0.11111111       0.002
   0.16666667  0.16666667  0.11111111       0.004
   0.22222222  0.16666667  0.11111111       0.008
   0.27777778  0.16666667  0.11111111       0.008
   0.33333333  0.16666667  0.11111111       0.008
   0.38888889  0.16666667  0.11111111       0.008
   0.44444444  0.16666667  0.11111111       0.008
   0.50000000  0.16666667  0.11111111       0.004
   0.22222222  0.22222222  0.11111111       0.004
   0.27777778  0.22222222  0.11111111       0.008
   0.33333333  0.22222222  0.11111111       0.008
   0.38888889  0.22222222  0.11111111       0.008
   0.44444444  0.22222222  0.11111111       0.008
   0.50000000  0.22222222  0.11111111       0.004
   0.27777778  0.27777778  0.11111111       0.004
   0.33333333  0.27777778  0.11111111       0.008
   0.38888889  0.27777778  0.11111111       0.008
   0.44444444  0.27777778  0.11111111       0.008
   0.50000000  0.27777778  0.11111111       0.004
   0.33333333  0.33333333  0.11111111       0.004
   0.38888889  0.33333333  0.11111111       0.008
   0.44444444  0.33333333  0.11111111       0.008
   0.50000000  0.33333333  0.11111111       0.004
   0.38888889  0.38888889  0.11111111       0.004
   0.44444444  0.38888889  0.11111111       0.008
   0.50000000  0.38888889  0.11111111       0.004
   0.44444444  0.44444444  0.11111111       0.004
   0.50000000  0.44444444  0.11111111       0.004
   0.50000000  0.50000000  0.11111111       0.001
   0.16666667  0.16666667  0.16666667       0.001
   0.22222222  0.16666667  0.16666667       0.004
   0.27777778  0.16666667  0.16666667       0.004
   0.33333333  0.16666667  0.16666667       0.004
   0.38888889  0.16666667  0.16666667       0.004
   0.44444444  0.16666667  0.16666667       0.004
   0.50000000  0.16666667  0.16666667       0.002
   0.22222222  0.22222222  0.16666667       0.004
   0.27777778  0.22222222  0.16666667       0.008
   0.33333333  0.22222222  0.16666667       0.008
   0.38888889  0.22222222  0.16666667       0.008
   0.44444444  0.22222222  0.16666667       0.008
   0.50000000  0.22222222  0.16666667       0.004
   0.27777778  0.27777778  0.16666667       0.004
   0.33333333  0.27777778  0.16666667       0.008
   0.38888889  0.27777778  0.16666667       0.008
   0.44444444  0.27777778  0.16666667       0.008
   0.50000000  0.27777778  0.16666667       0.004
   0.33333333  0.33333333  0.16666667       0.004
   0.38888889  0.33333333  0.16666667       0.008
   0.44444444  0.33333333  0.16666667       0.008
   0.50000000  0.33333333  0.16666667       0.004
   0.38888889  0.38888889  0.16666667       0.004
   0.44444444  0.38888889  0.16666667       0.008
   0.50000000  0.38888889  0.16666667       0.004
   0.44444444  0.44444444  0.16666667       0.004
   0.50000000  0.44444444  0.16666667       0.004
   0.50000000  0.50000000  0.16666667       0.001
   0.22222222  0.22222222  0.22222222       0.001
   0.27777778  0.22222222  0.22222222       0.004
   0.33333333  0.22222222  0.22222222       0.004
   0.38888889  0.22222222  0.22222222       0.004
   0.44444444  0.22222222  0.22222222       0.004
   0.50000000  0.22222222  0.22222222       0.002
   0.27777778  0.27777778  0.22222222       0.004
   0.33333333  0.27777778  0.22222222       0.008
   0.38888889  0.27777778  0.22222222       0.008
   0.44444444  0.27777778  0.22222222       0.008
   0.50000000  0.27777778  0.22222222       0.004
   0.33333333  0.33333333  0.22222222       0.004
   0.38888889  0.33333333  0.22222222       0.008
   0.44444444  0.33333333  0.22222222       0.008
   0.50000000  0.33333333  0.22222222       0.004
   0.38888889  0.38888889  0.22222222       0.004
   0.44444444  0.38888889  0.22222222       0.008
   0.50000000  0.38888889  0.22222222       0.004
   0.44444444  0.44444444  0.22222222       0.004
   0.50000000  0.44444444  0.22222222       0.004
   0.50000000  0.50000000  0.22222222       0.001
   0.27777778  0.27777778  0.27777778       0.001
   0.33333333  0.27777778  0.27777778       0.004
   0.38888889  0.27777778  0.27777778       0.004
   0.44444444  0.27777778  0.27777778       0.004
   0.50000000  0.27777778  0.27777778       0.002
   0.33333333  0.33333333  0.27777778       0.004
   0.38888889  0.33333333  0.27777778       0.008
   0.44444444  0.33333333  0.27777778       0.008
   0.50000000  0.33333333  0.27777778       0.004
   0.38888889  0.38888889  0.27777778       0.004
   0.44444444  0.38888889  0.27777778       0.008
   0.50000000  0.38888889  0.27777778       0.004
   0.44444444  0.44444444  0.27777778       0.004
   0.50000000  0.44444444  0.27777778       0.004
   0.50000000  0.50000000  0.27777778       0.001
   0.33333333  0.33333333  0.33333333       0.001
   0.38888889  0.33333333  0.33333333       0.004
   0.44444444  0.33333333  0.33333333       0.004
   0.50000000  0.33333333  0.33333333       0.002
   0.38888889  0.38888889  0.33333333       0.004
   0.44444444  0.38888889  0.33333333       0.008
   0.50000000  0.38888889  0.33333333       0.004
   0.44444444  0.44444444  0.33333333       0.004
   0.50000000  0.44444444  0.33333333       0.004
   0.50000000  0.50000000  0.33333333       0.001
   0.38888889  0.38888889  0.38888889       0.001
   0.44444444  0.38888889  0.38888889       0.004
   0.50000000  0.38888889  0.38888889       0.002
   0.44444444  0.44444444  0.38888889       0.004
   0.50000000  0.44444444  0.38888889       0.004
   0.50000000  0.50000000  0.38888889       0.001
   0.44444444  0.44444444  0.44444444       0.001
   0.50000000  0.44444444  0.44444444       0.002
   0.50000000  0.50000000  0.44444444       0.001
   0.50000000  0.50000000  0.50000000       0.000
 
 position of ions in fractional coordinates (direct lattice) 
   0.00000000  0.00000000  0.00000000
   0.50000000  0.00000000  0.50000000
   0.50000000  0.50000000  0.00000000
   0.00000000  0.50000000  0.50000000
 
 position of ions in cartesian coordinates  (Angst):
   0.00000000  0.00000000  0.00000000
   1.84000000  0.00000000  1.84000000
   1.84000000  1.84000000  0.00000000
   0.00000000  1.84000000  1.84000000
 


--------------------------------------------------------------------------------------------------------


 k-point   1 :   0.0000 0.0000 0.0000  plane waves:    1743
 k-point   2 :   0.0556 0.0000 0.0000  plane waves:    1695
 k-point   3 :   0.1111 0.0000 0.0000  plane waves:    1683
 k-point   4 :   0.1667 0.0000 0.0000  plane waves:    1671
 k-point   5 :   0.2222 0.0000 0.0000  plane waves:    1679
 k-point   6 :   0.2778 0.0000 0.0000  plane waves:    1679
 k-point   7 :   0.3333 0.0000 0.0000  plane waves:    1675
 k-point   8 :   0.3889 0.0000 0.0000  plane waves:    1670
 k-point   9 :   0.4444 0.0000 0.0000  plane waves:    1662
 k-point  10 :   0.5000 0.0000 0.0000  plane waves:    1654
 k-point  11 :   0.0556 0.0556 0.0000  plane waves:    1695
 k-point  12 :   0.1111 0.0556 0.0000  plane waves:    1686
 k-point  13 :   0.1667 0.0556 0.0000  plane waves:    1674
 k-point  14 :   0.2222 0.0556 0.0000  plane waves:    1675
 k-point  15 :   0.2778 0.0556 0.0000  plane waves:    1673
 k-point  16 :   0.3333 0.0556 0.0000  plane waves:    1674
 k-point  17 :   0.3889 0.0556 0.0000  plane waves:    1670
 k-point  18 :   0.4444 0.0556 0.0000  plane waves:    1660
 k-point  19 :   0.5000 0.0556 0.0000  plane waves:    1666
 k-point  20 :   0.1111 0.1111 0.0000  plane waves:    1669
 k-point  21 :   0.1667 0.1111 0.0000  plane waves:    1670
 k-point  22 :   0.2222 0.1111 0.0000  plane waves:    1674
 k-point  23 :   0.2778 0.1111 0.0000  plane waves:    1675
 k-point  24 :   0.3333 0.1111 0.0000  plane waves:    1673
 k-point  25 :   0.3889 0.1111 0.0000  plane waves:    1667
 k-point  26 :   0.4444 0.1111 0.0000  plane waves:    1673
 k-point  27 :   0.5000 0.1111 0.0000  plane waves:    1664
 k-point  28 :   0.1667 0.1667 0.0000  plane waves:    1663
 k-point  29 :   0.2222 0.1667 0.0000  plane waves:    1680
 k-point  30 :   0.2778 0.1667 0.0000  plane waves:    1671
 k-point  31 :   0.3333 0.1667 0.0000  plane waves:    1661
 k-point  32 :   0.3889 0.1667 0.0000  plane waves:    1658
 k-point  33 :   0.4444 0.1667 0.0000  plane waves:    1664
 k-point  34 :   0.5000 0.1667 0.0000  plane waves:    1662
 k-point  35 :   0.2222 0.2222 0.0000  plane waves:    1670
 k-point  36 :   0.2778 0.2222 0.0000  plane waves:    1665
 k-point  37 :   0.3333 0.2222 0.0000  plane waves:    1655
 k-point  38 :   0.3889 0.2222 0.0000  plane waves:    1653
 k-point  39 :   0.4444 0.2222 0.0000  plane waves:    1651
 k-point  40 :   0.5000 0.2222 0.0000  plane waves:    1654
 k-point  41 :   0.2778 0.2778 0.0000  plane waves:    1642
 k-point  42 :   0.3333 0.2778 0.0000  plane waves:    1649
 k-point  43 :   0.3889 0.2778 0.0000  plane waves:    1647
 k-point  44 :   0.4444 0.2778 0.0000  plane waves:    1652
 k-point  45 :   0.5000 0.2778 0.0000  plane waves:    1662
 k-point  46 :   0.3333 0.3333 0.0000  plane waves:    1654
 k-point  47 :   0.3889 0.3333 0.0000  plane waves:    1650
 k-point  48 :   0.4444 0.3333 0.0000  plane waves:    1662
 k-point  49 :   0.5000 0.3333 0.0000  plane waves:    1660
 k-point  50 :   0.3889 0.3889 0.0000  plane waves:    1650
 k-point  51 :   0.4444 0.3889 0.0000  plane waves:    1663
 k-point  52 :   0.5000 0.3889 0.0000  plane waves:    1668
 k-point  53 :   0.4444 0.4444 0.0000  plane waves:    1654
 k-point  54 :   0.5000 0.4444 0.0000  plane waves:    1658
 k-point  55 :   0.5000 0.5000 0.0000  plane waves:    1652
 k-point  56 :   0.0556 0.0556 0.0556  plane waves:    1692
 k-point  57 :   0.1111 0.0556 0.0556  plane waves:    1681
 k-point  58 :   0.1667 0.0556 0.0556  plane waves:    1671
 k-point  59 :   0.2222 0.0556 0.0556  plane waves:    1672
 k-point  60 :   0.2778 0.0556 0.0556  plane waves:    1673
 k-point  61 :   0.3333 0.0556 0.0556  plane waves:    1678
 k-point  62 :   0.3889 0.0556 0.0556  plane waves:    1671
 k-point  63 :   0.4444 0.0556 0.0556  plane waves:    1666
 k-point  64 :   0.5000 0.0556 0.0556  plane waves:    1654
 k-point  65 :   0.1111 0.1111 0.0556  plane waves:    1673
 k-point  66 :   0.1667 0.1111 0.0556  plane waves:    1671
 k-point  67 :   0.2222 0.1111 0.0556  plane waves:    1671
 k-point  68 :   0.2778 0.1111 0.0556  plane waves:    1672
 k-point  69 :   0.3333 0.1111 0.0556  plane waves:    1674
 k-point  70 :   0.3889 0.1111 0.0556  plane waves:    1664
 k-point  71 :   0.4444 0.1111 0.0556  plane waves:    1664
 k-point  72 :   0.5000 0.1111 0.0556  plane waves:    1660
 k-point  73 :   0.1667 0.1667 0.0556  plane waves:    1674
 k-point  74 :   0.2222 0.1667 0.0556  plane waves:    1672
 k-point  75 :   0.2778 0.1667 0.0556  plane waves:    1664
 k-point  76 :   0.3333 0.1667 0.0556  plane waves:    1662
 k-point  77 :   0.3889 0.1667 0.0556  plane waves:    1663
 k-point  78 :   0.4444 0.1667 0.0556  plane waves:    1661
 k-point  79 :   0.5000 0.1667 0.0556  plane waves:    1656
 k-point  80 :   0.2222 0.2222 0.0556  plane waves:    1667
 k-point  81 :   0.2778 0.2222 0.0556  plane waves:    1665
 k-point  82 :   0.3333 0.2222 0.0556  plane waves:    1660
 k-point  83 :   0.3889 0.2222 0.0556  plane waves:    1659
 k-point  84 :   0.4444 0.2222 0.0556  plane waves:    1656
 k-point  85 :   0.5000 0.2222 0.0556  plane waves:    1662
 k-point  86 :   0.2778 0.2778 0.0556  plane waves:    1658
 k-point  87 :   0.3333 0.2778 0.0556  plane waves:    1657
 k-point  88 :   0.3889 0.2778 0.0556  plane waves:    1660
 k-point  89 :   0.4444 0.2778 0.0556  plane waves:    1657
 k-point  90 :   0.5000 0.2778 0.0556  plane waves:    1658
 k-point  91 :   0.3333 0.3333 0.0556  plane waves:    1649
 k-point  92 :   0.3889 0.3333 0.0556  plane waves:    1650
 k-point  93 :   0.4444 0.3333 0.0556  plane waves:    1660
 k-point  94 :   0.5000 0.3333 0.0556  plane waves:    1660
 k-point  95 :   0.3889 0.3889 0.0556  plane waves:    1657
 k-point  96 :   0.4444 0.3889 0.0556  plane waves:    1659
 k-point  97 :   0.5000 0.3889 0.0556  plane waves:    1660
 k-point  98 :   0.4444 0.4444 0.0556  plane waves:    1655
 k-point  99 :   0.5000 0.4444 0.0556  plane waves:    1656
 k-point 100 :   0.5000 0.5000 0.0556  plane waves:    1656
 k-point 101 :   0.1111 0.1111 0.1111  plane waves:    1668
 k-point 102 :   0.1667 0.1111 0.1111  plane waves:    1677
 k-point 103 :   0.2222 0.1111 0.1111  plane waves:    1674
 k-point 104 :   0.2778 0.1111 0.1111  plane waves:    1665
 k-point 105 :   0.3333 0.1111 0.1111  plane waves:    1657
 k-point 106 :   0.3889 0.1111 0.1111  plane waves:    1664
 k-point 107 :   0.4444 0.1111 0.1111  plane waves:    1662
 k-point 108 :   0.5000 0.1111 0.1111  plane waves:    1654
 k-point 109 :   0.1667 0.1667 0.1111  plane waves:    1676
 k-point 110 :   0.2222 0.1667 0.1111  plane waves:    1668
 k-point 111 :   0.2778 0.1667 0.1111  plane waves:    1666
 k-point 112 :   0.3333 0.1667 0.1111  plane waves:    1665
 k-point 113 :   0.3889 0.1667 0.1111  plane waves:    1664
 k-point 114 :   0.4444 0.1667 0.1111  plane waves:    1664
 k-point 115 :   0.5000 0.1667 0.1111  plane waves:    1658
 k-point 116 :   0.2222 0.2222 0.1111  plane waves:    1673
 k-point 117 :   0.2778 0.2222 0.1111  plane waves:    1660
 k-point 118 :   0.3333 0.2222 0.1111  plane waves:    1664
 k-point 119 :   0.3889 0.2222 0.1111  plane waves:    1664
 k-point 120 :   0.4444 0.2222 0.1111  plane waves:    1655
 k-point 121 :   0.5000 0.2222 0.1111  plane waves:    1662
 k-point 122 :   0.2778 0.2778 0.1111  plane waves:    1658
 k-point 123 :   0.3333 0.2778 0.1111  plane waves:    1659
 k-point 124 :   0.3889 0.2778 0.1111  plane waves:    1661
 k-point 125 :   0.4444 0.2778 0.1111  plane waves:    1658
 k-point 126 :   0.5000 0.2778 0.1111  plane waves:    1662
 k-point 127 :   0.3333 0.3333 0.1111  plane waves:    1657
 k-point 128 :   0.3889 0.3333 0.1111  plane waves:    1654
 k-point 129 :   0.4444 0.3333 0.1111  plane waves:    1662
 k-point 130 :   0.5000 0.3333 0.1111  plane waves:    1656
 k-point 131 :   0.3889 0.3889 0.1111  plane waves:    1659
 k-point 132 :   0.4444 0.3889 0.1111  plane waves:    1662
 k-point 133 :   0.5000 0.3889 0.1111  plane waves:    1666
 k-point 134 :   0.4444 0.4444 0.1111  plane waves:    1666
 k-point 135 :   0.5000 0.4444 0.1111  plane waves:    1666
 k-point 136 :   0.5000 0.5000 0.1111  plane waves:    1656
 k-point 137 :   0.1667 0.1667 0.1667  plane waves:    1659
 k-point 138 :   0.2222 0.1667 0.1667  plane waves:    1665
 k-point 139 :   0.2778 0.1667 0.1667  plane waves:    1662
 k-point 140 :   0.3333 0.1667 0.1667  plane waves:    1664
 k-point 141 :   0.3889 0.1667 0.1667  plane waves:    1669
 k-point 142 :   0.4444 0.1667 0.1667  plane waves:    1658
 k-point 143 :   0.5000 0.1667 0.1667  plane waves:    1664
 k-point 144 :   0.2222 0.2222 0.1667  plane waves:    1670
 k-point 145 :   0.2778 0.2222 0.1667  plane waves:    1662
 k-point 146 :   0.3333 0.2222 0.1667  plane waves:    1661
 k-point 147 :   0.3889 0.2222 0.1667  plane waves:    1663
 k-point 148 :   0.4444 0.2222 0.1667  plane waves:    1661
 k-point 149 :   0.5000 0.2222 0.1667  plane waves:    1664
 k-point 150 :   0.2778 0.2778 0.1667  plane waves:    1660
 k-point 151 :   0.3333 0.2778 0.1667  plane waves:    1656
 k-point 152 :   0.3889 0.2778 0.1667  plane waves:    1655
 k-point 153 :   0.4444 0.2778 0.1667  plane waves:    1667
 k-point 154 :   0.5000 0.2778 0.1667  plane waves:    1662
 k-point 155 :   0.3333 0.3333 0.1667  plane waves:    1657
 k-point 156 :   0.3889 0.3333 0.1667  plane waves:    1657
 k-point 157 :   0.4444 0.3333 0.1667  plane waves:    1663
 k-point 158 :   0.5000 0.3333 0.1667  plane waves:    1656
 k-point 159 :   0.3889 0.3889 0.1667  plane waves:    1661
 k-point 160 :   0.4444 0.3889 0.1667  plane waves:    1664
 k-point 161 :   0.5000 0.3889 0.1667  plane waves:    1668
 k-point 162 :   0.4444 0.4444 0.1667  plane waves:    1666
 k-point 163 :   0.5000 0.4444 0.1667  plane waves:    1664
 k-point 164 :   0.5000 0.5000 0.1667  plane waves:    1672
 k-point 165 :   0.2222 0.2222 0.2222  plane waves:    1653
 k-point 166 :   0.2778 0.2222 0.2222  plane waves:    1661
 k-point 167 :   0.3333 0.2222 0.2222  plane waves:    1664
 k-point 168 :   0.3889 0.2222 0.2222  plane waves:    1658
 k-point 169 :   0.4444 0.2222 0.2222  plane waves:    1674
 k-point 170 :   0.5000 0.2222 0.2222  plane waves:    1674
 k-point 171 :   0.2778 0.2778 0.2222  plane waves:    1661
 k-point 172 :   0.3333 0.2778 0.2222  plane waves:    1663
 k-point 173 :   0.3889 0.2778 0.2222  plane waves:    1661
 k-point 174 :   0.4444 0.2778 0.2222  plane waves:    1672
 k-point 175 :   0.5000 0.2778 0.2222  plane waves:    1672
 k-point 176 :   0.3333 0.3333 0.2222  plane waves:    1660
 k-point 177 :   0.3889 0.3333 0.2222  plane waves:    1661
 k-point 178 :   0.4444 0.3333 0.2222  plane waves:    1658
 k-point 179 :   0.5000 0.3333 0.2222  plane waves:    1666
 k-point 180 :   0.3889 0.3889 0.2222  plane waves:    1661
 k-point 181 :   0.4444 0.3889 0.2222  plane waves:    1660
 k-point 182 :   0.5000 0.3889 0.2222  plane waves:    1662
 k-point 183 :   0.4444 0.4444 0.2222  plane waves:    1667
 k-point 184 :   0.5000 0.4444 0.2222  plane waves:    1656
 k-point 185 :   0.5000 0.5000 0.2222  plane waves:    1664
 k-point 186 :   0.2778 0.2778 0.2778  plane waves:    1670
 k-point 187 :   0.3333 0.2778 0.2778  plane waves:    1666
 k-point 188 :   0.3889 0.2778 0.2778  plane waves:    1665
 k-point 189 :   0.4444 0.2778 0.2778  plane waves:    1672
 k-point 190 :   0.5000 0.2778 0.2778  plane waves:    1674
 k-point 191 :   0.3333 0.3333 0.2778  plane waves:    1663
 k-point 192 :   0.3889 0.3333 0.2778  plane waves:    1664
 k-point 193 :   0.4444 0.3333 0.2778  plane waves:    1665
 k-point 194 :   0.5000 0.3333 0.2778  plane waves:    1670
 k-point 195 :   0.3889 0.3889 0.2778  plane waves:    1667
 k-point 196 :   0.4444 0.3889 0.2778  plane waves:    1665
 k-point 197 :   0.5000 0.3889 0.2778  plane waves:    1658
 k-point 198 :   0.4444 0.4444 0.2778  plane waves:    1659
 k-point 199 :   0.5000 0.4444 0.2778  plane waves:    1662
 k-point 200 :   0.5000 0.5000 0.2778  plane waves:    1664
 k-point 201 :   0.3333 0.3333 0.3333  plane waves:    1673
 k-point 202 :   0.3889 0.3333 0.3333  plane waves:    1663
 k-point 203 :   0.4444 0.3333 0.3333  plane waves:    1666
 k-point 204 :   0.5000 0.3333 0.3333  plane waves:    1662
 k-point 205 :   0.3889 0.3889 0.3333  plane waves:    1668
 k-point 206 :   0.4444 0.3889 0.3333  plane waves:    1665
 k-point 207 :   0.5000 0.3889 0.3333  plane waves:    1660
 k-point 208 :   0.4444 0.4444 0.3333  plane waves:    1655
 k-point 209 :   0.5000 0.4444 0.3333  plane waves:    1654
 k-point 210 :   0.5000 0.5000 0.3333  plane waves:    1656
 k-point 211 :   0.3889 0.3889 0.3889  plane waves:    1667
 k-point 212 :   0.4444 0.3889 0.3889  plane waves:    1653
 k-point 213 :   0.5000 0.3889 0.3889  plane waves:    1654
 k-point 214 :   0.4444 0.4444 0.3889  plane waves:    1658
 k-point 215 :   0.5000 0.4444 0.3889  plane waves:    1658
 k-point 216 :   0.5000 0.5000 0.3889  plane waves:    1672
 k-point 217 :   0.4444 0.4444 0.4444  plane waves:    1649
 k-point 218 :   0.5000 0.4444 0.4444  plane waves:    1658
 k-point 219 :   0.5000 0.5000 0.4444  plane waves:    1640
 k-point 220 :   0.5000 0.5000 0.5000  plane waves:    1640

 maximum and minimum number of plane-waves per node :       452      390

 maximum number of plane-waves:      1743
 maximum index in each direction: 
   IXMAX=    7   IYMAX=    7   IZMAX=    7
   IXMIN=   -7   IYMIN=   -7   IZMIN=   -7


 parallel 3D FFT for wavefunctions:
    minimum data exchange during FFTs selected (reduces bandwidth)
 parallel 3D FFT for charge:
    minimum data exchange during FFTs selected (reduces bandwidth)


 total amount of memory used by VASP MPI-rank0    72606. kBytes
=======================================================================

   base      :      30000. kBytes
   nonl-proj :      27018. kBytes
   fftplans  :       1584. kBytes
   grid      :       1470. kBytes
   one-center:         31. kBytes
   wavefun   :      12503. kBytes
 
     INWAV:  cpu time      0.0000: real time      0.0002
 Broyden mixing: mesh for mixing (old mesh)
   NGX = 15   NGY = 15   NGZ = 15
  (NGX  = 60   NGY  = 60   NGZ  = 60)
  gives a total of   3375 points

 initial charge density was supplied:
 charge density of overlapping atoms calculated
 number of electron      33.0000000 magnetization       1.8000000
 keeping initial charge density in first step


--------------------------------------------------------------------------------------------------------


 Maximum index for augmentation-charges         7171 (set IRDMAX)


--------------------------------------------------------------------------------------------------------


 First call to EWALD:  gamma=   0.482
 Maximum number of real-space cells 3x 3x 3
 Maximum number of reciprocal cells 3x 3x 3

    FEWALD:  cpu time      0.0020: real time      0.0023


--------------------------------------- Iteration      1(   1)  ---------------------------------------


    POTLOK:  cpu time      0.0200: real time      0.0211
    SETDIJ:  cpu time      0.5579: real time      0.5582
     EDDAV:  cpu time      3.6464: real time      3.8088
       DOS:  cpu time      0.0280: real time      0.0284
    --------------------------------------------
      LOOP:  cpu time      4.2534: real time      4.4165

 eigenvalue-minimisations  : 21168
 total energy-change (2. order) : 0.1566429E+03  (-0.1650938E+04)
 number of electron      33.0000000 magnetization       1.8000000
 augmentation part       33.0000000 magnetization       1.8000000

 Free energy of the ion-electron system (eV)
  ---------------------------------------------------
  alpha Z        PSCENC =       199.53276413
  Ewald energy   TEWEN  =     -2604.27141269
  -Hartree energ DENC   =      -960.98190822
  -exchange      EXHF   =         0.00000000
  -V(xc)+E(xc)   XCENC  =        68.27160175
  PAW double counting   =      2647.30747865    -2815.80221064
  entropy T*S    EENTRO =        -0.00000369
  eigenvalues    EBANDS =       335.34622409
  atomic energy  EATOM  =      3287.24036057
  Solvation  Ediel_sol  =         0.00000000
  ---------------------------------------------------
  free energy    TOTEN  =       156.64289397 eV

  energy without entropy =      156.64289766  energy(sigma->0) =      156.64289520


--------------------------------------------------------------------------------------------------------




--------------------------------------- Iteration      1(   2)  ---------------------------------------


     EDDAV:  cpu time      3.5945: real time      3.7574
       DOS:  cpu time      0.0320: real time      0.0322
    --------------------------------------------
      LOOP:  cpu time      3.6254: real time      3.7896

 eigenvalue-minimisations  : 21144
 total energy-change (2. order) :-0.1781258E+03  (-0.1718436E+03)
 number of electron      33.0000000 magnetization       1.8000000
 augmentation part       33.0000000 magnetization       1.8000000

 Free energy of the ion-electron system (eV)
  ---------------------------------------------------
  alpha Z        PSCENC =       199.53276413
  Ewald energy   TEWEN  =     -2604.27141269
  -Hartree energ DENC   =      -960.98190822
  -exchange      EXHF   =         0.00000000
  -V(xc)+E(xc)   XCENC  =        68.27160175
  PAW double counting   =      2647.30747865    -2815.80221064
  entropy T*S    EENTRO =         0.00729405
  eigenvalues    EBANDS =       157.21314722
  atomic energy  EATOM  =      3287.24036057
  Solvation  Ediel_sol  =         0.00000000
  ---------------------------------------------------
  free energy    TOTEN  =       -21.48288517 eV

  energy without entropy =      -21.49017922  energy(sigma->0) =      -21.48531652


--------------------------------------------------------------------------------------------------------




--------------------------------------- Iteration      1(   3)  ---------------------------------------


     EDDAV:  cpu time      4.5783: real time      4.7436
       DOS:  cpu time      0.0350: real time      0.0347
    --------------------------------------------
      LOOP:  cpu time      4.6133: real time      4.7783

 eigenvalue-minimisations  : 28344
 total energy-change (2. order) :-0.4327596E+01  (-0.4272489E+01)
 number of electron      33.0000000 magnetization       1.8000000
 augmentation part       33.0000000 magnetization       1.8000000

 Free energy of the ion-electron system (eV)
  ---------------------------------------------------
  alpha Z        PSCENC =       199.53276413
  Ewald energy   TEWEN  =     -2604.27141269
  -Hartree energ DENC   =      -960.98190822
  -exchange      EXHF   =         0.00000000
  -V(xc)+E(xc)   XCENC  =        68.27160175
  PAW double counting   =      2647.30747865    -2815.80221064
  entropy T*S    EENTRO =         0.00892077
  eigenvalues    EBANDS =       152.88392474
  atomic energy  EATOM  =      3287.24036057
  Solvation  Ediel_sol  =         0.00000000
  ---------------------------------------------------
  free energy    TOTEN  =       -25.81048093 eV

  energy without entropy =      -25.81940170  energy(sigma->0) =      -25.81345452


--------------------------------------------------------------------------------------------------------




--------------------------------------- Iteration      1(   4)  ---------------------------------------


     EDDAV:  cpu time      4.0824: real time      4.2462
       DOS:  cpu time      0.0350: real time      0.0356
    --------------------------------------------
      LOOP:  cpu time      4.1174: real time      4.2818

 eigenvalue-minimisations  : 24816
 total energy-change (2. order) :-0.3964659E-01  (-0.3963804E-01)
 number of electron      33.0000000 magnetization       1.8000000
 augmentation part       33.0000000 magnetization       1.8000000

 Free energy of the ion-electron system (eV)
  ---------------------------------------------------
  alpha Z        PSCENC =       199.53276413
  Ewald energy   TEWEN  =     -2604.27141269
  -Hartree energ DENC   =      -960.98190822
  -exchange      EXHF   =         0.00000000
  -V(xc)+E(xc)   XCENC  =        68.27160175
  PAW double counting   =      2647.30747865    -2815.80221064
  entropy T*S    EENTRO =         0.00893752
  eigenvalues    EBANDS =       152.84426140
  atomic energy  EATOM  =      3287.24036057
  Solvation  Ediel_sol  =         0.00000000
  ---------------------------------------------------
  free energy    TOTEN  =       -25.85012752 eV

  energy without entropy =      -25.85906504  energy(sigma->0) =      -25.85310669


--------------------------------------------------------------------------------------------------------




--------------------------------------- Iteration      1(   5)  ---------------------------------------


     EDDAV:  cpu time      4.7603: real time      4.8927
       DOS:  cpu time      0.0350: real time      0.0356
    CHARGE:  cpu time      0.2320: real time      0.2313
    MIXING:  cpu time      0.0030: real time      0.0031
    --------------------------------------------
      LOOP:  cpu time      5.0302: real time      5.1628

 eigenvalue-minimisations  : 29256
 total energy-change (2. order) :-0.9496300E-03  (-0.9496212E-03)
 number of electron      33.0000001 magnetization       0.7618599
 augmentation part       16.3148909 magnetization       0.7093270

 Broyden mixing:
  rms(total) = 0.17129E+01    rms(broyden)= 0.17128E+01
  rms(prec ) = 0.41587E+01
  weight for this iteration     100.00

 Free energy of the ion-electron system (eV)
  ---------------------------------------------------
  alpha Z        PSCENC =       199.53276413
  Ewald energy   TEWEN  =     -2604.27141269
  -Hartree energ DENC   =      -960.98190822
  -exchange      EXHF   =         0.00000000
  -V(xc)+E(xc)   XCENC  =        68.27160175
  PAW double counting   =      2647.30747865    -2815.80221064
  entropy T*S    EENTRO =         0.00893738
  eigenvalues    EBANDS =       152.84331191
  atomic energy  EATOM  =      3287.24036057
  Solvation  Ediel_sol  =         0.00000000
  ---------------------------------------------------
  free energy    TOTEN  =       -25.85107715 eV

  energy without entropy =      -25.86001453  energy(sigma->0) =      -25.85405627


--------------------------------------------------------------------------------------------------------




--------------------------------------- Iteration      1(   6)  ---------------------------------------


    POTLOK:  cpu time      0.0140: real time      0.0173
    SETDIJ:  cpu time      0.5569: real time      0.5563
     EDDAV:  cpu time      3.9704: real time      4.0468
       DOS:  cpu time      0.0350: real time      0.0349
    CHARGE:  cpu time      0.2030: real time      0.2041
    MIXING:  cpu time      0.0020: real time      0.0012
    --------------------------------------------
      LOOP:  cpu time      4.7813: real time      4.8605

 eigenvalue-minimisations  : 23472
 total energy-change (2. order) :-0.2200462E+01  (-0.5480143E+01)
 number of electron      33.0000001 magnetization       0.3709544
 augmentation part       21.3614038 magnetization       0.4642494

 Broyden mixing:
  rms(total) = 0.19179E+01    rms(broyden)= 0.19179E+01
  rms(prec ) = 0.46659E+01
  weight for this iteration     100.00

 eigenvalues of (default mixing * dielectric matrix)
  average eigenvalue GAMMA=   0.4611
  0.4611

 Free energy of the ion-electron system (eV)
  ---------------------------------------------------
  alpha Z        PSCENC =       199.53276413
  Ewald energy   TEWEN  =     -2604.27141269
  -Hartree energ DENC   =      -858.58182842
  -exchange      EXHF   =         0.00000000
  -V(xc)+E(xc)   XCENC  =        63.53477238
  PAW double counting   =      2546.36769996    -2695.06337411
  entropy T*S    EENTRO =        -0.00042880
  eigenvalues    EBANDS =        33.18990738
  atomic energy  EATOM  =      3287.24036057
  Solvation  Ediel_sol  =         0.00000000
  ---------------------------------------------------
  free energy    TOTEN  =       -28.05153960 eV

  energy without entropy =      -28.05111080  energy(sigma->0) =      -28.05139666


--------------------------------------------------------------------------------------------------------




--------------------------------------- Iteration      1(   7)  ---------------------------------------


    POTLOK:  cpu time      0.0140: real time      0.0161
    SETDIJ:  cpu time      0.5559: real time      0.5550
     EDDAV:  cpu time      4.0694: real time      4.1472
       DOS:  cpu time      0.0360: real time      0.0358
    CHARGE:  cpu time      0.2080: real time      0.2089
    MIXING:  cpu time      0.0010: real time      0.0007
    --------------------------------------------
      LOOP:  cpu time      4.8843: real time      4.9638

 eigenvalue-minimisations  : 24240
 total energy-change (2. order) : 0.5985925E+01  (-0.2527666E+01)
 number of electron      33.0000001 magnetization       0.4945733
 augmentation part       18.4590147 magnetization       0.4718116

 Broyden mixing:
  rms(total) = 0.18120E+00    rms(broyden)= 0.18115E+00
  rms(prec ) = 0.40610E+00
  weight for this iteration     100.00

 eigenvalues of (default mixing * dielectric matrix)
  average eigenvalue GAMMA=   0.6586
  0.8832  0.4339

 Free energy of the ion-electron system (eV)
  ---------------------------------------------------
  alpha Z        PSCENC =       199.53276413
  Ewald energy   TEWEN  =     -2604.27141269
  -Hartree energ DENC   =      -911.90494730
  -exchange      EXHF   =         0.00000000
  -V(xc)+E(xc)   XCENC  =        65.93180156
  PAW double counting   =      2667.51484581    -2833.08381863
  entropy T*S    EENTRO =        -0.00541909
  eigenvalues    EBANDS =       106.98021113
  atomic energy  EATOM  =      3287.24036057
  Solvation  Ediel_sol  =         0.00000000
  ---------------------------------------------------
  free energy    TOTEN  =       -22.06561450 eV

  energy without entropy =      -22.06019541  energy(sigma->0) =      -22.06380814


--------------------------------------------------------------------------------------------------------




--------------------------------------- Iteration      1(   8)  ---------------------------------------


    POTLOK:  cpu time      0.0140: real time      0.0158
    SETDIJ:  cpu time      0.5579: real time      0.5566
     EDDAV:  cpu time      3.8654: real time      3.9390
       DOS:  cpu time      0.0360: real time      0.0360
    CHARGE:  cpu time      0.2110: real time      0.2104
    MIXING:  cpu time      0.0010: real time      0.0008
    --------------------------------------------
      LOOP:  cpu time      4.6853: real time      4.7586

 eigenvalue-minimisations  : 22536
 total energy-change (2. order) : 0.2731981E-01  (-0.2673311E-01)
 number of electron      33.0000001 magnetization       0.7027705
 augmentation part       18.4765893 magnetization       0.6784171

 Broyden mixing:
  rms(total) = 0.11767E+00    rms(broyden)= 0.11767E+00
  rms(prec ) = 0.26123E+00
  weight for this iteration     100.00

 eigenvalues of (default mixing * dielectric matrix)
  average eigenvalue GAMMA=   0.8982
  0.4592  1.1178  1.1178

 Free energy of the ion-electron system (eV)
  ---------------------------------------------------
  alpha Z        PSCENC =       199.53276413
  Ewald energy   TEWEN  =     -2604.27141269
  -Hartree energ DENC   =      -908.45774441
  -exchange      EXHF   =         0.00000000
  -V(xc)+E(xc)   XCENC  =        65.76633578
  PAW double counting   =      2708.70651555    -2876.79100338
  entropy T*S    EENTRO =         0.00056463
  eigenvalues    EBANDS =       106.23532513
  atomic energy  EATOM  =      3287.24036057
  Solvation  Ediel_sol  =         0.00000000
  ---------------------------------------------------
  free energy    TOTEN  =       -22.03829469 eV

  energy without entropy =      -22.03885932  energy(sigma->0) =      -22.03848290


--------------------------------------------------------------------------------------------------------




--------------------------------------- Iteration      1(   9)  ---------------------------------------


    POTLOK:  cpu time      0.0140: real time      0.0159
    SETDIJ:  cpu time      0.5559: real time      0.5560
     EDDAV:  cpu time      4.6353: real time      4.7079
       DOS:  cpu time      0.0360: real time      0.0360
    CHARGE:  cpu time      0.2070: real time      0.2079
    MIXING:  cpu time      0.0020: real time      0.0007
    --------------------------------------------
      LOOP:  cpu time      5.4502: real time      5.5244

 eigenvalue-minimisations  : 28212
 total energy-change (2. order) : 0.1386438E-01  (-0.3748762E-02)
 number of electron      33.0000001 magnetization       0.7703891
 augmentation part       18.5576880 magnetization       0.7625817

 Broyden mixing:
  rms(total) = 0.57229E-01    rms(broyden)= 0.57223E-01
  rms(prec ) = 0.74597E-01
  weight for this iteration     100.00

 eigenvalues of (default mixing * dielectric matrix)
  average eigenvalue GAMMA=   1.0912
  1.9828  1.3072  0.4557  0.6193

 Free energy of the ion-electron system (eV)
  ---------------------------------------------------
  alpha Z        PSCENC =       199.53276413
  Ewald energy   TEWEN  =     -2604.27141269
  -Hartree energ DENC   =      -903.89279734
  -exchange      EXHF   =         0.00000000
  -V(xc)+E(xc)   XCENC  =        65.58270242
  PAW double counting   =      2745.57386937    -2915.82987532
  entropy T*S    EENTRO =         0.00559609
  eigenvalues    EBANDS =       104.03436247
  atomic energy  EATOM  =      3287.24036057
  Solvation  Ediel_sol  =         0.00000000
  ---------------------------------------------------
  free energy    TOTEN  =       -22.02443031 eV

  energy without entropy =      -22.03002640  energy(sigma->0) =      -22.02629567


--------------------------------------------------------------------------------------------------------




--------------------------------------- Iteration      1(  10)  ---------------------------------------


    POTLOK:  cpu time      0.0130: real time      0.0159
    SETDIJ:  cpu time      0.5569: real time      0.5559
     EDDAV:  cpu time      4.6383: real time      4.7138
       DOS:  cpu time      0.0360: real time      0.0358
    CHARGE:  cpu time      0.2080: real time      0.2082
    MIXING:  cpu time      0.0010: real time      0.0008
    --------------------------------------------
      LOOP:  cpu time      5.4532: real time      5.5303

 eigenvalue-minimisations  : 28692
 total energy-change (2. order) :-0.1048604E-03  (-0.2180719E-03)
 number of electron      33.0000001 magnetization       0.8027442
 augmentation part       18.5667588 magnetization       0.8066999

 Broyden mixing:
  rms(total) = 0.13595E-01    rms(broyden)= 0.13592E-01
  rms(prec ) = 0.30207E-01
  weight for this iteration     100.00

 eigenvalues of (default mixing * dielectric matrix)
  average eigenvalue GAMMA=   1.1716
  2.5877  1.0961  1.0961  0.4553  0.6226

 Free energy of the ion-electron system (eV)
  ---------------------------------------------------
  alpha Z        PSCENC =       199.53276413
  Ewald energy   TEWEN  =     -2604.27141269
  -Hartree energ DENC   =      -903.30215913
  -exchange      EXHF   =         0.00000000
  -V(xc)+E(xc)   XCENC  =        65.57447739
  PAW double counting   =      2750.10849370    -2920.65089965
  entropy T*S    EENTRO =         0.00535795
  eigenvalues    EBANDS =       103.73848256
  atomic energy  EATOM  =      3287.24036057
  Solvation  Ediel_sol  =         0.00000000
  ---------------------------------------------------
  free energy    TOTEN  =       -22.02453517 eV

  energy without entropy =      -22.02989312  energy(sigma->0) =      -22.02632115


--------------------------------------------------------------------------------------------------------




--------------------------------------- Iteration      1(  11)  ---------------------------------------


    POTLOK:  cpu time      0.0140: real time      0.0158
    SETDIJ:  cpu time      0.5559: real time      0.5556
     EDDAV:  cpu time      4.5353: real time      4.6081
       DOS:  cpu time      0.0360: real time      0.0359
    CHARGE:  cpu time      0.2060: real time      0.2066
    MIXING:  cpu time      0.0020: real time      0.0011
    --------------------------------------------
      LOOP:  cpu time      5.3492: real time      5.4230

 eigenvalue-minimisations  : 27720
 total energy-change (2. order) : 0.3575585E-03  (-0.7108591E-04)
 number of electron      33.0000001 magnetization       0.7737571
 augmentation part       18.5729815 magnetization       0.7860664

 Broyden mixing:
  rms(total) = 0.70902E-02    rms(broyden)= 0.70891E-02
  rms(prec ) = 0.97175E-02
  weight for this iteration     100.00

 eigenvalues of (default mixing * dielectric matrix)
  average eigenvalue GAMMA=   1.0837
  2.5595  1.1210  1.1210  0.4555  0.6225  0.6225

 Free energy of the ion-electron system (eV)
  ---------------------------------------------------
  alpha Z        PSCENC =       199.53276413
  Ewald energy   TEWEN  =     -2604.27141269
  -Hartree energ DENC   =      -902.54432129
  -exchange      EXHF   =         0.00000000
  -V(xc)+E(xc)   XCENC  =        65.55243856
  PAW double counting   =      2757.94016381    -2928.97274661
  entropy T*S    EENTRO =         0.00485938
  eigenvalues    EBANDS =       103.49371653
  atomic energy  EATOM  =      3287.24036057
  Solvation  Ediel_sol  =         0.00000000
  ---------------------------------------------------
  free energy    TOTEN  =       -22.02417761 eV

  energy without entropy =      -22.02903699  energy(sigma->0) =      -22.02579740


--------------------------------------------------------------------------------------------------------




--------------------------------------- Iteration      1(  12)  ---------------------------------------


    POTLOK:  cpu time      0.0140: real time      0.0162
    SETDIJ:  cpu time      0.5559: real time      0.5557
     EDDAV:  cpu time      4.4843: real time      4.5566
       DOS:  cpu time      0.0360: real time      0.0360
    CHARGE:  cpu time      0.2070: real time      0.2071
    MIXING:  cpu time      0.0000: real time      0.0006
    --------------------------------------------
      LOOP:  cpu time      5.2972: real time      5.3720

 eigenvalue-minimisations  : 27348
 total energy-change (2. order) :-0.3581674E-04  (-0.2110087E-04)
 number of electron      33.0000001 magnetization       0.7746340
 augmentation part       18.5771018 magnetization       0.7832115

 Broyden mixing:
  rms(total) = 0.28040E-02    rms(broyden)= 0.28037E-02
  rms(prec ) = 0.41580E-02
  weight for this iteration     100.00

 eigenvalues of (default mixing * dielectric matrix)
  average eigenvalue GAMMA=   1.1562
  2.5380  1.4350  1.4350  0.9401  0.4553  0.6810  0.6091

 Free energy of the ion-electron system (eV)
  ---------------------------------------------------
  alpha Z        PSCENC =       199.53276413
  Ewald energy   TEWEN  =     -2604.27141269
  -Hartree energ DENC   =      -902.51934994
  -exchange      EXHF   =         0.00000000
  -V(xc)+E(xc)   XCENC  =        65.54961768
  PAW double counting   =      2757.82918930    -2928.84336290
  entropy T*S    EENTRO =         0.00497896
  eigenvalues    EBANDS =       103.45300147
  atomic energy  EATOM  =      3287.24036057
  Solvation  Ediel_sol  =         0.00000000
  ---------------------------------------------------
  free energy    TOTEN  =       -22.02421343 eV

  energy without entropy =      -22.02919239  energy(sigma->0) =      -22.02587308


--------------------------------------------------------------------------------------------------------




--------------------------------------- Iteration      1(  13)  ---------------------------------------


    POTLOK:  cpu time      0.0140: real time      0.0159
    SETDIJ:  cpu time      0.5569: real time      0.5557
     EDDAV:  cpu time      4.3403: real time      4.4158
       DOS:  cpu time      0.0360: real time      0.0359
    CHARGE:  cpu time      0.2070: real time      0.2077
    MIXING:  cpu time      0.0010: real time      0.0008
    --------------------------------------------
      LOOP:  cpu time      5.1552: real time      5.2319

 eigenvalue-minimisations  : 26088
 total energy-change (2. order) :-0.6381112E-05  (-0.1319916E-05)
 number of electron      33.0000001 magnetization       0.7807112
 augmentation part       18.5763216 magnetization       0.7893819

 Broyden mixing:
  rms(total) = 0.21297E-02    rms(broyden)= 0.21297E-02
  rms(prec ) = 0.26488E-02
  weight for this iteration     100.00

 eigenvalues of (default mixing * dielectric matrix)
  average eigenvalue GAMMA=   1.1443
  2.5784  1.7516  1.1508  1.1508  0.4554  0.7279  0.7279  0.6118

 Free energy of the ion-electron system (eV)
  ---------------------------------------------------
  alpha Z        PSCENC =       199.53276413
  Ewald energy   TEWEN  =     -2604.27141269
  -Hartree energ DENC   =      -902.53039382
  -exchange      EXHF   =         0.00000000
  -V(xc)+E(xc)   XCENC  =        65.55167452
  PAW double counting   =      2757.96351136    -2928.97731512
  entropy T*S    EENTRO =         0.00497462
  eigenvalues    EBANDS =       103.46161662
  atomic energy  EATOM  =      3287.24036057
  Solvation  Ediel_sol  =         0.00000000
  ---------------------------------------------------
  free energy    TOTEN  =       -22.02421981 eV

  energy without entropy =      -22.02919443  energy(sigma->0) =      -22.02587801


--------------------------------------------------------------------------------------------------------




--------------------------------------- Iteration      1(  14)  ---------------------------------------


    POTLOK:  cpu time      0.0140: real time      0.0160
    SETDIJ:  cpu time      0.5569: real time      0.5559
     EDDAV:  cpu time      3.7614: real time      3.8355
       DOS:  cpu time      0.0360: real time      0.0360
    CHARGE:  cpu time      0.2070: real time      0.2078
    MIXING:  cpu time      0.0020: real time      0.0011
    --------------------------------------------
      LOOP:  cpu time      4.5773: real time      4.6523

 eigenvalue-minimisations  : 20988
 total energy-change (2. order) :-0.2860910E-05  (-0.5245554E-06)
 number of electron      33.0000001 magnetization       0.7828746
 augmentation part       18.5758084 magnetization       0.7922361

 Broyden mixing:
  rms(total) = 0.40566E-03    rms(broyden)= 0.40558E-03
  rms(prec ) = 0.86371E-03
  weight for this iteration     100.00

 eigenvalues of (default mixing * dielectric matrix)
  average eigenvalue GAMMA=   1.1778
  2.5809  2.0582  1.2471  1.2471  0.4553  0.9376  0.7756  0.6159  0.6822

 Free energy of the ion-electron system (eV)
  ---------------------------------------------------
  alpha Z        PSCENC =       199.53276413
  Ewald energy   TEWEN  =     -2604.27141269
  -Hartree energ DENC   =      -902.53764358
  -exchange      EXHF   =         0.00000000
  -V(xc)+E(xc)   XCENC  =        65.55310209
  PAW double counting   =      2758.00599270    -2929.01540164
  entropy T*S    EENTRO =         0.00495018
  eigenvalues    EBANDS =       103.46306557
  atomic energy  EATOM  =      3287.24036057
  Solvation  Ediel_sol  =         0.00000000
  ---------------------------------------------------
  free energy    TOTEN  =       -22.02422267 eV

  energy without entropy =      -22.02917285  energy(sigma->0) =      -22.02587273


--------------------------------------------------------------------------------------------------------




--------------------------------------- Iteration      1(  15)  ---------------------------------------


    POTLOK:  cpu time      0.0140: real time      0.0160
    SETDIJ:  cpu time      0.5569: real time      0.5560
     EDDAV:  cpu time      2.8096: real time      2.8834
       DOS:  cpu time      0.0360: real time      0.0360
    CHARGE:  cpu time      0.2080: real time      0.2083
    MIXING:  cpu time      0.0010: real time      0.0007
    --------------------------------------------
      LOOP:  cpu time      3.6254: real time      3.7005

 eigenvalue-minimisations  : 12132
 total energy-change (2. order) : 0.1242079E-05  (-0.8802328E-07)
 number of electron      33.0000001 magnetization       0.7811306
 augmentation part       18.5755471 magnetization       0.7907013

 Broyden mixing:
  rms(total) = 0.52019E-03    rms(broyden)= 0.52016E-03
  rms(prec ) = 0.55104E-03
  weight for this iteration     100.00

 eigenvalues of (default mixing * dielectric matrix)
  average eigenvalue GAMMA=   1.1918
  2.5816  2.1842  1.4242  1.2053  1.2053  0.4554  0.7966  0.7966  0.6197  0.6485

 Free energy of the ion-electron system (eV)
  ---------------------------------------------------
  alpha Z        PSCENC =       199.53276413
  Ewald energy   TEWEN  =     -2604.27141269
  -Hartree energ DENC   =      -902.55302462
  -exchange      EXHF   =         0.00000000
  -V(xc)+E(xc)   XCENC  =        65.55413169
  PAW double counting   =      2757.95967317    -2928.95709780
  entropy T*S    EENTRO =         0.00494053
  eigenvalues    EBANDS =       103.46544359
  atomic energy  EATOM  =      3287.24036057
  Solvation  Ediel_sol  =         0.00000000
  ---------------------------------------------------
  free energy    TOTEN  =       -22.02422143 eV

  energy without entropy =      -22.02916196  energy(sigma->0) =      -22.02586827


--------------------------------------------------------------------------------------------------------




--------------------------------------- Iteration      1(  16)  ---------------------------------------


    POTLOK:  cpu time      0.0140: real time      0.0160
    SETDIJ:  cpu time      0.5569: real time      0.5560
     EDDAV:  cpu time      2.7696: real time      2.8441
       DOS:  cpu time      0.0360: real time      0.0360
    --------------------------------------------
      LOOP:  cpu time      3.3765: real time      3.4522

 eigenvalue-minimisations  : 11736
 total energy-change (2. order) : 0.1465255E-06  (-0.3864307E-07)
 number of electron      33.0000001 magnetization       0.7811306
 augmentation part       18.5755471 magnetization       0.7907013

 Free energy of the ion-electron system (eV)
  ---------------------------------------------------
  alpha Z        PSCENC =       199.53276413
  Ewald energy   TEWEN  =     -2604.27141269
  -Hartree energ DENC   =      -902.55944405
  -exchange      EXHF   =         0.00000000
  -V(xc)+E(xc)   XCENC  =        65.55426176
  PAW double counting   =      2757.94384918    -2928.93690811
  entropy T*S    EENTRO =         0.00494968
  eigenvalues    EBANDS =       103.46735825
  atomic energy  EATOM  =      3287.24036057
  Solvation  Ediel_sol  =         0.00000000
  ---------------------------------------------------
  free energy    TOTEN  =       -22.02422128 eV

  energy without entropy =      -22.02917096  energy(sigma->0) =      -22.02587117


--------------------------------------------------------------------------------------------------------




 average (electrostatic) potential at core
  the test charge radii are     1.0406  0.9791
  (the norm of the test charge is              1.0000)
       1 -74.6250       2 -41.6172       3 -41.6172       4 -41.6172
 
 
 
 E-fermi :   5.2349     XC(G=0): -12.1603     alpha+bet :-12.7162

 Fermi energy:         5.2348548188

 spin component 1

 k-point     1 :       0.0000    0.0000    0.0000
  band No.  band energies     occupation 
      1      -4.0518      1.00000
      2       1.4597      1.00000
      3       2.0549      1.00000
      4       2.0549      1.00000
      5       2.3397      1.00000
      6       2.3397      1.00000
      7       2.3397      1.00000
      8       3.9961      1.00000
      9       3.9961      1.00000
     10       3.9961      1.00000
     11       4.7025      1.00055
     12       4.7025      1.00055
     13       4.9456      1.02998
     14       5.0738      0.99144
     15       5.0738      0.99144
     16       5.0738      0.99143
     17       6.1100     -0.00000
     18       6.1100     -0.00000
     19       6.1100     -0.00000
     20      11.2578      0.00000
     21      11.2578      0.00000
     22      11.5758      0.00000
     23      16.6711      0.00000
     24      16.6711      0.00000

 k-point     2 :       0.0556    0.0000    0.0000
  band No.  band energies     occupation 
      1      -4.0168      1.00000
      2       1.4699      1.00000
      3       2.0329      1.00000
      4       2.0760      1.00000
      5       2.3449      1.00000
      6       2.3449      1.00000
      7       2.3472      1.00000
      8       3.9773      1.00000
      9       3.9773      1.00000
     10       3.9882      1.00000
     11       4.6845      1.00035
     12       4.7030      1.00055
     13       4.9341      1.02749
     14       4.9946      1.03537
     15       4.9946      1.03537
     16       5.0738      0.99139
     17       5.9391     -0.00000
     18       6.2349     -0.00000
     19       6.2349     -0.00000
     20      11.2598      0.00000
     21      11.3774      0.00000
     22      11.7232      0.00000
     23      16.5162      0.00000
     24      16.5172      0.00000

 k-point     3 :       0.1111    0.0000    0.0000
  band No.  band energies     occupation 
      1      -3.9121      1.00000
      2       1.4919      1.00000
      3       1.9667      1.00000
      4       2.1382      1.00000
      5       2.3601      1.00000
      6       2.3601      1.00000
      7       2.3692      1.00000
      8       3.9228      1.00000
      9       3.9228      1.00000
     10       3.9649      1.00000
     11       4.6269      1.00007
     12       4.7038      1.00056
     13       4.8281      1.00716
     14       4.8281      1.00716
     15       4.8999      1.01967
     16       5.0739      0.99128
     17       5.5280     -0.02916
     18       6.5380     -0.00000
     19       6.5380     -0.00000
     20      11.2657      0.00000
     21      11.4706      0.00000
     22      12.3374      0.00000
     23      15.9695      0.00000
     24      15.9695      0.00000

 k-point     4 :       0.1667    0.0000    0.0000
  band No.  band energies     occupation 
      1      -3.7387      1.00000
      2       1.4795      1.00000
      3       1.8777      1.00000
      4       2.2382      1.00000
      5       2.3846      1.00000
      6       2.3846      1.00000
      7       2.4044      1.00000
      8       3.8391      1.00000
      9       3.8391      1.00000
     10       3.9279      1.00000
     11       4.5130      1.00000
     12       4.6533      1.00015
     13       4.6533      1.00015
     14       4.7028      1.00055
     15       4.8456      1.00947
     16       5.0713      0.99447
     17       5.0740      0.99113
     18       6.9370     -0.00000
     19       6.9370     -0.00000
     20      11.2755      0.00000
     21      11.5343      0.00000
     22      13.2494      0.00000
     23      15.1737      0.00000
     24      15.1737      0.00000

 k-point     5 :       0.2222    0.0000    0.0000
  band No.  band energies     occupation 
      1      -3.4983      1.00000
      2       1.3072      1.00000
      3       1.8589      1.00000
      4       2.3704      1.00000
      5       2.4166      1.00000
      6       2.4166      1.00000
      7       2.4499      1.00000
      8       3.7372      1.00000
      9       3.7372      1.00000
     10       3.8800      1.00000
     11       4.3068      1.00000
     12       4.4977      1.00000
     13       4.4977      1.00000
     14       4.6884      1.00039
     15       4.7400      1.00130
     16       4.7831      1.00318
     17       5.0741      0.99094
     18       7.3987     -0.00000
     19       7.3987     -0.00000
     20      11.2892      0.00000
     21      11.6109      0.00000
     22      14.1949      0.00000
     23      14.3194      0.00000
     24      14.3194      0.00000

 k-point     6 :       0.2778    0.0000    0.0000
  band No.  band energies     occupation 
      1      -3.1941      1.00000
      2       0.9397      1.00000
      3       1.9281      1.00000
      4       2.4535      1.00000
      5       2.4535      1.00000
      6       2.5021      1.00000
      7       2.5258      1.00000
      8       3.6309      1.00000
      9       3.6309      1.00000
     10       3.8253      1.00000
     11       4.0626      1.00000
     12       4.3673      1.00000
     13       4.3673      1.00000
     14       4.5509      1.00001
     15       4.6249      1.00007
     16       4.7507      1.00164
     17       5.0743      0.99074
     18       7.9102     -0.00000
     19       7.9102     -0.00000
     20      11.3061      0.00000
     21      11.7085      0.00000
     22      13.4713      0.00000
     23      13.4713      0.00000
     24      14.4147      0.00000

 k-point     7 :       0.3333    0.0000    0.0000
  band No.  band energies     occupation 
      1      -2.8312      1.00000
      2       0.4510      1.00000
      3       2.0264      1.00000
      4       2.4918      1.00000
      5       2.4918      1.00000
      6       2.5555      1.00000
      7       2.6914      1.00000
      8       3.5332      1.00000
      9       3.5332      1.00000
     10       3.7696      1.00000
     11       3.8833      1.00000
     12       4.2628      1.00000
     13       4.2628      1.00000
     14       4.4149      1.00000
     15       4.5208      1.00000
     16       4.7460      1.00148
     17       5.0745      0.99054
     18       8.4656     -0.00000
     19       8.4656     -0.00000
     20      11.3248      0.00000
     21      11.8276      0.00000
     22      12.6495      0.00000
     23      12.6495      0.00000
     24      14.0608      0.00000

 k-point     8 :       0.3889    0.0000    0.0000
  band No.  band energies     occupation 
      1      -2.4206      1.00000
      2      -0.0895      1.00000
      3       2.1208      1.00000
      4       2.5263      1.00000
      5       2.5263      1.00000
      6       2.6030      1.00000
      7       2.8475      1.00000
      8       3.4547      1.00000
      9       3.4547      1.00000
     10       3.7202      1.00000
     11       3.7806      1.00000
     12       4.1851      1.00000
     13       4.1851      1.00000
     14       4.3046      1.00000
     15       4.4103      1.00000
     16       4.7470      1.00151
     17       5.0746      0.99039
     18       9.0614     -0.00000
     19       9.0614     -0.00000
     20      11.3427      0.00000
     21      11.8621      0.00000
     22      11.8621      0.00000
     23      11.9615      0.00000
     24      13.6905      0.00000

 k-point     9 :       0.4444    0.0000    0.0000
  band No.  band energies     occupation 
      1      -1.9956      1.00000
      2      -0.6075      1.00000
      3       2.1888      1.00000
      4       2.5507      1.00000
      5       2.5508      1.00000
      6       2.6364      1.00000
      7       2.9654      1.00000
      8       3.4037      1.00000
      9       3.4037      1.00000
     10       3.6855      1.00000
     11       3.7326      1.00000
     12       4.1368      1.00000
     13       4.1368      1.00000
     14       4.2276      1.00000
     15       4.3216      1.00000
     16       4.7485      1.00156
     17       5.0747      0.99031
     18       9.6924     -0.00000
     19       9.6924     -0.00000
     20      11.1159      0.00000
     21      11.1159      0.00000
     22      11.3559      0.00000
     23      12.0851      0.00000
     24      13.4120      0.00000

 k-point    10 :       0.5000    0.0000    0.0000
  band No.  band energies     occupation 
      1      -1.7398      1.00000
      2      -0.8966      1.00000
      3       2.2137      1.00000
      4       2.5597      1.00000
      5       2.5597      1.00000
      6       2.6486      1.00000
      7       3.0106      1.00000
      8       3.3860      1.00000
      9       3.3860      1.00000
     10       3.6730      1.00000
     11       3.7194      1.00000
     12       4.1204      1.00000
     13       4.1204      1.00000
     14       4.1993      1.00000
     15       4.2865      1.00000
     16       4.7492      1.00158
     17       5.0747      0.99027
     18      10.2396     -0.00000
     19      10.2396     -0.00000
     20      10.5302     -0.00000
     21      10.5302     -0.00000
     22      11.3608      0.00000
     23      12.1409      0.00000
     24      13.3030      0.00000

 k-point    11 :       0.0556    0.0556    0.0000
  band No.  band energies     occupation 
      1      -3.9819      1.00000
      2       1.4804      1.00000
      3       2.0326      1.00000
      4       2.0754      1.00000
      5       2.3413      1.00000
      6       2.3498      1.00000
      7       2.3636      1.00000
      8       3.9339      1.00000
      9       3.9590      1.00000
     10       4.0057      1.00000
     11       4.6748      1.00027
     12       4.6944      1.00045
     13       4.9005      1.01980
     14       4.9324      1.02711
     15       4.9420      1.02921
     16       5.0599      1.00682
     17       6.0059     -0.00000
     18       6.1230     -0.00000
     19       6.3462     -0.00000
     20      11.3140      0.00000
     21      11.5128      0.00000
     22      11.8073      0.00000
     23      16.0796      0.00000
     24      16.4307      0.00000

 k-point    12 :       0.1111    0.0556    0.0000
  band No.  band energies     occupation 
      1      -3.8773      1.00000
      2       1.5038      1.00000
      3       1.9745      1.00000
      4       2.1287      1.00000
      5       2.3490      1.00000
      6       2.3642      1.00000
      7       2.3935      1.00000
      8       3.8612      1.00000
      9       3.9064      1.00000
     10       4.0035      1.00000
     11       4.6120      1.00005
     12       4.6903      1.00040
     13       4.7373      1.00122
     14       4.8004      1.00441
     15       4.8931      1.01817
     16       5.0524      1.01345
     17       5.6436     -0.00693
     18       6.3768     -0.00000
     19       6.6283     -0.00000
     20      11.3361      0.00000
     21      11.6626      0.00000
     22      12.3603      0.00000
     23      15.3839      0.00000
     24      15.9859      0.00000

 k-point    13 :       0.1667    0.0556    0.0000
  band No.  band energies     occupation 
      1      -3.7042      1.00000
      2       1.4952      1.00000
      3       1.8847      1.00000
      4       2.2263      1.00000
      5       2.3681      1.00000
      6       2.3880      1.00000
      7       2.4345      1.00000
      8       3.7693      1.00000
      9       3.8264      1.00000
     10       3.9795      1.00000
     11       4.4510      1.00000
     12       4.5926      1.00003
     13       4.6370      1.00010
     14       4.6933      1.00044
     15       4.8382      1.00844
     16       5.0507      1.01485
     17       5.1991      0.64857
     18       6.7585     -0.00000
     19       7.0120     -0.00000
     20      11.3555      0.00000
     21      11.7348      0.00000
     22      13.2702      0.00000
     23      14.5883      0.00000
     24      15.2101      0.00000

 k-point    14 :       0.2222    0.0556    0.0000
  band No.  band energies     occupation 
      1      -3.4642      1.00000
      2       1.3272      1.00000
      3       1.8642      1.00000
      4       2.3515      1.00000
      5       2.3969      1.00000
      6       2.4239      1.00000
      7       2.4838      1.00000
      8       3.6678      1.00000
      9       3.7296      1.00000
     10       3.9364      1.00000
     11       4.2219      1.00000
     12       4.4715      1.00000
     13       4.4860      1.00000
     14       4.6802      1.00031
     15       4.7714      1.00252
     16       4.8584      1.01147
     17       5.0503      1.01512
     18       7.1972     -0.00000
     19       7.4632     -0.00000
     20      11.3775      0.00000
     21      11.8172      0.00000
     22      13.7484      0.00000
     23      14.2872      0.00000
     24      14.3572      0.00000

 k-point    15 :       0.2778    0.0556    0.0000
  band No.  band energies     occupation 
      1      -3.1606      1.00000
      2       0.9623      1.00000
      3       1.9340      1.00000
      4       2.4332      1.00000
      5       2.4372      1.00000
      6       2.5271      1.00000
      7       2.5368      1.00000
      8       3.5690      1.00000
      9       3.6261      1.00000
     10       3.8775      1.00000
     11       4.0047      1.00000
     12       4.3455      1.00000
     13       4.3588      1.00000
     14       4.6033      1.00004
     15       4.6508      1.00015
     16       4.7418      1.00135
     17       5.0504      1.01506
     18       7.6788     -0.00000
     19       7.9672     -0.00000
     20      11.3961      0.00000
     21      11.9185      0.00000
     22      12.9838      0.00000
     23      13.5092      0.00000
     24      14.6578      0.00000

 k-point    16 :       0.3333    0.0556    0.0000
  band No.  band energies     occupation 
      1      -2.7985      1.00000
      2       0.4760      1.00000
      3       2.0337      1.00000
      4       2.4737      1.00000
      5       2.4755      1.00000
      6       2.5869      1.00000
      7       2.6887      1.00000
      8       3.4852      1.00000
      9       3.5246      1.00000
     10       3.8082      1.00000
     11       3.8570      1.00000
     12       4.2305      1.00000
     13       4.2593      1.00000
     14       4.4700      1.00000
     15       4.5329      1.00000
     16       4.7359      1.00119
     17       5.0506      1.01491
     18       8.1969     -0.00000
     19       8.5170     -0.00000
     20      11.3826      0.00000
     21      12.0021      0.00000
     22      12.3190      0.00000
     23      12.6880      0.00000
     24      14.3201      0.00000

 k-point    17 :       0.3889    0.0556    0.0000
  band No.  band energies     occupation 
      1      -2.3889      1.00000
      2      -0.0621      1.00000
      3       2.1303      1.00000
      4       2.5045      1.00000
      5       2.5136      1.00000
      6       2.6258      1.00000
      7       2.8463      1.00000
      8       3.4263      1.00000
      9       3.4372      1.00000
     10       3.7380      1.00000
     11       3.7812      1.00000
     12       4.1379      1.00000
     13       4.1887      1.00000
     14       4.3617      1.00000
     15       4.4212      1.00000
     16       4.7371      1.00122
     17       5.0508      1.01474
     18       8.7461     -0.00000
     19       9.1083     -0.00000
     20      11.1706      0.00000
     21      11.7453      0.00000
     22      11.9020      0.00000
     23      12.2505      0.00000
     24      13.9355      0.00000

 k-point    18 :       0.4444    0.0556    0.0000
  band No.  band energies     occupation 
      1      -1.9654      1.00000
      2      -0.5776      1.00000
      3       2.2011      1.00000
      4       2.5227      1.00000
      5       2.5453      1.00000
      6       2.6476      1.00000
      7       2.9691      1.00000
      8       3.3761      1.00000
      9       3.3956      1.00000
     10       3.6826      1.00000
     11       3.7515      1.00000
     12       4.0759      1.00000
     13       4.1467      1.00000
     14       4.2933      1.00000
     15       4.3295      1.00000
     16       4.7389      1.00127
     17       5.0510      1.01463
     18       9.3148     -0.00000
     19       9.7350     -0.00000
     20      10.6305     -0.00000
     21      11.1584      0.00000
     22      11.6521      0.00000
     23      12.3812      0.00000
     24      13.6388      0.00000

 k-point    19 :       0.5000    0.0556    0.0000
  band No.  band energies     occupation 
      1      -1.7112      1.00000
      2      -0.8649      1.00000
      3       2.2275      1.00000
      4       2.5286      1.00000
      5       2.5581      1.00000
      6       2.6537      1.00000
      7       3.0182      1.00000
      8       3.3527      1.00000
      9       3.3872      1.00000
     10       3.6608      1.00000
     11       3.7446      1.00000
     12       4.0537      1.00000
     13       4.1328      1.00000
     14       4.2742      1.00000
     15       4.2883      1.00000
     16       4.7396      1.00129
     17       5.0510      1.01459
     18       9.7473     -0.00000
     19      10.1845     -0.00000
     20      10.2720     -0.00000
     21      10.5824     -0.00000
     22      11.6432      0.00000
     23      12.4462      0.00000
     24      13.5191      0.00000

 k-point    20 :       0.1111    0.1111    0.0000
  band No.  band energies     occupation 
      1      -3.7733      1.00000
      2       1.5327      1.00000
      3       1.9625      1.00000
      4       2.1321      1.00000
      5       2.3472      1.00000
      6       2.3767      1.00000
      7       2.4340      1.00000
      8       3.7649      1.00000
      9       3.8602      1.00000
     10       4.0336      1.00000
     11       4.4790      1.00000
     12       4.6395      1.00011
     13       4.6705      1.00024
     14       4.7134      1.00071
     15       4.8621      1.01211
     16       5.0185      1.03167
     17       5.7682     -0.00053
     18       6.1250     -0.00000
     19       6.8718     -0.00000
     20      11.3755      0.00000
     21      12.2113      0.00000
     22      12.5240      0.00000
     23      14.5594      0.00000
     24      15.9237      0.00000

 k-point    21 :       0.1667    0.1111    0.0000
  band No.  band energies     occupation 
      1      -3.6010      1.00000
      2       1.5382      1.00000
      3       1.8880      1.00000
      4       2.2012      1.00000
      5       2.3577      1.00000
      6       2.3989      1.00000
      7       2.4851      1.00000
      8       3.6571      1.00000
      9       3.7924      1.00000
     10       4.0392      1.00000
     11       4.2587      1.00000
     12       4.5638      1.00001
     13       4.5845      1.00002
     14       4.6634      1.00020
     15       4.8089      1.00514
     16       4.9989      1.03512
     17       5.4253     -0.01941
     18       6.3621     -0.00000
     19       7.2220     -0.00000
     20      11.4026      0.00000
     21      12.4028      0.00000
     22      13.3376      0.00000
     23      13.7182      0.00000
     24      15.3135      0.00000

 k-point    22 :       0.2222    0.1111    0.0000
  band No.  band energies     occupation 
      1      -3.3624      1.00000
      2       1.3856      1.00000
      3       1.8671      1.00000
      4       2.3074      1.00000
      5       2.3797      1.00000
      6       2.4386      1.00000
      7       2.5430      1.00000
      8       3.5492      1.00000
      9       3.7111      1.00000
     10       4.0176      1.00000
     11       4.0404      1.00000
     12       4.4485      1.00000
     13       4.4591      1.00000
     14       4.6533      1.00015
     15       4.7415      1.00134
     16       4.9902      1.03546
     17       5.0640      1.00268
     18       6.7412     -0.00000
     19       7.6478     -0.00000
     20      11.4218      0.00000
     21      12.4764      0.00000
     22      12.9492      0.00000
     23      14.3464      0.00000
     24      14.4690      0.00000

 k-point    23 :       0.2778    0.1111    0.0000
  band No.  band energies     occupation 
      1      -3.0605      1.00000
      2       1.0285      1.00000
      3       1.9413      1.00000
      4       2.3907      1.00000
      5       2.4115      1.00000
      6       2.5321      1.00000
      7       2.6012      1.00000
      8       3.4542      1.00000
      9       3.6121      1.00000
     10       3.8753      1.00000
     11       3.9642      1.00000
     12       4.3317      1.00000
     13       4.3332      1.00000
     14       4.5916      1.00003
     15       4.7025      1.00054
     16       4.8127      1.00550
     17       4.9863      1.03541
     18       7.1633     -0.00000
     19       8.1325     -0.00000
     20      11.3785      0.00000
     21      12.1392      0.00000
     22      12.7291      0.00000
     23      13.6214      0.00000
     24      14.8860      0.00000

 k-point    24 :       0.3333    0.1111    0.0000
  band No.  band energies     occupation 
      1      -2.7007      1.00000
      2       0.5499      1.00000
      3       2.0462      1.00000
      4       2.4283      1.00000
      5       2.4509      1.00000
      6       2.6491      1.00000
      7       2.6823      1.00000
      8       3.3870      1.00000
      9       3.4950      1.00000
     10       3.7975      1.00000
     11       3.8777      1.00000
     12       4.2039      1.00000
     13       4.2492      1.00000
     14       4.4846      1.00000
     15       4.6330      1.00009
     16       4.7083      1.00063
     17       4.9846      1.03535
     18       7.6171     -0.00000
     19       8.6672     -0.00000
     20      11.0375      0.00000
     21      11.8247      0.00000
     22      12.8022      0.00000
     23      12.8683      0.00000
     24      14.6069      0.00000

 k-point    25 :       0.3889    0.1111    0.0000
  band No.  band energies     occupation 
      1      -2.2942      1.00000
      2       0.0193      1.00000
      3       2.1505      1.00000
      4       2.4441      1.00000
      5       2.4944      1.00000
      6       2.6747      1.00000
      7       2.8415      1.00000
      8       3.3606      1.00000
      9       3.3894      1.00000
     10       3.7723      1.00000
     11       3.7807      1.00000
     12       4.0895      1.00000
     13       4.1993      1.00000
     14       4.3837      1.00000
     15       4.5077      1.00000
     16       4.7081      1.00062
     17       4.9839      1.03532
     18       8.0985     -0.00000
     19       9.2460     -0.00000
     20      10.4427     -0.00000
     21      11.8002      0.00000
     22      12.0203      0.00000
     23      13.0461      0.00000
     24      14.2436      0.00000

 k-point    26 :       0.4444    0.1111    0.0000
  band No.  band energies     occupation 
      1      -1.8753      1.00000
      2      -0.4889      1.00000
      3       2.2331      1.00000
      4       2.4432      1.00000
      5       2.5344      1.00000
      6       2.6753      1.00000
      7       2.9757      1.00000
      8       3.3109      1.00000
      9       3.3736      1.00000
     10       3.6750      1.00000
     11       3.7902      1.00000
     12       4.0062      1.00000
     13       4.1729      1.00000
     14       4.3154      1.00000
     15       4.4155      1.00000
     16       4.7103      1.00066
     17       4.9836      1.03531
     18       8.5975     -0.00000
     19       9.8435     -0.00000
     20       9.8603     -0.00000
     21      11.2843      0.00000
     22      11.8280      0.00000
     23      13.2229      0.00000
     24      13.9549      0.00000

 k-point    27 :       0.5000    0.1111    0.0000
  band No.  band energies     occupation 
      1      -1.6258      1.00000
      2      -0.7706      1.00000
      3       2.2674      1.00000
      4       2.4378      1.00000
      5       2.5533      1.00000
      6       2.6691      1.00000
      7       3.0365      1.00000
      8       3.2748      1.00000
      9       3.3909      1.00000
     10       3.6296      1.00000
     11       3.7985      1.00000
     12       3.9739      1.00000
     13       4.1646      1.00000
     14       4.2922      1.00000
     15       4.3792      1.00000
     16       4.7112      1.00067
     17       4.9835      1.03531
     18       8.9627     -0.00000
     19       9.4424     -0.00000
     20      10.3689     -0.00000
     21      10.7352      0.00000
     22      11.8425      0.00000
     23      13.3171      0.00000
     24      13.8256      0.00000

 k-point    28 :       0.1667    0.1667    0.0000
  band No.  band energies     occupation 
      1      -3.4303      1.00000
      2       1.5829      1.00000
      3       1.8369      1.00000
      4       2.2083      1.00000
      5       2.3602      1.00000
      6       2.4201      1.00000
      7       2.5470      1.00000
      8       3.5376      1.00000
      9       3.7474      1.00000
     10       4.0387      1.00000
     11       4.0775      1.00000
     12       4.4933      1.00000
     13       4.5280      1.00000
     14       4.6322      1.00009
     15       4.7577      1.00190
     16       4.9505      1.03095
     17       5.5142     -0.03188
     18       6.0949     -0.00000
     19       7.5373     -0.00000
     20      11.4181      0.00000
     21      12.8543      0.00000
     22      13.2242      0.00000
     23      13.5651      0.00000
     24      15.3807      0.00000

 k-point    29 :       0.2222    0.1667    0.0000
  band No.  band energies     occupation 
      1      -3.1938      1.00000
      2       1.4768      1.00000
      3       1.8137      1.00000
      4       2.2703      1.00000
      5       2.3752      1.00000
      6       2.4610      1.00000
      7       2.6154      1.00000
      8       3.4234      1.00000
      9       3.6934      1.00000
     10       3.8406      1.00000
     11       4.0860      1.00000
     12       4.3795      1.00000
     13       4.4476      1.00000
     14       4.6149      1.00005
     15       4.6906      1.00041
     16       4.9188      1.02397
     17       5.2551      0.41473
     18       6.2748     -0.00000
     19       7.9328     -0.00000
     20      11.3456      0.00000
     21      12.1355      0.00000
     22      13.4930      0.00000
     23      14.4514      0.00000
     24      14.6505      0.00000

 k-point    30 :       0.2778    0.1667    0.0000
  band No.  band energies     occupation 
      1      -2.8949      1.00000
      2       1.1339      1.00000
      3       1.9034      1.00000
      4       2.3381      1.00000
      5       2.4016      1.00000
      6       2.5444      1.00000
      7       2.6812      1.00000
      8       3.3293      1.00000
      9       3.5765      1.00000
     10       3.7513      1.00000
     11       4.0445      1.00000
     12       4.2823      1.00000
     13       4.3323      1.00000
     14       4.5607      1.00001
     15       4.6514      1.00015
     16       4.9007      1.01983
     17       4.9788      1.03502
     18       6.6099     -0.00000
     19       8.3924     -0.00000
     20      10.9146      0.00000
     21      11.8394      0.00000
     22      13.6645      0.00000
     23      13.8032      0.00000
     24      15.0654      0.00000

 k-point    31 :       0.3333    0.1667    0.0000
  band No.  band energies     occupation 
      1      -2.5391      1.00000
      2       0.6686      1.00000
      3       2.0189      1.00000
      4       2.3752      1.00000
      5       2.4378      1.00000
      6       2.6774      1.00000
      7       2.7272      1.00000
      8       3.2761      1.00000
      9       3.4347      1.00000
     10       3.7515      1.00000
     11       3.9375      1.00000
     12       4.2011      1.00000
     13       4.2344      1.00000
     14       4.4626      1.00000
     15       4.6494      1.00014
     16       4.7767      1.00280
     17       4.8907      1.01765
     18       6.9939     -0.00000
     19       8.9061     -0.00000
     20      10.2544     -0.00000
     21      11.8440      0.00000
     22      12.9872      0.00000
     23      13.8447      0.00000
     24      14.8452      0.00000

 k-point    32 :       0.3889    0.1667    0.0000
  band No.  band energies     occupation 
      1      -2.1380      1.00000
      2       0.1514      1.00000
      3       2.1324      1.00000
      4       2.3830      1.00000
      5       2.4809      1.00000
      6       2.7352      1.00000
      7       2.8313      1.00000
      8       3.2839      1.00000
      9       3.3227      1.00000
     10       3.7814      1.00000
     11       3.7989      1.00000
     12       4.0742      1.00000
     13       4.2161      1.00000
     14       4.3712      1.00000
     15       4.6168      1.00006
     16       4.6658      1.00022
     17       4.8853      1.01652
     18       7.4132     -0.00000
     19       9.4664     -0.00000
     20       9.6012     -0.00000
     21      11.9082      0.00000
     22      12.2122      0.00000
     23      14.0075      0.00000
     24      14.5377      0.00000

 k-point    33 :       0.4444    0.1667    0.0000
  band No.  band energies     occupation 
      1      -1.7268      1.00000
      2      -0.3441      1.00000
      3       2.2305      1.00000
      4       2.3634      1.00000
      5       2.5238      1.00000
      6       2.7116      1.00000
      7       2.9750      1.00000
      8       3.2356      1.00000
      9       3.3450      1.00000
     10       3.6645      1.00000
     11       3.8228      1.00000
     12       3.9701      1.00000
     13       4.2081      1.00000
     14       4.3121      1.00000
     15       4.5204      1.00000
     16       4.6639      1.00021
     17       4.8827      1.01599
     18       7.8602     -0.00000
     19       9.0065     -0.00000
     20      10.0613     -0.00000
     21      11.4892      0.00000
     22      11.9698      0.00000
     23      14.0662      0.00000
     24      14.3955      0.00000

 k-point    34 :       0.5000    0.1667    0.0000
  band No.  band energies     occupation 
      1      -1.4851      1.00000
      2      -0.6163      1.00000
      3       2.2916      1.00000
      4       2.3293      1.00000
      5       2.5456      1.00000
      6       2.6936      1.00000
      7       3.0562      1.00000
      8       3.1807      1.00000
      9       3.3971      1.00000
     10       3.5900      1.00000
     11       3.8547      1.00000
     12       3.9157      1.00000
     13       4.2057      1.00000
     14       4.2936      1.00000
     15       4.4813      1.00000
     16       4.6649      1.00021
     17       4.8819      1.01583
     18       8.2039     -0.00000
     19       8.6127     -0.00000
     20      10.5299     -0.00000
     21      10.9781      0.00000
     22      11.9952      0.00000
     23      14.0424      0.00000
     24      14.3959      0.00000

 k-point    35 :       0.2222    0.2222    0.0000
  band No.  band energies     occupation 
      1      -2.9606      1.00000
      2       1.5667      1.00000
      3       1.6494      1.00000
      4       2.2853      1.00000
      5       2.3836      1.00000
      6       2.4999      1.00000
      7       2.6962      1.00000
      8       3.3037      1.00000
      9       3.6448      1.00000
     10       3.6937      1.00000
     11       4.1330      1.00000
     12       4.2804      1.00000
     13       4.4084      1.00000
     14       4.5812      1.00002
     15       4.6204      1.00006
     16       4.8577      1.01136
     17       5.2930      0.26516
     18       6.0467     -0.00000
     19       8.2991     -0.00000
     20      10.8676      0.00000
     21      11.8429      0.00000
     22      14.4412      0.00000
     23      14.6584      0.00000
     24      14.8884      0.00000

 k-point    36 :       0.2778    0.2222    0.0000
  band No.  band energies     occupation 
      1      -2.6660      1.00000
      2       1.2702      1.00000
      3       1.7372      1.00000
      4       2.3343      1.00000
      5       2.4042      1.00000
      6       2.5701      1.00000
      7       2.7739      1.00000
      8       3.2065      1.00000
      9       3.4798      1.00000
     10       3.7097      1.00000
     11       4.1043      1.00000
     12       4.2120      1.00000
     13       4.3239      1.00000
     14       4.5208      1.00000
     15       4.5805      1.00002
     16       4.8147      1.00569
     17       5.1050      0.94094
     18       6.1754     -0.00000
     19       8.7322     -0.00000
     20      10.1483     -0.00000
     21      11.8610      0.00000
     22      14.0445      0.00000
     23      14.6917      0.00000
     24      15.1901      0.00000

 k-point    37 :       0.3333    0.2222    0.0000
  band No.  band energies     occupation 
      1      -2.3161      1.00000
      2       0.8249      1.00000
      3       1.8676      1.00000
      4       2.3762      1.00000
      5       2.4355      1.00000
      6       2.6806      1.00000
      7       2.8183      1.00000
      8       3.1657      1.00000
      9       3.3482      1.00000
     10       3.7473      1.00000
     11       3.9647      1.00000
     12       4.2069      1.00000
     13       4.2235      1.00000
     14       4.4255      1.00000
     15       4.5826      1.00002
     16       4.7872      1.00344
     17       4.8947      1.01851
     18       6.4571     -0.00000
     19       9.2220     -0.00000
     20       9.4397     -0.00000
     21      11.9482      0.00000
     22      13.2341      0.00000
     23      14.7336      0.00000
     24      15.2739      0.00000

 k-point    38 :       0.3889    0.2222    0.0000
  band No.  band energies     occupation 
      1      -1.9230      1.00000
      2       0.3279      1.00000
      3       1.9820      1.00000
      4       2.3983      1.00000
      5       2.4748      1.00000
      6       2.7994      1.00000
      7       2.8179      1.00000
      8       3.2137      1.00000
      9       3.2503      1.00000
     10       3.7954      1.00000
     11       3.8061      1.00000
     12       4.0815      1.00000
     13       4.2372      1.00000
     14       4.3438      1.00000
     15       4.5892      1.00002
     16       4.7313      1.00107
     17       4.7706      1.00248
     18       6.8021     -0.00000
     19       8.7896     -0.00000
     20       9.7599     -0.00000
     21      12.0513      0.00000
     22      12.4698      0.00000
     23      14.5384      0.00000
     24      15.3441      0.00000

 k-point    39 :       0.4444    0.2222    0.0000
  band No.  band energies     occupation 
      1      -1.5231      1.00000
      2      -0.1484      1.00000
      3       2.0624      1.00000
      4       2.4041      1.00000
      5       2.5151      1.00000
      6       2.7513      1.00000
      7       2.9574      1.00000
      8       3.1695      1.00000
      9       3.3193      1.00000
     10       3.6510      1.00000
     11       3.8431      1.00000
     12       3.9727      1.00000
     13       4.2452      1.00000
     14       4.2968      1.00000
     15       4.5921      1.00003
     16       4.6222      1.00007
     17       4.7619      1.00207
     18       7.1928     -0.00000
     19       8.2132     -0.00000
     20      10.3299     -0.00000
     21      11.7652      0.00000
     22      12.1377      0.00000
     23      14.3242      0.00000
     24      15.4801      0.00000

 k-point    40 :       0.5000    0.2222    0.0000
  band No.  band energies     occupation 
      1      -1.2921      1.00000
      2      -0.4072      1.00000
      3       2.0920      1.00000
      4       2.4037      1.00000
      5       2.5355      1.00000
      6       2.7256      1.00000
      7       3.0691      1.00000
      8       3.0857      1.00000
      9       3.4056      1.00000
     10       3.5504      1.00000
     11       3.8885      1.00000
     12       3.9025      1.00000
     13       4.2477      1.00000
     14       4.2848      1.00000
     15       4.5724      1.00001
     16       4.6013      1.00004
     17       4.7591      1.00196
     18       7.5256     -0.00000
     19       7.8180     -0.00000
     20      10.7540      0.00000
     21      11.2964      0.00000
     22      12.1725      0.00000
     23      14.2401      0.00000
     24      15.5420      0.00000

 k-point    41 :       0.2778    0.2778    0.0000
  band No.  band energies     occupation 
      1      -2.3775      1.00000
      2       1.4111      1.00000
      3       1.4380      1.00000
      4       2.3769      1.00000
      5       2.4185      1.00000
      6       2.6196      1.00000
      7       2.8721      1.00000
      8       3.0981      1.00000
      9       3.3597      1.00000
     10       3.7320      1.00000
     11       4.0669      1.00000
     12       4.1946      1.00000
     13       4.2852      1.00000
     14       4.4639      1.00000
     15       4.5189      1.00000
     16       4.7432      1.00139
     17       5.1004      0.94988
     18       5.9965     -0.00000
     19       9.1393     -0.00000
     20       9.3835     -0.00000
     21      11.9606      0.00000
     22      14.2295      0.00000
     23      14.4605      0.00000
     24      15.2204      0.00000

 k-point    42 :       0.3333    0.2778    0.0000
  band No.  band energies     occupation 
      1      -2.0358      1.00000
      2       1.0064      1.00000
      3       1.5817      1.00000
      4       2.4230      1.00000
      5       2.4434      1.00000
      6       2.7021      1.00000
      7       2.9172      1.00000
      8       3.0663      1.00000
      9       3.2587      1.00000
     10       3.7792      1.00000
     11       3.9379      1.00000
     12       4.2035      1.00000
     13       4.2306      1.00000
     14       4.3749      1.00000
     15       4.5049      1.00000
     16       4.6909      1.00041
     17       4.9600      1.03266
     18       6.0894     -0.00000
     19       8.6788     -0.00000
     20       9.6041     -0.00000
     21      12.0896      0.00000
     22      13.5233      0.00000
     23      14.7041      0.00000
     24      15.1019      0.00000

 k-point    43 :       0.3889    0.2778    0.0000
  band No.  band energies     occupation 
      1      -1.6536      1.00000
      2       0.5385      1.00000
      3       1.7165      1.00000
      4       2.4534      1.00000
      5       2.4757      1.00000
      6       2.8118      1.00000
      7       2.8535      1.00000
      8       3.1701      1.00000
      9       3.1832      1.00000
     10       3.7876      1.00000
     11       3.8308      1.00000
     12       4.0944      1.00000
     13       4.2604      1.00000
     14       4.3003      1.00000
     15       4.5087      1.00000
     16       4.6559      1.00017
     17       4.8044      1.00474
     18       6.3242     -0.00000
     19       8.0511     -0.00000
     20      10.1174     -0.00000
     21      12.2254      0.00000
     22      12.7796      0.00000
     23      14.8036      0.00000
     24      15.0419      0.00000

 k-point    44 :       0.4444    0.2778    0.0000
  band No.  band energies     occupation 
      1      -1.2688      1.00000
      2       0.0890      1.00000
      3       1.8087      1.00000
      4       2.4678      1.00000
      5       2.5082      1.00000
      6       2.7892      1.00000
      7       2.9275      1.00000
      8       3.1213      1.00000
      9       3.3063      1.00000
     10       3.6324      1.00000
     11       3.8716      1.00000
     12       3.9927      1.00000
     13       4.2638      1.00000
     14       4.2790      1.00000
     15       4.5155      1.00000
     16       4.6358      1.00010
     17       4.6900      1.00040
     18       6.6372     -0.00000
     19       7.5083     -0.00000
     20      10.6587     -0.00000
     21      12.0995      0.00000
     22      12.3365      0.00000
     23      14.5554      0.00000
     24      15.3289      0.00000

 k-point    45 :       0.5000    0.2778    0.0000
  band No.  band energies     occupation 
      1      -1.0514      1.00000
      2      -0.1520      1.00000
      3       1.8415      1.00000
      4       2.4717      1.00000
      5       2.5238      1.00000
      6       2.7622      1.00000
      7       3.0040      1.00000
      8       3.0708      1.00000
      9       3.4164      1.00000
     10       3.5160      1.00000
     11       3.8967      1.00000
     12       3.9393      1.00000
     13       4.2574      1.00000
     14       4.2853      1.00000
     15       4.5191      1.00000
     16       4.6292      1.00008
     17       4.6454      1.00013
     18       6.9498     -0.00000
     19       7.1192     -0.00000
     20      11.0400      0.00000
     21      11.6720      0.00000
     22      12.3813      0.00000
     23      14.4607      0.00000
     24      15.4506      0.00000

 k-point    46 :       0.3333    0.3333    0.0000
  band No.  band energies     occupation 
      1      -1.7049      1.00000
      2       1.1598      1.00000
      3       1.2383      1.00000
      4       2.4599      1.00000
      5       2.4681      1.00000
      6       2.7533      1.00000
      7       2.9437      1.00000
      8       3.0620      1.00000
      9       3.1837      1.00000
     10       3.8314      1.00000
     11       3.8569      1.00000
     12       4.1702      1.00000
     13       4.2549      1.00000
     14       4.3089      1.00000
     15       4.4432      1.00000
     16       4.6126      1.00005
     17       4.9283      1.02617
     18       5.9537     -0.00000
     19       7.9974     -0.00000
     20      10.0436     -0.00000
     21      12.2535      0.00000
     22      13.6854      0.00000
     23      14.1029      0.00000
     24      15.2243      0.00000

 k-point    47 :       0.3889    0.3333    0.0000
  band No.  band energies     occupation 
      1      -1.3373      1.00000
      2       0.7657      1.00000
      3       1.3767      1.00000
      4       2.4819      1.00000
      5       2.4907      1.00000
      6       2.8319      1.00000
      7       2.8742      1.00000
      8       3.1286      1.00000
      9       3.1800      1.00000
     10       3.7401      1.00000
     11       3.8847      1.00000
     12       4.0972      1.00000
     13       4.2421      1.00000
     14       4.2836      1.00000
     15       4.4191      1.00000
     16       4.5553      1.00001
     17       4.8270      1.00702
     18       6.0250     -0.00000
     19       7.4090     -0.00000
     20      10.5306     -0.00000
     21      12.4209      0.00000
     22      13.1115      0.00000
     23      14.3000      0.00000
     24      15.0522      0.00000

 k-point    48 :       0.4444    0.3333    0.0000
  band No.  band energies     occupation 
      1      -0.9718      1.00000
      2       0.3526      1.00000
      3       1.5008      1.00000
      4       2.4962      1.00000
      5       2.5029      1.00000
      6       2.8200      1.00000
      7       2.9152      1.00000
      8       3.0874      1.00000
      9       3.3138      1.00000
     10       3.6054      1.00000
     11       3.9198      1.00000
     12       4.0115      1.00000
     13       4.2112      1.00000
     14       4.3066      1.00000
     15       4.4155      1.00000
     16       4.5189      1.00000
     17       4.7322      1.00109
     18       6.2263     -0.00000
     19       6.9200     -0.00000
     20      11.0416      0.00000
     21      12.4712      0.00000
     22      12.5571      0.00000
     23      14.5835      0.00000
     24      14.8179      0.00000

 k-point    49 :       0.5000    0.3333    0.0000
  band No.  band energies     occupation 
      1      -0.7706      1.00000
      2       0.1333      1.00000
      3       1.5467      1.00000
      4       2.4962      1.00000
      5       2.5121      1.00000
      6       2.7994      1.00000
      7       2.9607      1.00000
      8       3.0627      1.00000
      9       3.4289      1.00000
     10       3.4892      1.00000
     11       3.9366      1.00000
     12       3.9659      1.00000
     13       4.2081      1.00000
     14       4.3158      1.00000
     15       4.4159      1.00000
     16       4.5059      1.00000
     17       4.6939      1.00044
     18       6.4910     -0.00000
     19       6.5619     -0.00000
     20      11.3863      0.00000
     21      12.0814      0.00000
     22      12.6120      0.00000
     23      14.7078      0.00000
     24      14.7211      0.00000

 k-point    50 :       0.3889    0.3889    0.0000
  band No.  band energies     occupation 
      1      -0.9886      1.00000
      2       0.9434      1.00000
      3       1.0340      1.00000
      4       2.4871      1.00000
      5       2.4908      1.00000
      6       2.8609      1.00000
      7       2.8848      1.00000
      8       3.0894      1.00000
      9       3.2468      1.00000
     10       3.6644      1.00000
     11       3.9427      1.00000
     12       4.0722      1.00000
     13       4.1805      1.00000
     14       4.3058      1.00000
     15       4.3453      1.00000
     16       4.4774      1.00000
     17       4.7932      1.00385
     18       5.9221     -0.00001
     19       6.8782     -0.00000
     20      10.9901      0.00000
     21      12.6178      0.00000
     22      13.2853      0.00000
     23      13.7820      0.00000
     24      15.2003      0.00000

 k-point    51 :       0.4444    0.3889    0.0000
  band No.  band energies     occupation 
      1      -0.6470      1.00000
      2       0.6138      1.00000
      3       1.1601      1.00000
      4       2.4603      1.00000
      5       2.4988      1.00000
      6       2.8407      1.00000
      7       2.9452      1.00000
      8       3.0632      1.00000
      9       3.3448      1.00000
     10       3.5668      1.00000
     11       3.9796      1.00000
     12       4.0191      1.00000
     13       4.1471      1.00000
     14       4.3093      1.00000
     15       4.3265      1.00000
     16       4.4248      1.00000
     17       4.7393      1.00128
     18       5.9830     -0.00000
     19       6.4655     -0.00000
     20      11.4717      0.00000
     21      12.7770      0.00000
     22      12.8386      0.00000
     23      13.9068      0.00000
     24      15.1084      0.00000

 k-point    52 :       0.5000    0.3889    0.0000
  band No.  band energies     occupation 
      1      -0.4635      1.00000
      2       0.4200      1.00000
      3       1.2240      1.00000
      4       2.4451      1.00000
      5       2.5021      1.00000
      6       2.8322      1.00000
      7       2.9753      1.00000
      8       3.0502      1.00000
      9       3.4417      1.00000
     10       3.4705      1.00000
     11       3.9821      1.00000
     12       3.9953      1.00000
     13       4.1437      1.00000
     14       4.3005      1.00000
     15       4.3379      1.00000
     16       4.4030      1.00000
     17       4.7140      1.00072
     18       6.1597     -0.00000
     19       6.1768     -0.00000
     20      11.7903      0.00000
     21      12.4876      0.00000
     22      12.8411      0.00000
     23      14.0211      0.00000
     24      15.0301      0.00000

 k-point    53 :       0.4444    0.4444    0.0000
  band No.  band energies     occupation 
      1      -0.3320      1.00000
      2       0.7994      1.00000
      3       0.8552      1.00000
      4       2.3896      1.00000
      5       2.4963      1.00000
      6       2.8516      1.00000
      7       2.9924      1.00000
      8       3.0473      1.00000
      9       3.3951      1.00000
     10       3.5158      1.00000
     11       4.0008      1.00000
     12       4.0322      1.00000
     13       4.1002      1.00000
     14       4.2322      1.00000
     15       4.3366      1.00000
     16       4.3656      1.00000
     17       4.7227      1.00088
     18       5.9031     -0.00001
     19       6.1485     -0.00000
     20      11.9297      0.00000
     21      12.9531      0.00000
     22      13.0399      0.00000
     23      13.4103      0.00000
     24      15.3522      0.00000

 k-point    54 :       0.5000    0.4444    0.0000
  band No.  band energies     occupation 
      1      -0.1652      1.00000
      2       0.6537      1.00000
      3       0.9131      1.00000
      4       2.3524      1.00000
      5       2.4954      1.00000
      6       2.8548      1.00000
      7       3.0159      1.00000
      8       3.0399      1.00000
      9       3.4520      1.00000
     10       3.4596      1.00000
     11       3.9825      1.00000
     12       4.0504      1.00000
     13       4.0891      1.00000
     14       4.2075      1.00000
     15       4.3339      1.00000
     16       4.3513      1.00000
     17       4.7113      1.00067
     18       5.9619     -0.00000
     19       5.9632     -0.00000
     20      12.2451      0.00000
     21      12.8197      0.00000
     22      13.0234      0.00000
     23      13.3970      0.00000
     24      15.3932      0.00000

 k-point    55 :       0.5000    0.5000    0.0000
  band No.  band energies     occupation 
      1      -0.0062      1.00000
      2       0.7492      1.00000
      3       0.7492      1.00000
      4       2.3038      1.00000
      5       2.4930      1.00000
      6       2.8630      1.00000
      7       3.0359      1.00000
      8       3.0359      1.00000
      9       3.4560      1.00000
     10       3.4560      1.00000
     11       3.9735      1.00000
     12       4.0739      1.00000
     13       4.0739      1.00000
     14       4.1716      1.00000
     15       4.3093      1.00000
     16       4.3557      1.00000
     17       4.7057      1.00059
     18       5.8967     -0.00001
     19       5.8967     -0.00001
     20      12.6287      0.00000
     21      12.9571      0.00000
     22      12.9571      0.00000
     23      13.0959      0.00000
     24      15.7992      0.00000

 k-point    56 :       0.0556    0.0556    0.0556
  band No.  band energies     occupation 
      1      -3.9470      1.00000
      2       1.4911      1.00000
      3       2.0535      1.00000
      4       2.0535      1.00000
      5       2.3347      1.00000
      6       2.3687      1.00000
      7       2.3687      1.00000
      8       3.8825      1.00000
      9       3.9864      1.00000
     10       3.9864      1.00000
     11       4.6750      1.00027
     12       4.6750      1.00027
     13       4.8630      1.01227
     14       4.8630      1.01227
     15       4.9060      1.02102
     16       5.0520      1.01382
     17       6.0705     -0.00000
     18       6.2273     -0.00000
     19       6.2273     -0.00000
     20      11.5174      0.00000
     21      11.5174      0.00000
     22      11.8778      0.00000
     23      15.8966      0.00000
     24      16.3618      0.00000

 k-point    57 :       0.1111    0.0556    0.0556
  band No.  band energies     occupation 
      1      -3.8426      1.00000
      2       1.5157      1.00000
      3       1.9868      1.00000
      4       2.1153      1.00000
      5       2.3367      1.00000
      6       2.3840      1.00000
      7       2.4029      1.00000
      8       3.8004      1.00000
      9       3.9305      1.00000
     10       3.9998      1.00000
     11       4.5980      1.00003
     12       4.6712      1.00025
     13       4.7037      1.00056
     14       4.7404      1.00131
     15       4.8739      1.01424
     16       5.0426      1.02065
     17       5.7427     -0.00097
     18       6.4351     -0.00000
     19       6.4922     -0.00000
     20      11.5308      0.00000
     21      11.7340      0.00000
     22      12.3846      0.00000
     23      15.2908      0.00000
     24      15.6057      0.00000

 k-point    58 :       0.1667    0.0556    0.0556
  band No.  band energies     occupation 
      1      -3.6697      1.00000
      2       1.5104      1.00000
      3       1.8939      1.00000
      4       2.2139      1.00000
      5       2.3499      1.00000
      6       2.4092      1.00000
      7       2.4474      1.00000
      8       3.7051      1.00000
      9       3.8447      1.00000
     10       3.9914      1.00000
     11       4.4049      1.00000
     12       4.5772      1.00002
     13       4.5864      1.00002
     14       4.6867      1.00037
     15       4.8253      1.00683
     16       5.0366      1.02420
     17       5.2988      0.24399
     18       6.8079     -0.00000
     19       6.8516     -0.00000
     20      11.5515      0.00000
     21      11.8242      0.00000
     22      13.2909      0.00000
     23      14.5273      0.00000
     24      14.7553      0.00000

 k-point    59 :       0.2222    0.0556    0.0556
  band No.  band energies     occupation 
      1      -3.4302      1.00000
      2       1.3468      1.00000
      3       1.8707      1.00000
      4       2.3397      1.00000
      5       2.3728      1.00000
      6       2.4468      1.00000
      7       2.4990      1.00000
      8       3.6075      1.00000
      9       3.7401      1.00000
     10       3.9629      1.00000
     11       4.1655      1.00000
     12       4.4428      1.00000
     13       4.4737      1.00000
     14       4.6762      1.00028
     15       4.7648      1.00220
     16       4.9400      1.02878
     17       5.0331      1.02602
     18       7.2439     -0.00000
     19       7.2715     -0.00000
     20      11.5744      0.00000
     21      11.9204      0.00000
     22      13.6872      0.00000
     23      13.9195      0.00000
     24      14.3495      0.00000

 k-point    60 :       0.2778    0.0556    0.0556
  band No.  band energies     occupation 
      1      -3.1272      1.00000
      2       0.9845      1.00000
      3       1.9403      1.00000
      4       2.4029      1.00000
      5       2.4468      1.00000
      6       2.5315      1.00000
      7       2.5526      1.00000
      8       3.5178      1.00000
      9       3.6300      1.00000
     10       3.9070      1.00000
     11       3.9617      1.00000
     12       4.3275      1.00000
     13       4.3483      1.00000
     14       4.6231      1.00007
     15       4.6969      1.00048
     16       4.7291      1.00102
     17       5.0312      1.02693
     18       7.7270     -0.00000
     19       7.7360     -0.00000
     20      11.5831      0.00000
     21      12.0393      0.00000
     22      12.9150      0.00000
     23      13.1437      0.00000
     24      14.9202      0.00000

 k-point    61 :       0.3333    0.0556    0.0556
  band No.  band energies     occupation 
      1      -2.7658      1.00000
      2       0.5008      1.00000
      3       2.0407      1.00000
      4       2.4361      1.00000
      5       2.4964      1.00000
      6       2.6006      1.00000
      7       2.6861      1.00000
      8       3.4440      1.00000
      9       3.5259      1.00000
     10       3.7858      1.00000
     11       3.8788      1.00000
     12       4.2275      1.00000
     13       4.2362      1.00000
     14       4.5247      1.00000
     15       4.5316      1.00000
     16       4.7247      1.00092
     17       5.0302      1.02736
     18       8.2359     -0.00000
     19       8.2508     -0.00000
     20      11.5162      0.00000
     21      12.0992      0.00000
     22      12.2397      0.00000
     23      12.4976      0.00000
     24      14.6382      0.00000

 k-point    62 :       0.3889    0.0556    0.0556
  band No.  band energies     occupation 
      1      -2.3573      1.00000
      2      -0.0348      1.00000
      3       2.1392      1.00000
      4       2.4660      1.00000
      5       2.5319      1.00000
      6       2.6355      1.00000
      7       2.8449      1.00000
      8       3.3947      1.00000
      9       3.4359      1.00000
     10       3.7021      1.00000
     11       3.8235      1.00000
     12       4.1280      1.00000
     13       4.1726      1.00000
     14       4.4150      1.00000
     15       4.4168      1.00000
     16       4.7265      1.00096
     17       5.0298      1.02756
     18       8.7616     -0.00000
     19       8.8115     -0.00000
     20      11.2079      0.00000
     21      11.4089      0.00000
     22      12.1469      0.00000
     23      12.3657      0.00000
     24      14.2332      0.00000

 k-point    63 :       0.4444    0.0556    0.0556
  band No.  band energies     occupation 
      1      -1.9353      1.00000
      2      -0.5479      1.00000
      3       2.2131      1.00000
      4       2.4852      1.00000
      5       2.5559      1.00000
      6       2.6540      1.00000
      7       2.9727      1.00000
      8       3.3669      1.00000
      9       3.3734      1.00000
     10       3.6585      1.00000
     11       3.7848      1.00000
     12       4.0604      1.00000
     13       4.1398      1.00000
     14       4.3264      1.00000
     15       4.3420      1.00000
     16       4.7286      1.00101
     17       5.0296      1.02764
     18       9.2883     -0.00000
     19       9.4059     -0.00000
     20      10.6952      0.00000
     21      10.7135      0.00000
     22      12.0642      0.00000
     23      12.5231      0.00000
     24      13.9112      0.00000

 k-point    64 :       0.5000    0.0556    0.0556
  band No.  band energies     occupation 
      1      -1.6827      1.00000
      2      -0.8333      1.00000
      3       2.2413      1.00000
      4       2.4911      1.00000
      5       2.5646      1.00000
      6       2.6593      1.00000
      7       3.0265      1.00000
      8       3.3369      1.00000
      9       3.3695      1.00000
     10       3.6436      1.00000
     11       3.7719      1.00000
     12       4.0357      1.00000
     13       4.1321      1.00000
     14       4.2883      1.00000
     15       4.3170      1.00000
     16       4.7294      1.00103
     17       5.0296      1.02765
     18       9.6250     -0.00000
     19       9.9589     -0.00000
     20      10.1267     -0.00000
     21      10.3477     -0.00000
     22      12.0545      0.00000
     23      12.5972      0.00000
     24      13.7801      0.00000

 k-point    65 :       0.1111    0.1111    0.0556
  band No.  band energies     occupation 
      1      -3.7388      1.00000
      2       1.5446      1.00000
      3       1.9836      1.00000
      4       2.1115      1.00000
      5       2.3303      1.00000
      6       2.4045      1.00000
      7       2.4386      1.00000
      8       3.7042      1.00000
      9       3.9007      1.00000
     10       4.0104      1.00000
     11       4.4719      1.00000
     12       4.6163      1.00006
     13       4.6369      1.00010
     14       4.6784      1.00030
     15       4.8276      1.00710
     16       5.0241      1.02985
     17       5.8538     -0.00005
     18       6.1952     -0.00000
     19       6.7000     -0.00000
     20      11.6392      0.00000
     21      12.2210      0.00000
     22      12.5527      0.00000
     23      14.5836      0.00000
     24      15.4793      0.00000

 k-point    66 :       0.1667    0.1111    0.0556
  band No.  band energies     occupation 
      1      -3.5668      1.00000
      2       1.5518      1.00000
      3       1.9042      1.00000
      4       2.1864      1.00000
      5       2.3359      1.00000
      6       2.4292      1.00000
      7       2.4901      1.00000
      8       3.6005      1.00000
      9       3.8251      1.00000
     10       4.0154      1.00000
     11       4.2580      1.00000
     12       4.5124      1.00000
     13       4.5665      1.00001
     14       4.6577      1.00017
     15       4.7768      1.00281
     16       5.0059      1.03436
     17       5.5017     -0.03388
     18       6.4210     -0.00000
     19       7.0310     -0.00000
     20      11.6785      0.00000
     21      12.4226      0.00000
     22      13.3583      0.00000
     23      13.7514      0.00000
     24      14.7761      0.00000

 k-point    67 :       0.2222    0.1111    0.0556
  band No.  band energies     occupation 
      1      -3.3286      1.00000
      2       1.4036      1.00000
      3       1.8771      1.00000
      4       2.2996      1.00000
      5       2.3551      1.00000
      6       2.4666      1.00000
      7       2.5481      1.00000
      8       3.5017      1.00000
      9       3.7284      1.00000
     10       3.9830      1.00000
     11       4.0559      1.00000
     12       4.3946      1.00000
     13       4.4657      1.00000
     14       4.6497      1.00014
     15       4.7205      1.00083
     16       4.9908      1.03545
     17       5.1240      0.89845
     18       6.7919     -0.00000
     19       7.4313     -0.00000
     20      11.7030      0.00000
     21      12.5109      0.00000
     22      12.9741      0.00000
     23      13.9363      0.00000
     24      14.4159      0.00000

 k-point    68 :       0.2778    0.1111    0.0556
  band No.  band energies     occupation 
      1      -3.0273      1.00000
      2       1.0496      1.00000
      3       1.9483      1.00000
      4       2.3673      1.00000
      5       2.4226      1.00000
      6       2.5405      1.00000
      7       2.6051      1.00000
      8       3.4187      1.00000
      9       3.6179      1.00000
     10       3.8423      1.00000
     11       3.9825      1.00000
     12       4.2926      1.00000
     13       4.3442      1.00000
     14       4.5990      1.00003
     15       4.6898      1.00040
     16       4.8452      1.00941
     17       4.9820      1.03523
     18       7.2075     -0.00000
     19       7.8836     -0.00000
     20      11.6169      0.00000
     21      12.2412      0.00000
     22      12.7058      0.00000
     23      13.1986      0.00000
     24      15.1637      0.00000

 k-point    69 :       0.3333    0.1111    0.0556
  band No.  band energies     occupation 
      1      -2.6683      1.00000
      2       0.5738      1.00000
      3       2.0514      1.00000
      4       2.3950      1.00000
      5       2.4829      1.00000
      6       2.6484      1.00000
      7       2.6814      1.00000
      8       3.3618      1.00000
      9       3.5005      1.00000
     10       3.7348      1.00000
     11       3.9276      1.00000
     12       4.2046      1.00000
     13       4.2301      1.00000
     14       4.5028      1.00000
     15       4.6508      1.00014
     16       4.6932      1.00043
     17       4.9753      1.03472
     18       7.6551     -0.00000
     19       8.3772     -0.00000
     20      11.1553      0.00000
     21      11.9437      0.00000
     22      12.4801      0.00000
     23      12.9415      0.00000
     24      15.0089      0.00000

 k-point    70 :       0.3889    0.1111    0.0556
  band No.  band energies     occupation 
      1      -2.2630      1.00000
      2       0.0459      1.00000
      3       2.1555      1.00000
      4       2.4120      1.00000
      5       2.5227      1.00000
      6       2.6735      1.00000
      7       2.8392      1.00000
      8       3.3409      1.00000
      9       3.3950      1.00000
     10       3.6712      1.00000
     11       3.8739      1.00000
     12       4.0971      1.00000
     13       4.1792      1.00000
     14       4.4018      1.00000
     15       4.5191      1.00000
     16       4.6949      1.00045
     17       4.9717      1.03434
     18       8.1289     -0.00000
     19       8.9012     -0.00000
     20      10.5341     -0.00000
     21      11.4629      0.00000
     22      12.3115      0.00000
     23      13.0994      0.00000
     24      14.6239      0.00000

 k-point    71 :       0.4444    0.1111    0.0556
  band No.  band energies     occupation 
      1      -1.8456      1.00000
      2      -0.4597      1.00000
      3       2.2419      1.00000
      4       2.4096      1.00000
      5       2.5529      1.00000
      6       2.6776      1.00000
      7       2.9785      1.00000
      8       3.3055      1.00000
      9       3.3558      1.00000
     10       3.6242      1.00000
     11       3.8402      1.00000
     12       4.0177      1.00000
     13       4.1607      1.00000
     14       4.3213      1.00000
     15       4.4320      1.00000
     16       4.6979      1.00049
     17       4.9699      1.03412
     18       8.6133     -0.00000
     19       9.4087     -0.00000
     20       9.9794     -0.00000
     21      10.8480      0.00000
     22      12.3361      0.00000
     23      13.2714      0.00000
     24      14.3045      0.00000

 k-point    72 :       0.5000    0.1111    0.0556
  band No.  band energies     occupation 
      1      -1.5978      1.00000
      2      -0.7394      1.00000
      3       2.2816      1.00000
      4       2.3993      1.00000
      5       2.5658      1.00000
      6       2.6755      1.00000
      7       3.0463      1.00000
      8       3.2607      1.00000
      9       3.3682      1.00000
     10       3.6017      1.00000
     11       3.8304      1.00000
     12       3.9885      1.00000
     13       4.1594      1.00000
     14       4.2871      1.00000
     15       4.4009      1.00000
     16       4.6990      1.00050
     17       4.9694      1.03405
     18       8.9450     -0.00000
     19       9.4563     -0.00000
     20       9.9564     -0.00000
     21      10.4249     -0.00000
     22      12.3568      0.00000
     23      13.3574      0.00000
     24      14.1684      0.00000

 k-point    73 :       0.1667    0.1667    0.0556
  band No.  band energies     occupation 
      1      -3.3964      1.00000
      2       1.5940      1.00000
      3       1.8587      1.00000
      4       2.1939      1.00000
      5       2.3360      1.00000
      6       2.4514      1.00000
      7       2.5505      1.00000
      8       3.4903      1.00000
      9       3.7744      1.00000
     10       3.9763      1.00000
     11       4.1226      1.00000
     12       4.4340      1.00000
     13       4.5294      1.00000
     14       4.6256      1.00007
     15       4.7126      1.00069
     16       4.9724      1.03441
     17       5.5841     -0.01657
     18       6.1379     -0.00000
     19       7.3270     -0.00000
     20      11.7061      0.00000
     21      12.9019      0.00000
     22      13.2366      0.00000
     23      13.5809      0.00000
     24      14.8838      0.00000

 k-point    74 :       0.2222    0.1667    0.0556
  band No.  band energies     occupation 
      1      -3.1604      1.00000
      2       1.4915      1.00000
      3       1.8290      1.00000
      4       2.2633      1.00000
      5       2.3538      1.00000
      6       2.4862      1.00000
      7       2.6180      1.00000
      8       3.3882      1.00000
      9       3.7040      1.00000
     10       3.8215      1.00000
     11       4.0932      1.00000
     12       4.3358      1.00000
     13       4.4512      1.00000
     14       4.6089      1.00004
     15       4.6501      1.00014
     16       4.9409      1.02897
     17       5.3085      0.21071
     18       6.3127     -0.00000
     19       7.6958     -0.00000
     20      11.5880      0.00000
     21      12.2467      0.00000
     22      13.4889      0.00000
     23      14.1131      0.00000
     24      14.5242      0.00000

 k-point    75 :       0.2778    0.1667    0.0556
  band No.  band energies     occupation 
      1      -2.8621      1.00000
      2       1.1529      1.00000
      3       1.9108      1.00000
      4       2.3307      1.00000
      5       2.4020      1.00000
      6       2.5523      1.00000
      7       2.6820      1.00000
      8       3.3070      1.00000
      9       3.5769      1.00000
     10       3.7297      1.00000
     11       4.0520      1.00000
     12       4.2536      1.00000
     13       4.3405      1.00000
     14       4.5524      1.00001
     15       4.6296      1.00008
     16       4.9120      1.02240
     17       5.0150      1.03259
     18       6.6438     -0.00000
     19       8.1193     -0.00000
     20      11.0345      0.00000
     21      12.0866      0.00000
     22      13.2652      0.00000
     23      13.7592      0.00000
     24      15.2429      0.00000

 k-point    76 :       0.3333    0.1667    0.0556
  band No.  band energies     occupation 
      1      -2.5072      1.00000
      2       0.6909      1.00000
      3       2.0192      1.00000
      4       2.3632      1.00000
      5       2.4593      1.00000
      6       2.6705      1.00000
      7       2.7277      1.00000
      8       3.2649      1.00000
      9       3.4372      1.00000
     10       3.6963      1.00000
     11       3.9752      1.00000
     12       4.1988      1.00000
     13       4.2271      1.00000
     14       4.4629      1.00000
     15       4.6339      1.00009
     16       4.7859      1.00335
     17       4.9033      1.02041
     18       7.0235     -0.00000
     19       8.5813     -0.00000
     20      10.3546     -0.00000
     21      12.0604      0.00000
     22      12.6353      0.00000
     23      13.9178      0.00000
     24      15.2418      0.00000

 k-point    77 :       0.3889    0.1667    0.0556
  band No.  band energies     occupation 
      1      -2.1074      1.00000
      2       0.1768      1.00000
      3       2.1246      1.00000
      4       2.3752      1.00000
      5       2.5043      1.00000
      6       2.7300      1.00000
      7       2.8283      1.00000
      8       3.2779      1.00000
      9       3.3247      1.00000
     10       3.6607      1.00000
     11       3.9078      1.00000
     12       4.0853      1.00000
     13       4.2011      1.00000
     14       4.3744      1.00000
     15       4.6239      1.00007
     16       4.6487      1.00014
     17       4.8897      1.01744
     18       7.4370     -0.00000
     19       9.0295     -0.00000
     20       9.7602     -0.00000
     21      11.6609      0.00000
     22      12.4355      0.00000
     23      14.1103      0.00000
     24      14.8965      0.00000

 k-point    78 :       0.4444    0.1667    0.0556
  band No.  band energies     occupation 
      1      -1.6980      1.00000
      2      -0.3158      1.00000
      3       2.2129      1.00000
      4       2.3629      1.00000
      5       2.5428      1.00000
      6       2.7144      1.00000
      7       2.9744      1.00000
      8       3.2307      1.00000
      9       3.3338      1.00000
     10       3.5976      1.00000
     11       3.8863      1.00000
     12       3.9883      1.00000
     13       4.1982      1.00000
     14       4.3081      1.00000
     15       4.5287      1.00000
     16       4.6468      1.00013
     17       4.8833      1.01611
     18       7.8746     -0.00000
     19       8.9664     -0.00000
     20       9.7646     -0.00000
     21      11.0569      0.00000
     22      12.4885      0.00000
     23      14.2847      0.00000
     24      14.6057      0.00000

 k-point    79 :       0.5000    0.1667    0.0556
  band No.  band energies     occupation 
      1      -1.4580      1.00000
      2      -0.5858      1.00000
      3       2.2578      1.00000
      4       2.3437      1.00000
      5       2.5611      1.00000
      6       2.7018      1.00000
      7       3.0673      1.00000
      8       3.1620      1.00000
      9       3.3753      1.00000
     10       3.5532      1.00000
     11       3.8912      1.00000
     12       3.9446      1.00000
     13       4.2021      1.00000
     14       4.2813      1.00000
     15       4.4914      1.00000
     16       4.6482      1.00013
     17       4.8814      1.01572
     18       8.1987     -0.00000
     19       8.6319     -0.00000
     20      10.0972     -0.00000
     21      10.6519     -0.00000
     22      12.5214      0.00000
     23      14.4233      0.00000
     24      14.4281      0.00000

 k-point    80 :       0.2222    0.2222    0.0556
  band No.  band energies     occupation 
      1      -2.9277      1.00000
      2       1.5719      1.00000
      3       1.6724      1.00000
      4       2.2834      1.00000
      5       2.3685      1.00000
      6       2.5170      1.00000
      7       2.6974      1.00000
      8       3.2810      1.00000
      9       3.6350      1.00000
     10       3.6921      1.00000
     11       4.1342      1.00000
     12       4.2522      1.00000
     13       4.4112      1.00000
     14       4.5702      1.00001
     15       4.5752      1.00002
     16       4.8919      1.01790
     17       5.3437      0.10649
     18       6.0697     -0.00000
     19       8.0314     -0.00000
     20      10.9873      0.00000
     21      12.1015      0.00000
     22      14.2135      0.00000
     23      14.3246      0.00000
     24      14.5163      0.00000

 k-point    81 :       0.2778    0.2222    0.0556
  band No.  band energies     occupation 
      1      -2.6339      1.00000
      2       1.2860      1.00000
      3       1.7456      1.00000
      4       2.3365      1.00000
      5       2.4032      1.00000
      6       2.5734      1.00000
      7       2.7732      1.00000
      8       3.1957      1.00000
      9       3.4766      1.00000
     10       3.6874      1.00000
     11       4.1061      1.00000
     12       4.2009      1.00000
     13       4.3289      1.00000
     14       4.4890      1.00000
     15       4.5632      1.00001
     16       4.8471      1.00969
     17       5.1405      0.85423
     18       6.1956     -0.00000
     19       8.4169     -0.00000
     20      10.2525     -0.00000
     21      12.1663      0.00000
     22      13.5320      0.00000
     23      14.5838      0.00000
     24      14.8289      0.00000

 k-point    82 :       0.3333    0.2222    0.0556
  band No.  band energies     occupation 
      1      -2.2850      1.00000
      2       0.8448      1.00000
      3       1.8663      1.00000
      4       2.3795      1.00000
      5       2.4499      1.00000
      6       2.6710      1.00000
      7       2.8171      1.00000
      8       3.1642      1.00000
      9       3.3492      1.00000
     10       3.6901      1.00000
     11       4.0007      1.00000
     12       4.2091      1.00000
     13       4.2215      1.00000
     14       4.4059      1.00000
     15       4.5650      1.00001
     16       4.8068      1.00495
     17       4.9194      1.02412
     18       6.4760     -0.00000
     19       8.7955     -0.00000
     20       9.6096     -0.00000
     21      12.2271      0.00000
     22      12.8465      0.00000
     23      14.8347      0.00000
     24      15.0929      0.00000

 k-point    83 :       0.3889    0.2222    0.0556
  band No.  band energies     occupation 
      1      -1.8933      1.00000
      2       0.3515      1.00000
      3       1.9699      1.00000
      4       2.4065      1.00000
      5       2.4936      1.00000
      6       2.7774      1.00000
      7       2.8292      1.00000
      8       3.2079      1.00000
      9       3.2573      1.00000
     10       3.6629      1.00000
     11       3.9246      1.00000
     12       4.0958      1.00000
     13       4.2271      1.00000
     14       4.3321      1.00000
     15       4.5702      1.00001
     16       4.7242      1.00091
     17       4.8056      1.00484
     18       6.8182     -0.00000
     19       8.7117     -0.00000
     20       9.5338     -0.00000
     21      11.9162      0.00000
     22      12.5940      0.00000
     23      14.8894      0.00000
     24      15.3991      0.00000

 k-point    84 :       0.4444    0.2222    0.0556
  band No.  band energies     occupation 
      1      -1.4954      1.00000
      2      -0.1214      1.00000
      3       2.0407      1.00000
      4       2.4165      1.00000
      5       2.5333      1.00000
      6       2.7559      1.00000
      7       2.9504      1.00000
      8       3.1652      1.00000
      9       3.3138      1.00000
     10       3.5818      1.00000
     11       3.9076      1.00000
     12       3.9945      1.00000
     13       4.2364      1.00000
     14       4.2843      1.00000
     15       4.5744      1.00002
     16       4.6180      1.00006
     17       4.7846      1.00327
     18       7.2034     -0.00000
     19       8.2069     -0.00000
     20       9.9742     -0.00000
     21      11.3315      0.00000
     22      12.6642      0.00000
     23      14.7220      0.00000
     24      15.5142      0.00000

 k-point    85 :       0.5000    0.2222    0.0556
  band No.  band energies     occupation 
      1      -1.2664      1.00000
      2      -0.3776      1.00000
      3       2.0663      1.00000
      4       2.4175      1.00000
      5       2.5526      1.00000
      6       2.7363      1.00000
      7       3.0623      1.00000
      8       3.0797      1.00000
      9       3.3862      1.00000
     10       3.5120      1.00000
     11       3.9213      1.00000
     12       3.9406      1.00000
     13       4.2457      1.00000
     14       4.2650      1.00000
     15       4.5755      1.00002
     16       4.5770      1.00002
     17       4.7795      1.00296
     18       7.5221     -0.00000
     19       7.8354     -0.00000
     20      10.3052     -0.00000
     21      10.9557      0.00000
     22      12.7064      0.00000
     23      14.6338      0.00000
     24      15.5701      0.00000

 k-point    86 :       0.2778    0.2778    0.0556
  band No.  band energies     occupation 
      1      -2.3463      1.00000
      2       1.4352      1.00000
      3       1.4362      1.00000
      4       2.3828      1.00000
      5       2.4245      1.00000
      6       2.6140      1.00000
      7       2.8691      1.00000
      8       3.0977      1.00000
      9       3.3593      1.00000
     10       3.6935      1.00000
     11       4.0800      1.00000
     12       4.1918      1.00000
     13       4.2897      1.00000
     14       4.4141      1.00000
     15       4.5155      1.00000
     16       4.7845      1.00326
     17       5.1336      0.87347
     18       6.0048     -0.00000
     19       8.7162     -0.00000
     20       9.5570     -0.00000
     21      12.2954      0.00000
     22      13.7706      0.00000
     23      13.8831      0.00000
     24      15.6871      0.00000

 k-point    87 :       0.3333    0.2778    0.0556
  band No.  band energies     occupation 
      1      -2.0057      1.00000
      2       1.0232      1.00000
      3       1.5845      1.00000
      4       2.4277      1.00000
      5       2.4601      1.00000
      6       2.6865      1.00000
      7       2.9170      1.00000
      8       3.0693      1.00000
      9       3.2634      1.00000
     10       3.7026      1.00000
     11       3.9937      1.00000
     12       4.2064      1.00000
     13       4.2300      1.00000
     14       4.3369      1.00000
     15       4.4962      1.00000
     16       4.7300      1.00104
     17       4.9819      1.03522
     18       6.0958     -0.00000
     19       8.5812     -0.00000
     20       9.4126     -0.00000
     21      12.4180      0.00000
     22      13.1098      0.00000
     23      14.1704      0.00000
     24      15.6188      0.00000

 k-point    88 :       0.3889    0.2778    0.0556
  band No.  band energies     occupation 
      1      -1.6252      1.00000
      2       0.5597      1.00000
      3       1.7111      1.00000
      4       2.4618      1.00000
      5       2.4937      1.00000
      6       2.7805      1.00000
      7       2.8763      1.00000
      8       3.1431      1.00000
      9       3.2124      1.00000
     10       3.6667      1.00000
     11       3.9380      1.00000
     12       4.1071      1.00000
     13       4.2509      1.00000
     14       4.2781      1.00000
     15       4.4911      1.00000
     16       4.6891      1.00039
     17       4.8184      1.00608
     18       6.3305     -0.00000
     19       8.0305     -0.00000
     20       9.8035     -0.00000
     21      12.2200      0.00000
     22      12.7848      0.00000
     23      14.5159      0.00000
     24      15.3123      0.00000

 k-point    89 :       0.4444    0.2778    0.0556
  band No.  band energies     occupation 
      1      -1.2428      1.00000
      2       0.1144      1.00000
      3       1.7960      1.00000
      4       2.4776      1.00000
      5       2.5259      1.00000
      6       2.7948      1.00000
      7       2.9183      1.00000
      8       3.1170      1.00000
      9       3.3055      1.00000
     10       3.5726      1.00000
     11       3.9255      1.00000
     12       4.0146      1.00000
     13       4.2369      1.00000
     14       4.2788      1.00000
     15       4.4891      1.00000
     16       4.6623      1.00020
     17       4.7062      1.00060
     18       6.6417     -0.00000
     19       7.5066     -0.00000
     20      10.2685     -0.00000
     21      11.6627      0.00000
     22      12.8687      0.00000
     23      14.7986      0.00000
     24      15.0574      0.00000

 k-point    90 :       0.5000    0.2778    0.0556
  band No.  band energies     occupation 
      1      -1.0278      1.00000
      2      -0.1238      1.00000
      3       1.8258      1.00000
      4       2.4809      1.00000
      5       2.5417      1.00000
      6       2.7770      1.00000
      7       2.9797      1.00000
      8       3.0781      1.00000
      9       3.4003      1.00000
     10       3.4842      1.00000
     11       3.9264      1.00000
     12       3.9731      1.00000
     13       4.2329      1.00000
     14       4.2840      1.00000
     15       4.4884      1.00000
     16       4.6444      1.00012
     17       4.6734      1.00026
     18       6.9447     -0.00000
     19       7.1310     -0.00000
     20      10.5734     -0.00000
     21      11.3166      0.00000
     22      12.9204      0.00000
     23      14.8485      0.00000
     24      15.0342      0.00000

 k-point    91 :       0.3333    0.3333    0.0556
  band No.  band energies     occupation 
      1      -1.6763      1.00000
      2       1.1846      1.00000
      3       1.2345      1.00000
      4       2.4609      1.00000
      5       2.4886      1.00000
      6       2.7314      1.00000
      7       2.9657      1.00000
      8       3.0434      1.00000
      9       3.1992      1.00000
     10       3.7030      1.00000
     11       3.9699      1.00000
     12       4.1673      1.00000
     13       4.2557      1.00000
     14       4.2666      1.00000
     15       4.4449      1.00000
     16       4.6569      1.00017
     17       4.9461      1.03007
     18       5.9516     -0.00000
     19       7.9721     -0.00000
     20       9.7426     -0.00000
     21      12.6072      0.00000
     22      13.2791      0.00000
     23      13.6100      0.00000
     24      15.7432      0.00000

 k-point    92 :       0.3889    0.3333    0.0556
  band No.  band energies     occupation 
      1      -1.3108      1.00000
      2       0.7841      1.00000
      3       1.3791      1.00000
      4       2.4846      1.00000
      5       2.5056      1.00000
      6       2.7996      1.00000
      7       2.9123      1.00000
      8       3.1001      1.00000
      9       3.2067      1.00000
     10       3.6544      1.00000
     11       3.9619      1.00000
     12       4.0970      1.00000
     13       4.2097      1.00000
     14       4.2825      1.00000
     15       4.4158      1.00000
     16       4.6003      1.00003
     17       4.8360      1.00814
     18       6.0215     -0.00000
     19       7.4000     -0.00000
     20      10.1697     -0.00000
     21      12.5533      0.00000
     22      12.9763      0.00000
     23      13.8475      0.00000
     24      15.5142      0.00000

 k-point    93 :       0.4444    0.3333    0.0556
  band No.  band energies     occupation 
      1      -0.9483      1.00000
      2       0.3759      1.00000
      3       1.4982      1.00000
      4       2.4918      1.00000
      5       2.5209      1.00000
      6       2.8306      1.00000
      7       2.9142      1.00000
      8       3.0815      1.00000
      9       3.3157      1.00000
     10       3.5611      1.00000
     11       3.9618      1.00000
     12       4.0206      1.00000
     13       4.1866      1.00000
     14       4.3046      1.00000
     15       4.3985      1.00000
     16       4.5705      1.00001
     17       4.7333      1.00112
     18       6.2232     -0.00000
     19       6.9167     -0.00000
     20      10.6190     -0.00000
     21      12.0339      0.00000
     22      13.0769      0.00000
     23      14.1720      0.00000
     24      15.2019      0.00000

 k-point    94 :       0.5000    0.3333    0.0556
  band No.  band energies     occupation 
      1      -0.7499      1.00000
      2       0.1602      1.00000
      3       1.5418      1.00000
      4       2.4902      1.00000
      5       2.5301      1.00000
      6       2.8232      1.00000
      7       2.9437      1.00000
      8       3.0650      1.00000
      9       3.4169      1.00000
     10       3.4681      1.00000
     11       3.9601      1.00000
     12       3.9854      1.00000
     13       4.1857      1.00000
     14       4.3146      1.00000
     15       4.3912      1.00000
     16       4.5640      1.00001
     17       4.6906      1.00041
     18       6.4831     -0.00000
     19       6.5651     -0.00000
     20      10.8981      0.00000
     21      11.7145      0.00000
     22      13.1389      0.00000
     23      14.3388      0.00000
     24      15.0483      0.00000

 k-point    95 :       0.3889    0.3889    0.0556
  band No.  band energies     occupation 
      1      -0.9648      1.00000
      2       0.9685      1.00000
      3       1.0337      1.00000
      4       2.4717      1.00000
      5       2.5100      1.00000
      6       2.8474      1.00000
      7       2.9215      1.00000
      8       3.0734      1.00000
      9       3.2582      1.00000
     10       3.6111      1.00000
     11       3.9954      1.00000
     12       4.0562      1.00000
     13       4.1570      1.00000
     14       4.3064      1.00000
     15       4.3543      1.00000
     16       4.5220      1.00000
     17       4.7970      1.00414
     18       5.9133     -0.00001
     19       6.8717     -0.00000
     20      10.5851     -0.00000
     21      12.8624      0.00000
     22      12.9144      0.00000
     23      13.5301      0.00000
     24      15.5073      0.00000

 k-point    96 :       0.4444    0.3889    0.0556
  band No.  band energies     occupation 
      1      -0.6271      1.00000
      2       0.6352      1.00000
      3       1.1672      1.00000
      4       2.4370      1.00000
      5       2.5166      1.00000
      6       2.8723      1.00000
      7       2.9450      1.00000
      8       3.0556      1.00000
      9       3.3468      1.00000
     10       3.5389      1.00000
     11       4.0009      1.00000
     12       4.0142      1.00000
     13       4.1347      1.00000
     14       4.3099      1.00000
     15       4.3291      1.00000
     16       4.4729      1.00000
     17       4.7375      1.00123
     18       5.9735     -0.00000
     19       6.4585     -0.00000
     20      11.0135      0.00000
     21      12.4143      0.00000
     22      13.1336      0.00000
     23      13.7072      0.00000
     24      15.2249      0.00000

 k-point    97 :       0.5000    0.3889    0.0556
  band No.  band energies     occupation 
      1      -0.4472      1.00000
      2       0.4456      1.00000
      3       1.2300      1.00000
      4       2.4190      1.00000
      5       2.5199      1.00000
      6       2.8728      1.00000
      7       2.9654      1.00000
      8       3.0481      1.00000
      9       3.4339      1.00000
     10       3.4593      1.00000
     11       3.9744      1.00000
     12       4.0132      1.00000
     13       4.1354      1.00000
     14       4.2971      1.00000
     15       4.3363      1.00000
     16       4.4571      1.00000
     17       4.7097      1.00065
     18       6.1489     -0.00000
     19       6.1709     -0.00000
     20      11.2724      0.00000
     21      12.1183      0.00000
     22      13.2309      0.00000
     23      13.8370      0.00000
     24      15.0564      0.00000

 k-point    98 :       0.4444    0.4444    0.0556
  band No.  band energies     occupation 
      1      -0.3178      1.00000
      2       0.8247      1.00000
      3       0.8664      1.00000
      4       2.3551      1.00000
      5       2.5138      1.00000
      6       2.9009      1.00000
      7       2.9886      1.00000
      8       3.0398      1.00000
      9       3.3953      1.00000
     10       3.5018      1.00000
     11       3.9656      1.00000
     12       4.0573      1.00000
     13       4.1015      1.00000
     14       4.2458      1.00000
     15       4.3410      1.00000
     16       4.4055      1.00000
     17       4.7190      1.00081
     18       5.8904     -0.00002
     19       6.1382     -0.00000
     20      11.4230      0.00000
     21      12.6898      0.00000
     22      12.8099      0.00000
     23      13.7288      0.00000
     24      14.9426      0.00000

 k-point    99 :       0.5000    0.4444    0.0556
  band No.  band energies     occupation 
      1      -0.1560      1.00000
      2       0.6788      1.00000
      3       0.9303      1.00000
      4       2.3146      1.00000
      5       2.5129      1.00000
      6       2.9096      1.00000
      7       3.0090      1.00000
      8       3.0349      1.00000
      9       3.4478      1.00000
     10       3.4547      1.00000
     11       3.9460      1.00000
     12       4.0650      1.00000
     13       4.0995      1.00000
     14       4.2201      1.00000
     15       4.3491      1.00000
     16       4.3807      1.00000
     17       4.7068      1.00061
     18       5.9489     -0.00000
     19       5.9513     -0.00000
     20      11.6730      0.00000
     21      12.4633      0.00000
     22      12.8998      0.00000
     23      13.8009      0.00000
     24      14.7732      0.00000

 k-point   100 :       0.5000    0.5000    0.0556
  band No.  band energies     occupation 
      1      -0.0036      1.00000
      2       0.7745      1.00000
      3       0.7745      1.00000
      4       2.2624      1.00000
      5       2.5104      1.00000
      6       2.9229      1.00000
      7       3.0300      1.00000
      8       3.0300      1.00000
      9       3.4532      1.00000
     10       3.4532      1.00000
     11       3.9292      1.00000
     12       4.0874      1.00000
     13       4.0874      1.00000
     14       4.1882      1.00000
     15       4.3532      1.00000
     16       4.3550      1.00000
     17       4.7012      1.00053
     18       5.8829     -0.00002
     19       5.8829     -0.00002
     20      11.9321      0.00000
     21      12.6139      0.00000
     22      12.6139      0.00000
     23      13.8541      0.00000
     24      14.6130      0.00000

 k-point   101 :       0.1111    0.1111    0.1111
  band No.  band energies     occupation 
      1      -3.6354      1.00000
      2       1.5744      1.00000
      3       2.0455      1.00000
      4       2.0455      1.00000
      5       2.3153      1.00000
      6       2.4527      1.00000
      7       2.4527      1.00000
      8       3.6028      1.00000
      9       3.9449      1.00000
     10       3.9449      1.00000
     11       4.4440      1.00000
     12       4.4440      1.00000
     13       4.6314      1.00008
     14       4.6314      1.00008
     15       4.7618      1.00207
     16       5.0239      1.02991
     17       5.9801     -0.00000
     18       6.3857     -0.00000
     19       6.3857     -0.00000
     20      12.2468      0.00000
     21      12.2468      0.00000
     22      12.7072      0.00000
     23      14.4782      0.00000
     24      14.8980      0.00000

 k-point   102 :       0.1667    0.1111    0.1111
  band No.  band energies     occupation 
      1      -3.4644      1.00000
      2       1.5881      1.00000
      3       1.9411      1.00000
      4       2.1441      1.00000
      5       2.3126      1.00000
      6       2.4763      1.00000
      7       2.5098      1.00000
      8       3.4992      1.00000
      9       3.8481      1.00000
     10       3.9585      1.00000
     11       4.2356      1.00000
     12       4.3882      1.00000
     13       4.5613      1.00001
     14       4.6284      1.00008
     15       4.7020      1.00054
     16       5.0105      1.03359
     17       5.6760     -0.00389
     18       6.5308     -0.00000
     19       6.6594     -0.00000
     20      12.2735      0.00000
     21      12.5673      0.00000
     22      13.4230      0.00000
     23      13.7511      0.00000
     24      14.0340      0.00000

 k-point   103 :       0.2222    0.1111    0.1111
  band No.  band energies     occupation 
      1      -3.2276      1.00000
      2       1.4551      1.00000
      3       1.8963      1.00000
      4       2.2704      1.00000
      5       2.3222      1.00000
      6       2.5114      1.00000
      7       2.5704      1.00000
      8       3.4089      1.00000
      9       3.7336      1.00000
     10       3.8992      1.00000
     11       4.0785      1.00000
     12       4.3155      1.00000
     13       4.4659      1.00000
     14       4.6249      1.00007
     15       4.6519      1.00015
     16       4.9895      1.03546
     17       5.2738      0.33850
     18       6.8921     -0.00000
     19       6.9887     -0.00000
     20      12.2330      0.00000
     21      12.7119      0.00000
     22      12.9306      0.00000
     23      13.3087      0.00000
     24      14.4525      0.00000

 k-point   104 :       0.2778    0.1111    0.1111
  band No.  band energies     occupation 
      1      -2.9282      1.00000
      2       1.1111      1.00000
      3       1.9586      1.00000
      4       2.3413      1.00000
      5       2.4035      1.00000
      6       2.5683      1.00000
      7       2.6261      1.00000
      8       3.3419      1.00000
      9       3.6134      1.00000
     10       3.7572      1.00000
     11       4.0245      1.00000
     12       4.2441      1.00000
     13       4.3497      1.00000
     14       4.5733      1.00002
     15       4.6440      1.00012
     16       4.9572      1.03219
     17       4.9681      1.03388
     18       7.3132     -0.00000
     19       7.3567     -0.00000
     20      11.9074      0.00000
     21      12.1320      0.00000
     22      12.8858      0.00000
     23      12.9528      0.00000
     24      15.2671      0.00000

 k-point   105 :       0.3333    0.1111    0.1111
  band No.  band energies     occupation 
      1      -2.5717      1.00000
      2       0.6440      1.00000
      3       2.0547      1.00000
      4       2.3632      1.00000
      5       2.4983      1.00000
      6       2.6660      1.00000
      7       2.6781      1.00000
      8       3.3058      1.00000
      9       3.4953      1.00000
     10       3.6428      1.00000
     11       3.9908      1.00000
     12       4.1876      1.00000
     13       4.2246      1.00000
     14       4.4928      1.00000
     15       4.6505      1.00014
     16       4.7301      1.00104
     17       4.9509      1.03102
     18       7.7518     -0.00000
     19       7.7765     -0.00000
     20      11.3164      0.00000
     21      11.3839      0.00000
     22      12.9498      0.00000
     23      13.0777      0.00000
     24      15.5266      0.00000

 k-point   106 :       0.3889    0.1111    0.1111
  band No.  band energies     occupation 
      1      -2.1697      1.00000
      2       0.1245      1.00000
      3       2.1534      1.00000
      4       2.3750      1.00000
      5       2.5472      1.00000
      6       2.6855      1.00000
      7       2.8300      1.00000
      8       3.3055      1.00000
      9       3.3822      1.00000
     10       3.5788      1.00000
     11       3.9539      1.00000
     12       4.1108      1.00000
     13       4.1558      1.00000
     14       4.4011      1.00000
     15       4.5756      1.00002
     16       4.6568      1.00017
     17       4.9393      1.02863
     18       8.1598     -0.00000
     19       8.2773     -0.00000
     20      10.6796     -0.00000
     21      10.7095      0.00000
     22      13.0476      0.00000
     23      13.2923      0.00000
     24      15.2581      0.00000

 k-point   107 :       0.4444    0.1111    0.1111
  band No.  band energies     occupation 
      1      -1.7573      1.00000
      2      -0.3731      1.00000
      3       2.2421      1.00000
      4       2.3610      1.00000
      5       2.5738      1.00000
      6       2.6926      1.00000
      7       2.9793      1.00000
      8       3.2738      1.00000
      9       3.3292      1.00000
     10       3.5486      1.00000
     11       3.9176      1.00000
     12       4.0321      1.00000
     13       4.1539      1.00000
     14       4.3149      1.00000
     15       4.4839      1.00000
     16       4.6612      1.00019
     17       4.9329      1.02721
     18       8.5395     -0.00000
     19       8.8136     -0.00000
     20      10.0214     -0.00000
     21      10.1996     -0.00000
     22      13.1442      0.00000
     23      13.4949      0.00000
     24      14.9394      0.00000

 k-point   108 :       0.5000    0.1111    0.1111
  band No.  band energies     occupation 
      1      -1.5144      1.00000
      2      -0.6467      1.00000
      3       2.3060      1.00000
      4       2.3226      1.00000
      5       2.5827      1.00000
      6       2.6948      1.00000
      7       3.0708      1.00000
      8       3.1989      1.00000
      9       3.3443      1.00000
     10       3.5389      1.00000
     11       3.9008      1.00000
     12       4.0047      1.00000
     13       4.1652      1.00000
     14       4.2712      1.00000
     15       4.4533      1.00000
     16       4.6627      1.00020
     17       4.9309      1.02676
     18       8.7323     -0.00000
     19       9.3133     -0.00000
     20       9.4811     -0.00000
     21       9.9624     -0.00000
     22      13.1842      0.00000
     23      13.5908      0.00000
     24      14.7987      0.00000

 k-point   109 :       0.1667    0.1667    0.1111
  band No.  band energies     occupation 
      1      -3.2950      1.00000
      2       1.6231      1.00000
      3       1.9227      1.00000
      4       2.1391      1.00000
      5       2.3052      1.00000
      6       2.5098      1.00000
      7       2.5610      1.00000
      8       3.3974      1.00000
      9       3.8037      1.00000
     10       3.8831      1.00000
     11       4.1649      1.00000
     12       4.3062      1.00000
     13       4.5333      1.00000
     14       4.5952      1.00003
     15       4.6224      1.00007
     16       4.9993      1.03510
     17       5.7526     -0.00077
     18       6.2603     -0.00000
     19       6.8581     -0.00000
     20      12.3840      0.00000
     21      13.0587      0.00000
     22      13.2496      0.00000
     23      13.6068      0.00000
     24      14.1057      0.00000

 k-point   110 :       0.2222    0.1667    0.1111
  band No.  band energies     occupation 
      1      -3.0605      1.00000
      2       1.5316      1.00000
      3       1.8710      1.00000
      4       2.2330      1.00000
      5       2.3158      1.00000
      6       2.5417      1.00000
      7       2.6265      1.00000
      8       3.3120      1.00000
      9       3.7042      1.00000
     10       3.7678      1.00000
     11       4.1096      1.00000
     12       4.2532      1.00000
     13       4.4568      1.00000
     14       4.5559      1.00001
     15       4.5874      1.00002
     16       4.9748      1.03466
     17       5.4455     -0.02981
     18       6.4207     -0.00000
     19       7.1709     -0.00000
     20      11.9647      0.00000
     21      12.6853      0.00000
     22      13.2001      0.00000
     23      13.6904      0.00000
     24      14.2105      0.00000

 k-point   111 :       0.2778    0.1667    0.1111
  band No.  band energies     occupation 
      1      -2.7643      1.00000
      2       1.2075      1.00000
      3       1.9259      1.00000
      4       2.3269      1.00000
      5       2.3728      1.00000
      6       2.5880      1.00000
      7       2.6862      1.00000
      8       3.2546      1.00000
      9       3.5704      1.00000
     10       3.6631      1.00000
     11       4.0740      1.00000
     12       4.2080      1.00000
     13       4.3521      1.00000
     14       4.4962      1.00000
     15       4.5896      1.00002
     16       4.9429      1.02939
     17       5.1086      0.93362
     18       6.7414     -0.00000
     19       7.5319     -0.00000
     20      11.2343      0.00000
     21      12.2483      0.00000
     22      12.9933      0.00000
     23      13.8266      0.00000
     24      14.5602      0.00000

 k-point   112 :       0.3333    0.1667    0.1111
  band No.  band energies     occupation 
      1      -2.4121      1.00000
      2       0.7562      1.00000
      3       2.0101      1.00000
      4       2.3607      1.00000
      5       2.4792      1.00000
      6       2.6689      1.00000
      7       2.7271      1.00000
      8       3.2370      1.00000
      9       3.4408      1.00000
     10       3.5871      1.00000
     11       4.0372      1.00000
     12       4.1770      1.00000
     13       4.2358      1.00000
     14       4.4311      1.00000
     15       4.5944      1.00003
     16       4.8421      1.00897
     17       4.9213      1.02455
     18       7.1079     -0.00000
     19       7.9267     -0.00000
     20      10.5288     -0.00000
     21      11.5629      0.00000
     22      13.1092      0.00000
     23      14.0220      0.00000
     24      14.9117      0.00000

 k-point   113 :       0.3889    0.1667    0.1111
  band No.  band energies     occupation 
      1      -2.0161      1.00000
      2       0.2517      1.00000
      3       2.0892      1.00000
      4       2.3835      1.00000
      5       2.5436      1.00000
      6       2.7265      1.00000
      7       2.8142      1.00000
      8       3.2639      1.00000
      9       3.3276      1.00000
     10       3.5319      1.00000
     11       4.0046      1.00000
     12       4.1158      1.00000
     13       4.1714      1.00000
     14       4.3582      1.00000
     15       4.5993      1.00003
     16       4.6650      1.00021
     17       4.8954      1.01867
     18       7.5012     -0.00000
     19       8.3312     -0.00000
     20       9.9093     -0.00000
     21      10.9030      0.00000
     22      13.2752      0.00000
     23      14.2357      0.00000
     24      15.2506      0.00000

 k-point   114 :       0.4444    0.1667    0.1111
  band No.  band energies     occupation 
      1      -1.6121      1.00000
      2      -0.2318      1.00000
      3       2.1485      1.00000
      4       2.3883      1.00000
      5       2.5794      1.00000
      6       2.7277      1.00000
      7       2.9601      1.00000
      8       3.2174      1.00000
      9       3.3151      1.00000
     10       3.4920      1.00000
     11       3.9829      1.00000
     12       4.0314      1.00000
     13       4.1785      1.00000
     14       4.2872      1.00000
     15       4.5558      1.00001
     16       4.6029      1.00004
     17       4.8815      1.01575
     18       7.8974     -0.00000
     19       8.6413     -0.00000
     20       9.4839     -0.00000
     21      10.3268     -0.00000
     22      13.4218      0.00000
     23      14.4328      0.00000
     24      15.3193      0.00000

 k-point   115 :       0.5000    0.1667    0.1111
  band No.  band energies     occupation 
      1      -1.3775      1.00000
      2      -0.4952      1.00000
      3       2.1721      1.00000
      4       2.3853      1.00000
      5       2.5923      1.00000
      6       2.7265      1.00000
      7       3.0970      1.00000
      8       3.0974      1.00000
      9       3.3442      1.00000
     10       3.4730      1.00000
     11       3.9750      1.00000
     12       3.9983      1.00000
     13       4.1993      1.00000
     14       4.2437      1.00000
     15       4.5184      1.00000
     16       4.6042      1.00004
     17       4.8771      1.01486
     18       8.1414     -0.00000
     19       8.6454     -0.00000
     20       9.4514     -0.00000
     21      10.0121     -0.00000
     22      13.4832      0.00000
     23      14.5291      0.00000
     24      15.2092      0.00000

 k-point   116 :       0.2222    0.2222    0.1111
  band No.  band energies     occupation 
      1      -2.8295      1.00000
      2       1.5842      1.00000
      3       1.7399      1.00000
      4       2.2668      1.00000
      5       2.3306      1.00000
      6       2.5669      1.00000
      7       2.7014      1.00000
      8       3.2275      1.00000
      9       3.6062      1.00000
     10       3.6680      1.00000
     11       4.1378      1.00000
     12       4.1980      1.00000
     13       4.4183      1.00000
     14       4.4701      1.00000
     15       4.5521      1.00001
     16       4.9457      1.02999
     17       5.4786     -0.03545
     18       6.1375     -0.00000
     19       7.4527     -0.00000
     20      11.1899      0.00000
     21      12.7582      0.00000
     22      13.4598      0.00000
     23      13.4703      0.00000
     24      14.5636      0.00000

 k-point   117 :       0.2778    0.2222    0.1111
  band No.  band energies     occupation 
      1      -2.5380      1.00000
      2       1.3287      1.00000
      3       1.7706      1.00000
      4       2.3519      1.00000
      5       2.3706      1.00000
      6       2.6013      1.00000
      7       2.7717      1.00000
      8       3.1688      1.00000
      9       3.4661      1.00000
     10       3.6206      1.00000
     11       4.1150      1.00000
     12       4.1806      1.00000
     13       4.3397      1.00000
     14       4.4008      1.00000
     15       4.5387      1.00000
     16       4.9062      1.02108
     17       5.2377      0.48799
     18       6.2555     -0.00000
     19       7.7745     -0.00000
     20      10.4345     -0.00000
     21      12.5041      0.00000
     22      13.1038      0.00000
     23      13.7604      0.00000
     24      14.9060      0.00000

 k-point   118 :       0.3333    0.2222    0.1111
  band No.  band energies     occupation 
      1      -2.1922      1.00000
      2       0.9022      1.00000
      3       1.8599      1.00000
      4       2.4014      1.00000
      5       2.4627      1.00000
      6       2.6613      1.00000
      7       2.8124      1.00000
      8       3.1600      1.00000
      9       3.3517      1.00000
     10       3.5755      1.00000
     11       4.0592      1.00000
     12       4.1913      1.00000
     13       4.2411      1.00000
     14       4.3422      1.00000
     15       4.5350      1.00000
     16       4.8576      1.01135
     17       4.9777      1.03493
     18       6.5312     -0.00000
     19       8.1016     -0.00000
     20       9.7771     -0.00000
     21      11.8261      0.00000
     22      13.2421      0.00000
     23      14.1000      0.00000
     24      15.1343      0.00000

 k-point   119 :       0.3889    0.2222    0.1111
  band No.  band energies     occupation 
      1      -1.8048      1.00000
      2       0.4208      1.00000
      3       1.9338      1.00000
      4       2.4382      1.00000
      5       2.5324      1.00000
      6       2.7489      1.00000
      7       2.8294      1.00000
      8       3.2020      1.00000
      9       3.2700      1.00000
     10       3.5247      1.00000
     11       4.0204      1.00000
     12       4.1369      1.00000
     13       4.1993      1.00000
     14       4.2930      1.00000
     15       4.5326      1.00000
     16       4.7466      1.00150
     17       4.8527      1.01056
     18       6.8626     -0.00000
     19       8.3083     -0.00000
     20       9.3496     -0.00000
     21      11.1654      0.00000
     22      13.4339      0.00000
     23      14.4667      0.00000
     24      15.3473      0.00000

 k-point   120 :       0.4444    0.2222    0.1111
  band No.  band energies     occupation 
      1      -1.4131      1.00000
      2      -0.0413      1.00000
      3       1.9815      1.00000
      4       2.4546      1.00000
      5       2.5767      1.00000
      6       2.7730      1.00000
      7       2.9149      1.00000
      8       3.1651      1.00000
      9       3.3045      1.00000
     10       3.4680      1.00000
     11       3.9973      1.00000
     12       4.0593      1.00000
     13       4.2019      1.00000
     14       4.2590      1.00000
     15       4.5303      1.00000
     16       4.6277      1.00008
     17       4.8234      1.00661
     18       7.2255     -0.00000
     19       8.1321     -0.00000
     20       9.4058     -0.00000
     21      10.5874     -0.00000
     22      13.6000      0.00000
     23      14.8182      0.00000
     24      15.4738      0.00000

 k-point   121 :       0.5000    0.2222    0.1111
  band No.  band energies     occupation 
      1      -1.1902      1.00000
      2      -0.2901      1.00000
      3       1.9982      1.00000
      4       2.4573      1.00000
      5       2.5942      1.00000
      6       2.7694      1.00000
      7       2.9890      1.00000
      8       3.1102      1.00000
      9       3.3555      1.00000
     10       3.4271      1.00000
     11       3.9875      1.00000
     12       4.0288      1.00000
     13       4.2095      1.00000
     14       4.2431      1.00000
     15       4.5294      1.00000
     16       4.5843      1.00002
     17       4.8150      1.00573
     18       7.4948     -0.00000
     19       7.8687     -0.00000
     20       9.6077     -0.00000
     21      10.2669     -0.00000
     22      13.6695      0.00000
     23      15.0156      0.00000
     24      15.4027      0.00000

 k-point   122 :       0.2778    0.2778    0.1111
  band No.  band energies     occupation 
      1      -2.2531      1.00000
      2       1.4298      1.00000
      3       1.5062      1.00000
      4       2.3949      1.00000
      5       2.4211      1.00000
      6       2.6212      1.00000
      7       2.8609      1.00000
      8       3.0966      1.00000
      9       3.3577      1.00000
     10       3.5996      1.00000
     11       4.1083      1.00000
     12       4.1851      1.00000
     13       4.2851      1.00000
     14       4.3300      1.00000
     15       4.5016      1.00000
     16       4.8593      1.01162
     17       5.2288      0.52559
     18       6.0297     -0.00000
     19       8.0246     -0.00000
     20       9.7307     -0.00000
     21      12.7339      0.00000
     22      12.9289      0.00000
     23      13.3991      0.00000
     24      15.8866      0.00000

 k-point   123 :       0.3333    0.2778    0.1111
  band No.  band energies     occupation 
      1      -1.9162      1.00000
      2       1.0693      1.00000
      3       1.5956      1.00000
      4       2.4387      1.00000
      5       2.4920      1.00000
      6       2.6633      1.00000
      7       2.9103      1.00000
      8       3.0804      1.00000
      9       3.2754      1.00000
     10       3.5742      1.00000
     11       4.0662      1.00000
     12       4.2033      1.00000
     13       4.2160      1.00000
     14       4.2745      1.00000
     15       4.4825      1.00000
     16       4.8058      1.00486
     17       5.0454      1.01874
     18       6.1150     -0.00000
     19       8.1484     -0.00000
     20       9.2712     -0.00000
     21      12.1402      0.00000
     22      13.1511      0.00000
     23      13.5928      0.00000
     24      16.1584      0.00000

 k-point   124 :       0.3889    0.2778    0.1111
  band No.  band energies     occupation 
      1      -1.5408      1.00000
      2       0.6211      1.00000
      3       1.6964      1.00000
      4       2.4844      1.00000
      5       2.5367      1.00000
      6       2.7379      1.00000
      7       2.8964      1.00000
      8       3.1260      1.00000
      9       3.2436      1.00000
     10       3.5303      1.00000
     11       4.0294      1.00000
     12       4.1323      1.00000
     13       4.2035      1.00000
     14       4.2593      1.00000
     15       4.4686      1.00000
     16       4.7492      1.00158
     17       4.8582      1.01145
     18       6.3481     -0.00000
     19       7.9064     -0.00000
     20       9.2976     -0.00000
     21      11.4812      0.00000
     22      13.4589      0.00000
     23      13.8699      0.00000
     24      15.9267      0.00000

 k-point   125 :       0.4444    0.2778    0.1111
  band No.  band energies     occupation 
      1      -1.1659      1.00000
      2       0.1892      1.00000
      3       1.7609      1.00000
      4       2.5040      1.00000
      5       2.5727      1.00000
      6       2.8041      1.00000
      7       2.8930      1.00000
      8       3.1173      1.00000
      9       3.3052      1.00000
     10       3.4690      1.00000
     11       4.0014      1.00000
     12       4.0647      1.00000
     13       4.1886      1.00000
     14       4.2748      1.00000
     15       4.4547      1.00000
     16       4.6794      1.00031
     17       4.7641      1.00217
     18       6.6503     -0.00000
     19       7.4807     -0.00000
     20       9.6114     -0.00000
     21      10.9084      0.00000
     22      13.6915      0.00000
     23      14.1822      0.00000
     24      15.5262      0.00000

 k-point   126 :       0.5000    0.2778    0.1111
  band No.  band energies     occupation 
      1      -0.9578      1.00000
      2      -0.0400      1.00000
      3       1.7828      1.00000
      4       2.5064      1.00000
      5       2.5898      1.00000
      6       2.8176      1.00000
      7       2.9132      1.00000
      8       3.0989      1.00000
      9       3.3731      1.00000
     10       3.4124      1.00000
     11       3.9908      1.00000
     12       4.0327      1.00000
     13       4.1891      1.00000
     14       4.2823      1.00000
     15       4.4481      1.00000
     16       4.6412      1.00011
     17       4.7445      1.00143
     18       6.9210     -0.00000
     19       7.1568     -0.00000
     20       9.8463     -0.00000
     21      10.5989     -0.00000
     22      13.7803      0.00000
     23      14.3628      0.00000
     24      15.3118      0.00000

 k-point   127 :       0.3333    0.3333    0.1111
  band No.  band energies     occupation 
      1      -1.5913      1.00000
      2       1.2232      1.00000
      3       1.2576      1.00000
      4       2.4572      1.00000
      5       2.5357      1.00000
      6       2.7002      1.00000
      7       3.0047      1.00000
      8       3.0129      1.00000
      9       3.2300      1.00000
     10       3.5640      1.00000
     11       4.0673      1.00000
     12       4.1260      1.00000
     13       4.2078      1.00000
     14       4.2668      1.00000
     15       4.4461      1.00000
     16       4.7443      1.00143
     17       5.0022      1.03483
     18       5.9448     -0.00000
     19       7.8328     -0.00000
     20       9.2573     -0.00000
     21      12.4902      0.00000
     22      12.5004      0.00000
     23      13.7381      0.00000
     24      16.0727      0.00000

 k-point   128 :       0.3889    0.3333    0.1111
  band No.  band energies     occupation 
      1      -1.2322      1.00000
      2       0.8355      1.00000
      3       1.3895      1.00000
      4       2.4732      1.00000
      5       2.5529      1.00000
      6       2.7728      1.00000
      7       2.9620      1.00000
      8       3.0661      1.00000
      9       3.2440      1.00000
     10       3.5318      1.00000
     11       4.0417      1.00000
     12       4.0730      1.00000
     13       4.1818      1.00000
     14       4.2823      1.00000
     15       4.4188      1.00000
     16       4.6862      1.00036
     17       4.8667      1.01292
     18       6.0104     -0.00000
     19       7.3493     -0.00000
     20       9.5445     -0.00000
     21      11.8396      0.00000
     22      12.8704      0.00000
     23      13.9675      0.00000
     24      15.5535      0.00000

 k-point   129 :       0.4444    0.3333    0.1111
  band No.  band energies     occupation 
      1      -0.8791      1.00000
      2       0.4442      1.00000
      3       1.4919      1.00000
      4       2.4752      1.00000
      5       2.5710      1.00000
      6       2.8378      1.00000
      7       2.9346      1.00000
      8       3.0737      1.00000
      9       3.3212      1.00000
     10       3.4784      1.00000
     11       3.9977      1.00000
     12       4.0373      1.00000
     13       4.1807      1.00000
     14       4.3005      1.00000
     15       4.3894      1.00000
     16       4.6540      1.00016
     17       4.7422      1.00136
     18       6.2118     -0.00000
     19       6.8967     -0.00000
     20       9.9137     -0.00000
     21      11.2745      0.00000
     22      13.2070      0.00000
     23      14.1926      0.00000
     24      15.0651      0.00000

 k-point   130 :       0.5000    0.3333    0.1111
  band No.  band energies     occupation 
      1      -0.6892      1.00000
      2       0.2395      1.00000
      3       1.5286      1.00000
      4       2.4728      1.00000
      5       2.5815      1.00000
      6       2.8634      1.00000
      7       2.9262      1.00000
      8       3.0712      1.00000
      9       3.3950      1.00000
     10       3.4199      1.00000
     11       3.9815      1.00000
     12       4.0155      1.00000
     13       4.1861      1.00000
     14       4.3124      1.00000
     15       4.3724      1.00000
     16       4.6588      1.00018
     17       4.6806      1.00032
     18       6.4546     -0.00000
     19       6.5701     -0.00000
     20      10.1475     -0.00000
     21      10.9776      0.00000
     22      13.3616      0.00000
     23      14.3249      0.00000
     24      14.8154      0.00000

 k-point   131 :       0.3889    0.3889    0.1111
  band No.  band energies     occupation 
      1      -0.8946      1.00000
      2       1.0336      1.00000
      3       1.0424      1.00000
      4       2.4283      1.00000
      5       2.5603      1.00000
      6       2.8468      1.00000
      7       2.9933      1.00000
      8       3.0374      1.00000
      9       3.2824      1.00000
     10       3.5174      1.00000
     11       3.9845      1.00000
     12       4.0833      1.00000
     13       4.1505      1.00000
     14       4.3069      1.00000
     15       4.3809      1.00000
     16       4.6148      1.00005
     17       4.8126      1.00549
     18       5.8856     -0.00002
     19       6.8413     -0.00000
     20       9.8933     -0.00000
     21      12.1679      0.00000
     22      12.2792      0.00000
     23      14.1894      0.00000
     24      15.0024      0.00000

 k-point   132 :       0.4444    0.3889    0.1111
  band No.  band energies     occupation 
      1      -0.5694      1.00000
      2       0.6968      1.00000
      3       1.1902      1.00000
      4       2.3795      1.00000
      5       2.5684      1.00000
      6       2.9083      1.00000
      7       2.9892      1.00000
      8       3.0396      1.00000
      9       3.3525      1.00000
     10       3.4823      1.00000
     11       3.9327      1.00000
     12       4.0732      1.00000
     13       4.1555      1.00000
     14       4.3201      1.00000
     15       4.3423      1.00000
     16       4.5691      1.00001
     17       4.7340      1.00114
     18       5.9432     -0.00000
     19       6.4327     -0.00000
     20      10.2723     -0.00000
     21      11.6620      0.00000
     22      12.5796      0.00000
     23      14.3250      0.00000
     24      14.5911      0.00000

 k-point   133 :       0.5000    0.3889    0.1111
  band No.  band energies     occupation 
      1      -0.4004      1.00000
      2       0.5211      1.00000
      3       1.2484      1.00000
      4       2.3582      1.00000
      5       2.5722      1.00000
      6       2.9287      1.00000
      7       2.9882      1.00000
      8       3.0423      1.00000
      9       3.4186      1.00000
     10       3.4333      1.00000
     11       3.9134      1.00000
     12       4.0584      1.00000
     13       4.1682      1.00000
     14       4.3135      1.00000
     15       4.3325      1.00000
     16       4.5589      1.00001
     17       4.6966      1.00047
     18       6.1135     -0.00000
     19       6.1512     -0.00000
     20      10.5006     -0.00000
     21      11.3757      0.00000
     22      12.7457      0.00000
     23      14.2334      0.00000
     24      14.5563      0.00000

 k-point   134 :       0.4444    0.4444    0.1111
  band No.  band energies     occupation 
      1      -0.2773      1.00000
      2       0.8988      1.00000
      3       0.9006      1.00000
      4       2.2770      1.00000
      5       2.5660      1.00000
      6       2.9713      1.00000
      7       3.0207      1.00000
      8       3.0311      1.00000
      9       3.3962      1.00000
     10       3.4714      1.00000
     11       3.8786      1.00000
     12       4.1121      1.00000
     13       4.1249      1.00000
     14       4.2919      1.00000
     15       4.3377      1.00000
     16       4.5002      1.00000
     17       4.7081      1.00062
     18       5.8511     -0.00006
     19       6.1045     -0.00000
     20      10.6509     -0.00000
     21      11.9708      0.00000
     22      12.0772      0.00000
     23      13.9549      0.00000
     24      14.6878      0.00000

 k-point   135 :       0.5000    0.4444    0.1111
  band No.  band energies     occupation 
      1      -0.1304      1.00000
      2       0.7526      1.00000
      3       0.9820      1.00000
      4       2.2303      1.00000
      5       2.5651      1.00000
      6       2.9900      1.00000
      7       3.0220      1.00000
      8       3.0460      1.00000
      9       3.4385      1.00000
     10       3.4433      1.00000
     11       3.8581      1.00000
     12       4.1035      1.00000
     13       4.1378      1.00000
     14       4.2646      1.00000
     15       4.3429      1.00000
     16       4.4785      1.00000
     17       4.6929      1.00043
     18       5.9079     -0.00001
     19       5.9140     -0.00001
     20      10.8780      0.00000
     21      11.7356      0.00000
     22      12.1966      0.00000
     23      13.7483      0.00000
     24      14.7700      0.00000

 k-point   136 :       0.5000    0.5000    0.1111
  band No.  band energies     occupation 
      1       0.0036      1.00000
      2       0.8487      1.00000
      3       0.8487      1.00000
      4       2.1705      1.00000
      5       2.5625      1.00000
      6       3.0149      1.00000
      7       3.0149      1.00000
      8       3.0698      1.00000
      9       3.4468      1.00000
     10       3.4468      1.00000
     11       3.8365      1.00000
     12       4.1239      1.00000
     13       4.1239      1.00000
     14       4.2377      1.00000
     15       4.3457      1.00000
     16       4.4518      1.00000
     17       4.6873      1.00038
     18       5.8398     -0.00008
     19       5.8398     -0.00008
     20      11.1119      0.00000
     21      11.9044      0.00000
     22      11.9044      0.00000
     23      13.5364      0.00000
     24      14.8598      0.00000

 k-point   137 :       0.1667    0.1667    0.1667
  band No.  band energies     occupation 
      1      -3.1273      1.00000
      2       1.6506      1.00000
      3       2.0249      1.00000
      4       2.0249      1.00000
      5       2.2957      1.00000
      6       2.5787      1.00000
      7       2.5787      1.00000
      8       3.3044      1.00000
      9       3.7771      1.00000
     10       3.7771      1.00000
     11       4.1886      1.00000
     12       4.1886      1.00000
     13       4.5298      1.00000
     14       4.5386      1.00000
     15       4.5386      1.00000
     16       5.0050      1.03449
     17       5.8761     -0.00003
     18       6.4463     -0.00000
     19       6.4463     -0.00000
     20      12.9820      0.00000
     21      12.9872      0.00000
     22      12.9872      0.00000
     23      13.6489      0.00000
     24      13.6489      0.00000

 k-point   138 :       0.2222    0.1667    0.1667
  band No.  band energies     occupation 
      1      -2.8954      1.00000
      2       1.5829      1.00000
      3       1.9123      1.00000
      4       2.1578      1.00000
      5       2.3111      1.00000
      6       2.6040      1.00000
      7       2.6489      1.00000
      8       3.2321      1.00000
      9       3.6635      1.00000
     10       3.6793      1.00000
     11       4.1285      1.00000
     12       4.1916      1.00000
     13       4.4525      1.00000
     14       4.4591      1.00000
     15       4.5439      1.00001
     16       4.9895      1.03546
     17       5.6138     -0.01107
     18       6.5250     -0.00000
     19       6.6787     -0.00000
     20      12.2175      0.00000
     21      12.2418      0.00000
     22      13.3302      0.00000
     23      13.6751      0.00000
     24      13.8711      0.00000

 k-point   139 :       0.2778    0.1667    0.1667
  band No.  band energies     occupation 
      1      -2.6027      1.00000
      2       1.2900      1.00000
      3       1.9166      1.00000
      4       2.3090      1.00000
      5       2.3466      1.00000
      6       2.6392      1.00000
      7       2.7068      1.00000
      8       3.1935      1.00000
      9       3.5471      1.00000
     10       3.5643      1.00000
     11       4.1048      1.00000
     12       4.1768      1.00000
     13       4.3621      1.00000
     14       4.3954      1.00000
     15       4.5476      1.00001
     16       4.9599      1.03265
     17       5.2444      0.45981
     18       6.8489     -0.00000
     19       6.9438     -0.00000
     20      11.4373      0.00000
     21      11.4743      0.00000
     22      13.6622      0.00000
     23      13.8291      0.00000
     24      14.0542      0.00000

 k-point   140 :       0.3333    0.1667    0.1667
  band No.  band energies     occupation 
      1      -2.2553      1.00000
      2       0.8590      1.00000
      3       1.9632      1.00000
      4       2.3922      1.00000
      5       2.4556      1.00000
      6       2.6929      1.00000
      7       2.7387      1.00000
      8       3.1995      1.00000
      9       3.4314      1.00000
     10       3.4797      1.00000
     11       4.0881      1.00000
     12       4.1568      1.00000
     13       4.2572      1.00000
     14       4.3498      1.00000
     15       4.5486      1.00001
     16       4.9247      1.02534
     17       4.9457      1.02999
     18       7.2297     -0.00000
     19       7.2403     -0.00000
     20      10.7018      0.00000
     21      10.7788      0.00000
     22      14.0204      0.00000
     23      14.0230      0.00000
     24      14.2698      0.00000

 k-point   141 :       0.3889    0.1667    0.1667
  band No.  band energies     occupation 
      1      -1.8657      1.00000
      2       0.3722      1.00000
      3       2.0082      1.00000
      4       2.4297      1.00000
      5       2.5597      1.00000
      6       2.7512      1.00000
      7       2.7854      1.00000
      8       3.2451      1.00000
      9       3.3178      1.00000
     10       3.4309      1.00000
     11       4.0682      1.00000
     12       4.1478      1.00000
     13       4.1607      1.00000
     14       4.3032      1.00000
     15       4.5473      1.00001
     16       4.7310      1.00106
     17       4.8932      1.01818
     18       7.5190     -0.00000
     19       7.6731     -0.00000
     20      10.0239     -0.00000
     21      10.1886     -0.00000
     22      14.2153      0.00000
     23      14.3899      0.00000
     24      14.5213      0.00000

 k-point   142 :       0.4444    0.1667    0.1667
  band No.  band energies     occupation 
      1      -1.4710      1.00000
      2      -0.0952      1.00000
      3       2.0401      1.00000
      4       2.4460      1.00000
      5       2.6084      1.00000
      6       2.7624      1.00000
      7       2.9083      1.00000
      8       3.2078      1.00000
      9       3.3027      1.00000
     10       3.4028      1.00000
     11       4.0460      1.00000
     12       4.0933      1.00000
     13       4.1598      1.00000
     14       4.2521      1.00000
     15       4.5452      1.00001
     16       4.6001      1.00003
     17       4.8722      1.01394
     18       7.7688     -0.00000
     19       8.1261     -0.00000
     20       9.4237     -0.00000
     21       9.7547     -0.00000
     22      14.3702      0.00000
     23      14.6620      0.00000
     24      14.8314      0.00000

 k-point   143 :       0.5000    0.1667    0.1667
  band No.  band energies     occupation 
      1      -1.2455      1.00000
      2      -0.3473      1.00000
      3       2.0517      1.00000
      4       2.4485      1.00000
      5       2.6221      1.00000
      6       2.7689      1.00000
      7       2.9897      1.00000
      8       3.1356      1.00000
      9       3.3344      1.00000
     10       3.3875      1.00000
     11       4.0346      1.00000
     12       4.0701      1.00000
     13       4.1828      1.00000
     14       4.2147      1.00000
     15       4.5443      1.00001
     16       4.5559      1.00001
     17       4.8651      1.01262
     18       7.8790     -0.00000
     19       8.4303     -0.00000
     20       9.0704     -0.00000
     21       9.5824     -0.00000
     22      14.4311      0.00000
     23      14.7629      0.00000
     24      15.0335      0.00000

 k-point   144 :       0.2222    0.2222    0.1667
  band No.  band energies     occupation 
      1      -2.6672      1.00000
      2       1.5930      1.00000
      3       1.8481      1.00000
      4       2.1626      1.00000
      5       2.3412      1.00000
      6       2.6389      1.00000
      7       2.7082      1.00000
      8       3.1684      1.00000
      9       3.5603      1.00000
     10       3.5982      1.00000
     11       4.1442      1.00000
     12       4.1629      1.00000
     13       4.3573      1.00000
     14       4.4339      1.00000
     15       4.5084      1.00000
     16       4.9806      1.03514
     17       5.6574     -0.00546
     18       6.2460     -0.00000
     19       6.8359     -0.00000
     20      11.4130      0.00000
     21      12.4593      0.00000
     22      12.5604      0.00000
     23      13.8927      0.00000
     24      14.6884      0.00000

 k-point   145 :       0.2778    0.2222    0.1667
  band No.  band energies     occupation 
      1      -2.3797      1.00000
      2       1.3834      1.00000
      3       1.8106      1.00000
      4       2.2750      1.00000
      5       2.3952      1.00000
      6       2.6631      1.00000
      7       2.7713      1.00000
      8       3.1360      1.00000
      9       3.4472      1.00000
     10       3.5229      1.00000
     11       4.1327      1.00000
     12       4.1650      1.00000
     13       4.2852      1.00000
     14       4.3626      1.00000
     15       4.5026      1.00000
     16       4.9524      1.03131
     17       5.3771      0.03632
     18       6.3515     -0.00000
     19       7.0948     -0.00000
     20      10.6491     -0.00000
     21      11.7231      0.00000
     22      12.8303      0.00000
     23      14.0799      0.00000
     24      15.0442      0.00000

 k-point   146 :       0.3333    0.2222    0.1667
  band No.  band energies     occupation 
      1      -2.0394      1.00000
      2       0.9894      1.00000
      3       1.8416      1.00000
      4       2.4116      1.00000
      5       2.4604      1.00000
      6       2.6933      1.00000
      7       2.8062      1.00000
      8       3.1521      1.00000
      9       3.3549      1.00000
     10       3.4548      1.00000
     11       4.1076      1.00000
     12       4.1616      1.00000
     13       4.2451      1.00000
     14       4.2817      1.00000
     15       4.5008      1.00000
     16       4.9116      1.02232
     17       5.0615      1.00526
     18       6.6167     -0.00000
     19       7.3802     -0.00000
     20       9.9727     -0.00000
     21      11.0050      0.00000
     22      13.1893      0.00000
     23      14.2945      0.00000
     24      15.2811      0.00000

 k-point   147 :       0.3889    0.2222    0.1667
  band No.  band energies     occupation 
      1      -1.6595      1.00000
      2       0.5309      1.00000
      3       1.8733      1.00000
      4       2.4962      1.00000
      5       2.5475      1.00000
      6       2.7413      1.00000
      7       2.8215      1.00000
      8       3.2032      1.00000
      9       3.2826      1.00000
     10       3.4032      1.00000
     11       4.0799      1.00000
     12       4.1377      1.00000
     13       4.2049      1.00000
     14       4.2474      1.00000
     15       4.4936      1.00000
     16       4.8037      1.00468
     17       4.8854      1.01654
     18       6.9206     -0.00000
     19       7.6560     -0.00000
     20       9.4257     -0.00000
     21      10.3703     -0.00000
     22      13.5732      0.00000
     23      14.5180      0.00000
     24      15.5004      0.00000

 k-point   148 :       0.4444    0.2222    0.1667
  band No.  band energies     occupation 
      1      -1.2787      1.00000
      2       0.0884      1.00000
      3       1.8942      1.00000
      4       2.5159      1.00000
      5       2.6214      1.00000
      6       2.8035      1.00000
      7       2.8457      1.00000
      8       3.1888      1.00000
      9       3.2914      1.00000
     10       3.3679      1.00000
     11       4.0555      1.00000
     12       4.1069      1.00000
     13       4.1751      1.00000
     14       4.2482      1.00000
     15       4.4829      1.00000
     16       4.6517      1.00015
     17       4.8531      1.01061
     18       7.2188     -0.00000
     19       7.8286     -0.00000
     20       9.1018     -0.00000
     21       9.8588     -0.00000
     22      13.9312      0.00000
     23      14.7136      0.00000
     24      15.5396      0.00000

 k-point   149 :       0.5000    0.2222    0.1667
  band No.  band energies     occupation 
      1      -1.0658      1.00000
      2      -0.1473      1.00000
      3       1.9015      1.00000
      4       2.5185      1.00000
      5       2.6442      1.00000
      6       2.8250      1.00000
      7       2.8741      1.00000
      8       3.1570      1.00000
      9       3.3298      1.00000
     10       3.3413      1.00000
     11       4.0471      1.00000
     12       4.0898      1.00000
     13       4.1698      1.00000
     14       4.2496      1.00000
     15       4.4775      1.00000
     16       4.5973      1.00003
     17       4.8428      1.00907
     18       7.3817     -0.00000
     19       7.8376     -0.00000
     20       9.0472     -0.00000
     21       9.6192     -0.00000
     22      14.1060      0.00000
     23      14.8108      0.00000
     24      15.3545      0.00000

 k-point   150 :       0.2778    0.2778    0.1667
  band No.  band energies     occupation 
      1      -2.0995      1.00000
      2       1.4156      1.00000
      3       1.6198      1.00000
      4       2.3101      1.00000
      5       2.4687      1.00000
      6       2.6730      1.00000
      7       2.8492      1.00000
      8       3.0941      1.00000
      9       3.3538      1.00000
     10       3.4880      1.00000
     11       4.1382      1.00000
     12       4.1766      1.00000
     13       4.1879      1.00000
     14       4.3356      1.00000
     15       4.4723      1.00000
     16       4.9238      1.02514
     17       5.3730      0.04344
     18       6.0712     -0.00000
     19       7.3058     -0.00000
     20       9.9299     -0.00000
     21      12.0194      0.00000
     22      12.0610      0.00000
     23      14.2810      0.00000
     24      16.0268      0.00000

 k-point   151 :       0.3333    0.2778    0.1667
  band No.  band energies     occupation 
      1      -1.7691      1.00000
      2       1.1298      1.00000
      3       1.6240      1.00000
      4       2.3901      1.00000
      5       2.5434      1.00000
      6       2.6900      1.00000
      7       2.8947      1.00000
      8       3.0979      1.00000
      9       3.2903      1.00000
     10       3.4514      1.00000
     11       4.0967      1.00000
     12       4.1402      1.00000
     13       4.1974      1.00000
     14       4.2893      1.00000
     15       4.4601      1.00000
     16       4.8796      1.01536
     17       5.1441      0.84355
     18       6.1467     -0.00000
     19       7.4890     -0.00000
     20       9.3587     -0.00000
     21      11.3177      0.00000
     22      12.4001      0.00000
     23      14.5048      0.00000
     24      16.0108      0.00000

 k-point   152 :       0.3889    0.2778    0.1667
  band No.  band energies     occupation 
      1      -1.4028      1.00000
      2       0.7158      1.00000
      3       1.6764      1.00000
      4       2.4812      1.00000
      5       2.5899      1.00000
      6       2.7296      1.00000
      7       2.9040      1.00000
      8       3.1333      1.00000
      9       3.2700      1.00000
     10       3.4139      1.00000
     11       4.0405      1.00000
     12       4.1119      1.00000
     13       4.2157      1.00000
     14       4.2647      1.00000
     15       4.4471      1.00000
     16       4.8171      1.00594
     17       4.9103      1.02201
     18       6.3714     -0.00000
     19       7.5339     -0.00000
     20       9.0511     -0.00000
     21      10.6748     -0.00000
     22      12.7873      0.00000
     23      14.7252      0.00000
     24      15.4407      0.00000

 k-point   153 :       0.4444    0.2778    0.1667
  band No.  band energies     occupation 
      1      -1.0410      1.00000
      2       0.3093      1.00000
      3       1.7098      1.00000
      4       2.5327      1.00000
      5       2.6304      1.00000
      6       2.7697      1.00000
      7       2.9131      1.00000
      8       3.1355      1.00000
      9       3.3035      1.00000
     10       3.3798      1.00000
     11       4.0068      1.00000
     12       4.0749      1.00000
     13       4.2299      1.00000
     14       4.2742      1.00000
     15       4.4256      1.00000
     16       4.6952      1.00046
     17       4.8233      1.00660
     18       6.6455     -0.00000
     19       7.3570     -0.00000
     20       9.0820     -0.00000
     21      10.1422     -0.00000
     22      13.1533      0.00000
     23      14.8010      0.00000
     24      15.0560      0.00000

 k-point   154 :       0.5000    0.2778    0.1667
  band No.  band energies     occupation 
      1      -0.8449      1.00000
      2       0.0959      1.00000
      3       1.7208      1.00000
      4       2.5411      1.00000
      5       2.6565      1.00000
      6       2.7837      1.00000
      7       2.9202      1.00000
      8       3.1287      1.00000
      9       3.3335      1.00000
     10       3.3582      1.00000
     11       3.9977      1.00000
     12       4.0561      1.00000
     13       4.2359      1.00000
     14       4.2862      1.00000
     15       4.4120      1.00000
     16       4.6358      1.00010
     17       4.8065      1.00492
     18       6.8498     -0.00000
     19       7.1606     -0.00000
     20       9.2080     -0.00000
     21       9.8731     -0.00000
     22      13.3364      0.00000
     23      14.6433      0.00000
     24      15.0636      0.00000

 k-point   155 :       0.3333    0.3333    0.1667
  band No.  band energies     occupation 
      1      -1.4522      1.00000
      2       1.2057      1.00000
      3       1.3744      1.00000
      4       2.3969      1.00000
      5       2.6015      1.00000
      6       2.7216      1.00000
      7       2.9631      1.00000
      8       3.0674      1.00000
      9       3.2616      1.00000
     10       3.4444      1.00000
     11       4.0258      1.00000
     12       4.1335      1.00000
     13       4.1930      1.00000
     14       4.2881      1.00000
     15       4.4383      1.00000
     16       4.8319      1.00762
     17       5.0995      0.95154
     18       5.9324     -0.00000
     19       7.4445     -0.00000
     20       9.0261     -0.00000
     21      11.6613      0.00000
     22      11.6908      0.00000
     23      14.7149      0.00000
     24      15.3990      0.00000

 k-point   156 :       0.3889    0.3333    0.1667
  band No.  band energies     occupation 
      1      -1.1045      1.00000
      2       0.9075      1.00000
      3       1.4177      1.00000
      4       2.4184      1.00000
      5       2.6227      1.00000
      6       2.7852      1.00000
      7       2.9787      1.00000
      8       3.0834      1.00000
      9       3.2774      1.00000
     10       3.4291      1.00000
     11       3.9585      1.00000
     12       4.1211      1.00000
     13       4.1994      1.00000
     14       4.2931      1.00000
     15       4.4233      1.00000
     16       4.7744      1.00267
     17       4.9248      1.02536
     18       5.9896     -0.00000
     19       7.1802     -0.00000
     20       9.0487     -0.00000
     21      11.0283      0.00000
     22      12.0645      0.00000
     23      14.6224      0.00000
     24      15.1099      0.00000

 k-point   157 :       0.4444    0.3333    0.1667
  band No.  band energies     occupation 
      1      -0.7682      1.00000
      2       0.5522      1.00000
      3       1.4862      1.00000
      4       2.4348      1.00000
      5       2.6453      1.00000
      6       2.8177      1.00000
      7       3.0013      1.00000
      8       3.0854      1.00000
      9       3.3291      1.00000
     10       3.4064      1.00000
     11       3.9163      1.00000
     12       4.0901      1.00000
     13       4.2347      1.00000
     14       4.3038      1.00000
     15       4.3965      1.00000
     16       4.7075      1.00062
     17       4.7840      1.00323
     18       6.1844     -0.00000
     19       6.8265     -0.00000
     20       9.2819     -0.00000
     21      10.4885     -0.00000
     22      12.4335      0.00000
     23      14.1601      0.00000
     24      15.2601      0.00000

 k-point   158 :       0.5000    0.3333    0.1667
  band No.  band energies     occupation 
      1      -0.5928      1.00000
      2       0.3676      1.00000
      3       1.5105      1.00000
      4       2.4396      1.00000
      5       2.6594      1.00000
      6       2.8210      1.00000
      7       3.0221      1.00000
      8       3.0779      1.00000
      9       3.3702      1.00000
     10       3.3814      1.00000
     11       3.9023      1.00000
     12       4.0771      1.00000
     13       4.2548      1.00000
     14       4.3138      1.00000
     15       4.3741      1.00000
     16       4.6634      1.00020
     17       4.7488      1.00157
     18       6.3905     -0.00000
     19       6.5610     -0.00000
     20       9.4638     -0.00000
     21      10.2135     -0.00000
     22      12.6201      0.00000
     23      13.9307      0.00000
     24      15.3380      0.00000

 k-point   159 :       0.3889    0.3889    0.1667
  band No.  band energies     occupation 
      1      -0.7821      1.00000
      2       1.0357      1.00000
      3       1.1603      1.00000
      4       2.3528      1.00000
      5       2.6371      1.00000
      6       2.8633      1.00000
      7       2.9985      1.00000
      8       3.0975      1.00000
      9       3.3083      1.00000
     10       3.4369      1.00000
     11       3.8838      1.00000
     12       4.1481      1.00000
     13       4.1653      1.00000
     14       4.3119      1.00000
     15       4.4159      1.00000
     16       4.7154      1.00074
     17       4.8531      1.01061
     18       5.8360     -0.00009
     19       6.7513     -0.00000
     20       9.2725     -0.00000
     21      11.3732      0.00000
     22      11.4566      0.00000
     23      14.0351      0.00000
     24      15.3186      0.00000

 k-point   160 :       0.4444    0.3889    0.1667
  band No.  band energies     occupation 
      1      -0.4791      1.00000
      2       0.7908      1.00000
      3       1.2344      1.00000
      4       2.3022      1.00000
      5       2.6501      1.00000
      6       2.8991      1.00000
      7       3.0161      1.00000
      8       3.1245      1.00000
      9       3.3608      1.00000
     10       3.4311      1.00000
     11       3.8346      1.00000
     12       4.1234      1.00000
     13       4.1957      1.00000
     14       4.3238      1.00000
     15       4.3957      1.00000
     16       4.6666      1.00022
     17       4.7397      1.00129
     18       5.8879     -0.00002
     19       6.3714     -0.00000
     20       9.5833     -0.00000
     21      10.8695      0.00000
     22      11.7866      0.00000
     23      13.5204      0.00000
     24      15.5256      0.00000

 k-point   161 :       0.5000    0.3889    0.1667
  band No.  band energies     occupation 
      1      -0.3285      1.00000
      2       0.6419      1.00000
      3       1.2805      1.00000
      4       2.2827      1.00000
      5       2.6560      1.00000
      6       2.9013      1.00000
      7       3.0347      1.00000
      8       3.1318      1.00000
      9       3.4068      1.00000
     10       3.4076      1.00000
     11       3.8178      1.00000
     12       4.1130      1.00000
     13       4.2151      1.00000
     14       4.3298      1.00000
     15       4.3736      1.00000
     16       4.6656      1.00021
     17       4.6736      1.00026
     18       6.0452     -0.00000
     19       6.1106     -0.00000
     20       9.7842     -0.00000
     21      10.5945     -0.00000
     22      11.9735      0.00000
     23      13.2831      0.00000
     24      15.6127      0.00000

 k-point   162 :       0.4444    0.4444    0.1667
  band No.  band energies     occupation 
      1      -0.2171      1.00000
      2       0.9593      1.00000
      3       1.0170      1.00000
      4       2.1849      1.00000
      5       2.6510      1.00000
      6       2.9611      1.00000
      7       2.9988      1.00000
      8       3.1964      1.00000
      9       3.3983      1.00000
     10       3.4423      1.00000
     11       3.7777      1.00000
     12       4.1612      1.00000
     13       4.1622      1.00000
     14       4.3327      1.00000
     15       4.3765      1.00000
     16       4.6066      1.00004
     17       4.6923      1.00042
     18       5.7809     -0.00039
     19       6.0391     -0.00000
     20       9.9252     -0.00000
     21      11.1994      0.00000
     22      11.2780      0.00000
     23      12.9970      0.00000
     24      15.7460      0.00000

 k-point   163 :       0.5000    0.4444    0.1667
  band No.  band energies     occupation 
      1      -0.0935      1.00000
      2       0.8703      1.00000
      3       1.0673      1.00000
      4       2.1343      1.00000
      5       2.6510      1.00000
      6       2.9705      1.00000
      7       3.0075      1.00000
      8       3.2241      1.00000
      9       3.4305      1.00000
     10       3.4316      1.00000
     11       3.7572      1.00000
     12       4.1535      1.00000
     13       4.1799      1.00000
     14       4.3348      1.00000
     15       4.3503      1.00000
     16       4.5867      1.00002
     17       4.6680      1.00023
     18       5.8337     -0.00010
     19       5.8466     -0.00007
     20      10.1362     -0.00000
     21      10.9587      0.00000
     22      11.4261      0.00000
     23      12.7590      0.00000
     24      15.8366      0.00000

 k-point   164 :       0.5000    0.5000    0.1667
  band No.  band energies     occupation 
      1       0.0143      1.00000
      2       0.9669      1.00000
      3       0.9669      1.00000
      4       2.0667      1.00000
      5       2.6488      1.00000
      6       2.9984      1.00000
      7       2.9984      1.00000
      8       3.2620      1.00000
      9       3.4402      1.00000
     10       3.4402      1.00000
     11       3.7346      1.00000
     12       4.1732      1.00000
     13       4.1732      1.00000
     14       4.3190      1.00000
     15       4.3344      1.00000
     16       4.5600      1.00001
     17       4.6621      1.00020
     18       5.7631     -0.00060
     19       5.7631     -0.00060
     20      10.3558     -0.00000
     21      11.1413      0.00000
     22      11.1413      0.00000
     23      12.5231      0.00000
     24      15.9279      0.00000

 k-point   165 :       0.2222    0.2222    0.2222
  band No.  band energies     occupation 
      1      -2.4433      1.00000
      2       1.5690      1.00000
      3       1.9900      1.00000
      4       1.9900      1.00000
      5       2.3917      1.00000
      6       2.7180      1.00000
      7       2.7180      1.00000
      8       3.1219      1.00000
      9       3.5003      1.00000
     10       3.5003      1.00000
     11       4.1536      1.00000
     12       4.1536      1.00000
     13       4.2569      1.00000
     14       4.4464      1.00000
     15       4.4464      1.00000
     16       4.9883      1.03545
     17       5.7672     -0.00055
     18       6.3877     -0.00000
     19       6.3877     -0.00000
     20      11.6153      0.00000
     21      11.7166      0.00000
     22      11.7166      0.00000
     23      14.8593      0.00000
     24      14.8593      0.00000

 k-point   166 :       0.2778    0.2222    0.2222
  band No.  band energies     occupation 
      1      -2.1618      1.00000
      2       1.4216      1.00000
      3       1.8424      1.00000
      4       2.1548      1.00000
      5       2.4631      1.00000
      6       2.7302      1.00000
      7       2.7834      1.00000
      8       3.1054      1.00000
      9       3.4135      1.00000
     10       3.4308      1.00000
     11       4.1522      1.00000
     12       4.1528      1.00000
     13       4.1862      1.00000
     14       4.3738      1.00000
     15       4.4569      1.00000
     16       4.9716      1.03432
     17       5.5241     -0.02997
     18       6.4255     -0.00000
     19       6.5531     -0.00000
     20      10.8707      0.00000
     21      10.9551      0.00000
     22      12.0016      0.00000
     23      15.0669      0.00000
     24      15.3234      0.00000

 k-point   167 :       0.3333    0.2222    0.2222
  band No.  band energies     occupation 
      1      -1.8296      1.00000
      2       1.0913      1.00000
      3       1.7931      1.00000
      4       2.3281      1.00000
      5       2.5354      1.00000
      6       2.7429      1.00000
      7       2.8197      1.00000
      8       3.1358      1.00000
      9       3.3576      1.00000
     10       3.3587      1.00000
     11       4.0933      1.00000
     12       4.1444      1.00000
     13       4.1975      1.00000
     14       4.3061      1.00000
     15       4.4602      1.00000
     16       4.9378      1.02830
     17       5.1708      0.75619
     18       6.7114     -0.00000
     19       6.7309     -0.00000
     20      10.1556     -0.00000
     21      10.2973     -0.00000
     22      12.3622      0.00000
     23      15.2961      0.00000
     24      15.5310      0.00000

 k-point   168 :       0.3889    0.2222    0.2222
  band No.  band energies     occupation 
      1      -1.4611      1.00000
      2       0.6726      1.00000
      3       1.7837      1.00000
      4       2.4910      1.00000
      5       2.5804      1.00000
      6       2.7517      1.00000
      7       2.8517      1.00000
      8       3.1924      1.00000
      9       3.2880      1.00000
     10       3.3352      1.00000
     11       4.0442      1.00000
     12       4.1193      1.00000
     13       4.2255      1.00000
     14       4.2659      1.00000
     15       4.4523      1.00000
     16       4.8824      1.01593
     17       4.8985      1.01935
     18       6.9044     -0.00000
     19       7.0567     -0.00000
     20       9.5191     -0.00000
     21       9.7700     -0.00000
     22      12.7526      0.00000
     23      15.2941      0.00000
     24      15.5198      0.00000

 k-point   169 :       0.4444    0.2222    0.2222
  band No.  band energies     occupation 
      1      -1.0964      1.00000
      2       0.2614      1.00000
      3       1.7832      1.00000
      4       2.5917      1.00000
      5       2.6221      1.00000
      6       2.7477      1.00000
      7       2.8946      1.00000
      8       3.2299      1.00000
      9       3.2335      1.00000
     10       3.3372      1.00000
     11       4.0145      1.00000
     12       4.0923      1.00000
     13       4.2565      1.00000
     14       4.2565      1.00000
     15       4.4342      1.00000
     16       4.6865      1.00037
     17       4.8674      1.01305
     18       7.0426     -0.00000
     19       7.3972     -0.00000
     20       9.0052     -0.00000
     21       9.4143     -0.00000
     22      13.1261      0.00000
     23      14.8158      0.00000
     24      15.6932      0.00000

 k-point   170 :       0.5000    0.2222    0.2222
  band No.  band energies     occupation 
      1      -0.8982      1.00000
      2       0.0451      1.00000
      3       1.7836      1.00000
      4       2.5917      1.00000
      5       2.6914      1.00000
      6       2.7269      1.00000
      7       2.9161      1.00000
      8       3.2116      1.00000
      9       3.2382      1.00000
     10       3.3443      1.00000
     11       4.0046      1.00000
     12       4.0828      1.00000
     13       4.2584      1.00000
     14       4.2725      1.00000
     15       4.4223      1.00000
     16       4.6127      1.00005
     17       4.8558      1.01104
     18       7.0980     -0.00000
     19       7.5745     -0.00000
     20       8.7701     -0.00000
     21       9.2854     -0.00000
     22      13.3170      0.00000
     23      14.5827      0.00000
     24      15.7606      0.00000

 k-point   171 :       0.2778    0.2778    0.2222
  band No.  band energies     occupation 
      1      -1.8886      1.00000
      2       1.3874      1.00000
      3       1.7686      1.00000
      4       2.1488      1.00000
      5       2.5476      1.00000
      6       2.7510      1.00000
      7       2.8364      1.00000
      8       3.0911      1.00000
      9       3.3464      1.00000
     10       3.3925      1.00000
     11       4.0790      1.00000
     12       4.1628      1.00000
     13       4.1731      1.00000
     14       4.3588      1.00000
     15       4.4289      1.00000
     16       4.9631      1.03317
     17       5.5428     -0.02585
     18       6.1278     -0.00000
     19       6.6546     -0.00000
     20      10.1784     -0.00000
     21      11.2084      0.00000
     22      11.2503      0.00000
     23      15.3729      0.00000
     24      15.9176      0.00000

 k-point   172 :       0.3333    0.2778    0.2222
  band No.  band energies     occupation 
      1      -1.5680      1.00000
      2       1.1800      1.00000
      3       1.6797      1.00000
      4       2.2640      1.00000
      5       2.6232      1.00000
      6       2.7587      1.00000
      7       2.8801      1.00000
      8       3.1159      1.00000
      9       3.3050      1.00000
     10       3.3610      1.00000
     11       4.0029      1.00000
     12       4.1583      1.00000
     13       4.1909      1.00000
     14       4.3212      1.00000
     15       4.4268      1.00000
     16       4.9326      1.02715
     17       5.2681      0.36131
     18       6.1893     -0.00000
     19       6.8221     -0.00000
     20       9.5575     -0.00000
     21      10.5378     -0.00000
     22      11.5883      0.00000
     23      15.1778      0.00000
     24      15.6887      0.00000

 k-point   173 :       0.3889    0.2778    0.2222
  band No.  band energies     occupation 
      1      -1.2156      1.00000
      2       0.8308      1.00000
      3       1.6538      1.00000
      4       2.4010      1.00000
      5       2.6586      1.00000
      6       2.7671      1.00000
      7       2.9265      1.00000
      8       3.1540      1.00000
      9       3.2909      1.00000
     10       3.3407      1.00000
     11       3.9467      1.00000
     12       4.1333      1.00000
     13       4.2244      1.00000
     14       4.3071      1.00000
     15       4.4190      1.00000
     16       4.8860      1.01666
     17       4.9661      1.03361
     18       6.3879     -0.00000
     19       6.9735     -0.00000
     20       9.0889     -0.00000
     21       9.9487     -0.00000
     22      11.9792      0.00000
     23      14.5606      0.00000
     24      15.9079      0.00000

 k-point   174 :       0.4444    0.2778    0.2222
  band No.  band energies     occupation 
      1      -0.8737      1.00000
      2       0.4675      1.00000
      3       1.6477      1.00000
      4       2.5082      1.00000
      5       2.6744      1.00000
      6       2.7539      1.00000
      7       2.9927      1.00000
      8       3.1584      1.00000
      9       3.2846      1.00000
     10       3.3485      1.00000
     11       3.9124      1.00000
     12       4.1099      1.00000
     13       4.2700      1.00000
     14       4.3207      1.00000
     15       4.3964      1.00000
     16       4.7225      1.00087
     17       4.8656      1.01271
     18       6.5861     -0.00000
     19       7.0559     -0.00000
     20       8.8277     -0.00000
     21       9.5067     -0.00000
     22      12.3575      0.00000
     23      14.0344      0.00000
     24      16.0974      0.00000

 k-point   175 :       0.5000    0.2778    0.2222
  band No.  band energies     occupation 
      1      -0.6948      1.00000
      2       0.2782      1.00000
      3       1.6465      1.00000
      4       2.5464      1.00000
      5       2.6977      1.00000
      6       2.7291      1.00000
      7       3.0292      1.00000
      8       3.1490      1.00000
      9       3.2789      1.00000
     10       3.3591      1.00000
     11       3.9010      1.00000
     12       4.1029      1.00000
     13       4.3028      1.00000
     14       4.3322      1.00000
     15       4.3793      1.00000
     16       4.6282      1.00008
     17       4.8507      1.01023
     18       6.6832     -0.00000
     19       7.0636     -0.00000
     20       8.7651     -0.00000
     21       9.3230     -0.00000
     22      12.5544      0.00000
     23      13.7876      0.00000
     24      16.1740      0.00000

 k-point   176 :       0.3333    0.3333    0.2222
  band No.  band energies     occupation 
      1      -1.2635      1.00000
      2       1.1831      1.00000
      3       1.5264      1.00000
      4       2.2653      1.00000
      5       2.6823      1.00000
      6       2.7914      1.00000
      7       2.9271      1.00000
      8       3.1279      1.00000
      9       3.2898      1.00000
     10       3.3630      1.00000
     11       3.9195      1.00000
     12       4.1715      1.00000
     13       4.1836      1.00000
     14       4.3182      1.00000
     15       4.4178      1.00000
     16       4.9026      1.02027
     17       5.2331      0.50762
     18       5.9133     -0.00001
     19       6.8747     -0.00000
     20       9.0737     -0.00000
     21      10.8867      0.00000
     22      10.8897      0.00000
     23      14.4846      0.00000
     24      15.9305      0.00000

 k-point   177 :       0.3889    0.3333    0.2222
  band No.  band energies     occupation 
      1      -0.9335      1.00000
      2       0.9793      1.00000
      3       1.4777      1.00000
      4       2.3115      1.00000
      5       2.7044      1.00000
      6       2.8257      1.00000
      7       2.9705      1.00000
      8       3.1632      1.00000
      9       3.3062      1.00000
     10       3.3640      1.00000
     11       3.8557      1.00000
     12       4.1495      1.00000
     13       4.2098      1.00000
     14       4.3212      1.00000
     15       4.4180      1.00000
     16       4.8547      1.01087
     17       5.0073      1.03415
     18       5.9558     -0.00000
     19       6.8196     -0.00000
     20       8.8355     -0.00000
     21      10.2782     -0.00000
     22      11.2746      0.00000
     23      13.8361      0.00000
     24      16.1808      0.00000

 k-point   178 :       0.4444    0.3333    0.2222
  band No.  band energies     occupation 
      1      -0.6229      1.00000
      2       0.6905      1.00000
      3       1.4862      1.00000
      4       2.3583      1.00000
      5       2.7297      1.00000
      6       2.8119      1.00000
      7       3.0410      1.00000
      8       3.1708      1.00000
      9       3.3335      1.00000
     10       3.3719      1.00000
     11       3.8162      1.00000
     12       4.1291      1.00000
     13       4.2542      1.00000
     14       4.3312      1.00000
     15       4.4195      1.00000
     16       4.7421      1.00136
     17       4.8458      1.00951
     18       6.1259     -0.00000
     19       6.6508     -0.00000
     20       8.8446     -0.00000
     21       9.7921     -0.00000
     22      11.6529      0.00000
     23      13.2987      0.00000
     24      16.3844      0.00000

 k-point   179 :       0.5000    0.3333    0.2222
  band No.  band energies     occupation 
      1      -0.4683      1.00000
      2       0.5377      1.00000
      3       1.4917      1.00000
      4       2.3765      1.00000
      5       2.7537      1.00000
      6       2.7896      1.00000
      7       3.0804      1.00000
      8       3.1629      1.00000
      9       3.3389      1.00000
     10       3.3825      1.00000
     11       3.8030      1.00000
     12       4.1251      1.00000
     13       4.2852      1.00000
     14       4.3257      1.00000
     15       4.4355      1.00000
     16       4.6389      1.00010
     17       4.8221      1.00647
     18       6.2661     -0.00000
     19       6.5034     -0.00000
     20       8.9248     -0.00000
     21       9.5629     -0.00000
     22      11.8530      0.00000
     23      13.0454      0.00000
     24      16.4669      0.00000

 k-point   180 :       0.3889    0.3889    0.2222
  band No.  band energies     occupation 
      1      -0.6349      1.00000
      2       1.0440      1.00000
      3       1.3131      1.00000
      4       2.2467      1.00000
      5       2.7306      1.00000
      6       2.8926      1.00000
      7       2.9689      1.00000
      8       3.2358      1.00000
      9       3.3322      1.00000
     10       3.3860      1.00000
     11       3.7827      1.00000
     12       4.1757      1.00000
     13       4.1799      1.00000
     14       4.3278      1.00000
     15       4.4362      1.00000
     16       4.8077      1.00503
     17       4.9319      1.02700
     18       5.7605     -0.00064
     19       6.5454     -0.00000
     20       8.8509     -0.00000
     21      10.6363     -0.00000
     22      10.6695     -0.00000
     23      13.1792      0.00000
     24      16.4445      0.00000

 k-point   181 :       0.4444    0.3889    0.2222
  band No.  band energies     occupation 
      1      -0.3658      1.00000
      2       0.9041      1.00000
      3       1.3074      1.00000
      4       2.2107      1.00000
      5       2.7538      1.00000
      6       2.8948      1.00000
      7       3.0068      1.00000
      8       3.2865      1.00000
      9       3.3722      1.00000
     10       3.4023      1.00000
     11       3.7358      1.00000
     12       4.1588      1.00000
     13       4.2127      1.00000
     14       4.3339      1.00000
     15       4.4571      1.00000
     16       4.7309      1.00106
     17       4.7920      1.00377
     18       5.8013     -0.00023
     19       6.2461     -0.00000
     20       9.0338     -0.00000
     21      10.1446     -0.00000
     22      11.0261      0.00000
     23      12.6372      0.00000
     24      16.6565      0.00000

 k-point   182 :       0.5000    0.3889    0.2222
  band No.  band energies     occupation 
      1      -0.2404      1.00000
      2       0.8002      1.00000
      3       1.3276      1.00000
      4       2.1996      1.00000
      5       2.7651      1.00000
      6       2.8848      1.00000
      7       3.0309      1.00000
      8       3.3000      1.00000
      9       3.3895      1.00000
     10       3.4124      1.00000
     11       3.7198      1.00000
     12       4.1587      1.00000
     13       4.2307      1.00000
     14       4.3346      1.00000
     15       4.4795      1.00000
     16       4.6394      1.00011
     17       4.7625      1.00210
     18       5.9308     -0.00000
     19       6.0359     -0.00000
     20       9.1812     -0.00000
     21       9.8950     -0.00000
     22      11.2261      0.00000
     23      12.3807      0.00000
     24      16.7422      0.00000

 k-point   183 :       0.4444    0.4444    0.2222
  band No.  band energies     occupation 
      1      -0.1468      1.00000
      2       1.0438      1.00000
      3       1.1698      1.00000
      4       2.0912      1.00000
      5       2.7645      1.00000
      6       2.9584      1.00000
      7       2.9862      1.00000
      8       3.3832      1.00000
      9       3.4019      1.00000
     10       3.4306      1.00000
     11       3.6806      1.00000
     12       4.1919      1.00000
     13       4.1954      1.00000
     14       4.3326      1.00000
     15       4.4743      1.00000
     16       4.6856      1.00036
     17       4.7084      1.00063
     18       5.6743     -0.00402
     19       5.9281     -0.00001
     20       9.3059     -0.00000
     21      10.4864     -0.00000
     22      10.5260     -0.00000
     23      12.0939      0.00000
     24      16.8729      0.00000

 k-point   184 :       0.5000    0.4444    0.2222
  band No.  band energies     occupation 
      1      -0.0520      1.00000
      2       1.0224      1.00000
      3       1.1829      1.00000
      4       2.0412      1.00000
      5       2.7676      1.00000
      6       2.9617      1.00000
      7       3.0019      1.00000
      8       3.4049      1.00000
      9       3.4236      1.00000
     10       3.4477      1.00000
     11       3.6606      1.00000
     12       4.1999      1.00000
     13       4.2111      1.00000
     14       4.3290      1.00000
     15       4.4715      1.00000
     16       4.6296      1.00008
     17       4.6906      1.00041
     18       5.7188     -0.00164
     19       5.7424     -0.00098
     20       9.4858     -0.00000
     21      10.2453     -0.00000
     22      10.7029      0.00000
     23      11.8373      0.00000
     24      16.9597      0.00000

 k-point   185 :       0.5000    0.5000    0.2222
  band No.  band energies     occupation 
      1       0.0269      1.00000
      2       1.1195      1.00000
      3       1.1195      1.00000
      4       1.9679      1.00000
      5       2.7674      1.00000
      6       2.9925      1.00000
      7       2.9925      1.00000
      8       3.4356      1.00000
      9       3.4356      1.00000
     10       3.4743      1.00000
     11       3.6381      1.00000
     12       4.2232      1.00000
     13       4.2232      1.00000
     14       4.3206      1.00000
     15       4.4336      1.00000
     16       4.6228      1.00007
     17       4.6641      1.00021
     18       5.6472     -0.00652
     19       5.6472     -0.00652
     20       9.6795     -0.00000
     21      10.4368     -0.00000
     22      10.4368     -0.00000
     23      11.5822      0.00000
     24      17.0466      0.00000

 k-point   186 :       0.2778    0.2778    0.2778
  band No.  band energies     occupation 
      1      -1.6255      1.00000
      2       1.3286      1.00000
      3       1.9406      1.00000
      4       1.9406      1.00000
      5       2.6394      1.00000
      6       2.8244      1.00000
      7       2.8244      1.00000
      8       3.1009      1.00000
      9       3.3349      1.00000
     10       3.3349      1.00000
     11       3.9833      1.00000
     12       4.1759      1.00000
     13       4.1759      1.00000
     14       4.3806      1.00000
     15       4.3806      1.00000
     16       4.9726      1.03444
     17       5.6417     -0.00715
     18       6.1956     -0.00000
     19       6.1956     -0.00000
     20      10.3972     -0.00000
     21      10.5310     -0.00000
     22      10.5310     -0.00000
     23      15.1465      0.00000
     24      16.4374      0.00000

 k-point   187 :       0.3333    0.2778    0.2778
  band No.  band energies     occupation 
      1      -1.3190      1.00000
      2       1.1951      1.00000
      3       1.7428      1.00000
      4       2.1185      1.00000
      5       2.7131      1.00000
      6       2.8143      1.00000
      7       2.8841      1.00000
      8       3.1441      1.00000
      9       3.3162      1.00000
     10       3.3202      1.00000
     11       3.9051      1.00000
     12       4.1697      1.00000
     13       4.1910      1.00000
     14       4.3471      1.00000
     15       4.3940      1.00000
     16       4.9552      1.03183
     17       5.3910      0.01508
     18       6.2143     -0.00000
     19       6.2676     -0.00000
     20       9.7512     -0.00000
     21       9.9284     -0.00000
     22      10.8424      0.00000
     23      14.4278      0.00000
     24      16.6801      0.00000

 k-point   188 :       0.3889    0.2778    0.2778
  band No.  band energies     occupation 
      1      -0.9867      1.00000
      2       0.9458      1.00000
      3       1.6250      1.00000
      4       2.2788      1.00000
      5       2.7344      1.00000
      6       2.8061      1.00000
      7       2.9667      1.00000
      8       3.1898      1.00000
      9       3.3052      1.00000
     10       3.3304      1.00000
     11       3.8474      1.00000
     12       4.1476      1.00000
     13       4.2219      1.00000
     14       4.3486      1.00000
     15       4.3918      1.00000
     16       4.9210      1.02448
     17       5.0412      1.02152
     18       6.3342     -0.00000
     19       6.4458     -0.00000
     20       9.1675     -0.00000
     21       9.4681     -0.00000
     22      11.2287      0.00000
     23      13.7722      0.00000
     24      16.9127      0.00000

 k-point   189 :       0.4444    0.2778    0.2778
  band No.  band energies     occupation 
      1      -0.6734      1.00000
      2       0.6519      1.00000
      3       1.5765      1.00000
      4       2.3934      1.00000
      5       2.7287      1.00000
      6       2.7998      1.00000
      7       3.0616      1.00000
      8       3.1929      1.00000
      9       3.2938      1.00000
     10       3.3611      1.00000
     11       3.8118      1.00000
     12       4.1326      1.00000
     13       4.2682      1.00000
     14       4.3678      1.00000
     15       4.3922      1.00000
     16       4.7616      1.00206
     17       4.8876      1.01700
     18       6.3828     -0.00000
     19       6.6749     -0.00000
     20       8.7369     -0.00000
     21       9.1765     -0.00000
     22      11.6101      0.00000
     23      13.2289      0.00000
     24      17.0898      0.00000

 k-point   190 :       0.5000    0.2778    0.2778
  band No.  band energies     occupation 
      1      -0.5173      1.00000
      2       0.4974      1.00000
      3       1.5637      1.00000
      4       2.4356      1.00000
      5       2.7244      1.00000
      6       2.7970      1.00000
      7       3.1226      1.00000
      8       3.1677      1.00000
      9       3.2895      1.00000
     10       3.3746      1.00000
     11       3.7997      1.00000
     12       4.1302      1.00000
     13       4.3159      1.00000
     14       4.3286      1.00000
     15       4.4505      1.00000
     16       4.6187      1.00006
     17       4.8738      1.01423
     18       6.4009     -0.00000
     19       6.7787     -0.00000
     20       8.5665     -0.00000
     21       9.0761     -0.00000
     22      11.8145      0.00000
     23      12.9705      0.00000
     24      17.1577      0.00000

 k-point   191 :       0.3333    0.3333    0.2778
  band No.  band energies     occupation 
      1      -1.0326      1.00000
      2       1.1556      1.00000
      3       1.6999      1.00000
      4       2.0843      1.00000
      5       2.7732      1.00000
      6       2.8554      1.00000
      7       2.9029      1.00000
      8       3.2100      1.00000
      9       3.3137      1.00000
     10       3.3296      1.00000
     11       3.8225      1.00000
     12       4.1768      1.00000
     13       4.1850      1.00000
     14       4.3492      1.00000
     15       4.3909      1.00000
     16       4.9467      1.03020
     17       5.3864      0.02159
     18       5.8872     -0.00002
     19       6.2948     -0.00000
     20       9.2647     -0.00000
     21      10.1535     -0.00000
     22      10.2160     -0.00000
     23      13.6962      0.00000
     24      17.0806      0.00000

 k-point   192 :       0.3889    0.3333    0.2778
  band No.  band energies     occupation 
      1      -0.7288      1.00000
      2       1.0334      1.00000
      3       1.5727      1.00000
      4       2.1688      1.00000
      5       2.7905      1.00000
      6       2.8643      1.00000
      7       2.9707      1.00000
      8       3.2796      1.00000
      9       3.3291      1.00000
     10       3.3500      1.00000
     11       3.7599      1.00000
     12       4.1593      1.00000
     13       4.2055      1.00000
     14       4.3547      1.00000
     15       4.4016      1.00000
     16       4.9149      1.02308
     17       5.1062      0.93845
     18       5.9068     -0.00001
     19       6.3339     -0.00000
     20       8.8630     -0.00000
     21       9.6442     -0.00000
     22      10.5572     -0.00000
     23      13.0346      0.00000
     24      17.3427      0.00000

 k-point   193 :       0.4444    0.3333    0.2778
  band No.  band energies     occupation 
      1      -0.4549      1.00000
      2       0.8454      1.00000
      3       1.4967      1.00000
      4       2.2481      1.00000
      5       2.8003      1.00000
      6       2.8553      1.00000
      7       3.0454      1.00000
      8       3.3027      1.00000
      9       3.3358      1.00000
     10       3.3976      1.00000
     11       3.7208      1.00000
     12       4.1508      1.00000
     13       4.2402      1.00000
     14       4.3594      1.00000
     15       4.4406      1.00000
     16       4.7963      1.00409
     17       4.8913      1.01777
     18       6.0123     -0.00000
     19       6.3483     -0.00000
     20       8.6397     -0.00000
     21       9.2648     -0.00000
     22      10.9332      0.00000
     23      12.4851      0.00000
     24      17.5401      0.00000

 k-point   194 :       0.5000    0.3333    0.2778
  band No.  band energies     occupation 
      1      -0.3274      1.00000
      2       0.7396      1.00000
      3       1.4757      1.00000
      4       2.2775      1.00000
      5       2.8045      1.00000
      6       2.8520      1.00000
      7       3.0765      1.00000
      8       3.3078      1.00000
      9       3.3367      1.00000
     10       3.4167      1.00000
     11       3.7075      1.00000
     12       4.1525      1.00000
     13       4.2629      1.00000
     14       4.3487      1.00000
     15       4.5381      1.00000
     16       4.6073      1.00004
     17       4.8729      1.01406
     18       6.0630     -0.00000
     19       6.3461     -0.00000
     20       8.5766     -0.00000
     21       9.1199     -0.00000
     22      11.1410      0.00000
     23      12.2197      0.00000
     24      17.6170      0.00000

 k-point   195 :       0.3889    0.3889    0.2778
  band No.  band energies     occupation 
      1      -0.4653      1.00000
      2       1.0640      1.00000
      3       1.4860      1.00000
      4       2.1148      1.00000
      5       2.8286      1.00000
      6       2.9321      1.00000
      7       2.9589      1.00000
      8       3.3538      1.00000
      9       3.3604      1.00000
     10       3.4120      1.00000
     11       3.6910      1.00000
     12       4.1748      1.00000
     13       4.1856      1.00000
     14       4.3526      1.00000
     15       4.4295      1.00000
     16       4.8829      1.01602
     17       5.0458      1.01850
     18       5.6578     -0.00542
     19       6.2021     -0.00000
     20       8.6754     -0.00000
     21       9.9625     -0.00000
     22      10.0021     -0.00000
     23      12.3712      0.00000
     24      17.6211      0.00000

 k-point   196 :       0.4444    0.3889    0.2778
  band No.  band energies     occupation 
      1      -0.2429      1.00000
      2       1.0238      1.00000
      3       1.4120      1.00000
      4       2.1078      1.00000
      5       2.8635      1.00000
      6       2.9187      1.00000
      7       3.0135      1.00000
      8       3.3746      1.00000
      9       3.3795      1.00000
     10       3.4993      1.00000
     11       3.6462      1.00000
     12       4.1756      1.00000
     13       4.2066      1.00000
     14       4.3539      1.00000
     15       4.4760      1.00000
     16       4.8004      1.00441
     17       4.8667      1.01292
     18       5.6781     -0.00374
     19       6.0302     -0.00000
     20       8.6730     -0.00000
     21       9.5402     -0.00000
     22      10.3430     -0.00000
     23      11.8202      0.00000
     24      17.8294      0.00000

 k-point   197 :       0.5000    0.3889    0.2778
  band No.  band energies     occupation 
      1      -0.1478      1.00000
      2       0.9838      1.00000
      3       1.3891      1.00000
      4       2.1108      1.00000
      5       2.8892      1.00000
      6       2.8980      1.00000
      7       3.0399      1.00000
      8       3.3829      1.00000
      9       3.3854      1.00000
     10       3.5299      1.00000
     11       3.6306      1.00000
     12       4.1832      1.00000
     13       4.2211      1.00000
     14       4.3512      1.00000
     15       4.5922      1.00003
     16       4.6010      1.00004
     17       4.8413      1.00886
     18       5.7606     -0.00064
     19       5.9085     -0.00001
     20       8.7258     -0.00000
     21       9.3436     -0.00000
     22      10.5490     -0.00000
     23      11.5509      0.00000
     24      17.9108      0.00000

 k-point   198 :       0.4444    0.4444    0.2778
  band No.  band energies     occupation 
      1      -0.0775      1.00000
      2       1.1525      1.00000
      3       1.3417      1.00000
      4       1.9999      1.00000
      5       2.8976      1.00000
      6       2.9793      1.00000
      7       2.9973      1.00000
      8       3.4070      1.00000
      9       3.4090      1.00000
     10       3.5945      1.00000
     11       3.6052      1.00000
     12       4.2046      1.00000
     13       4.2098      1.00000
     14       4.3420      1.00000
     15       4.5105      1.00000
     16       4.7437      1.00141
     17       4.7984      1.00424
     18       5.5286     -0.02903
     19       5.7582     -0.00068
     20       8.8277     -0.00000
     21       9.8625     -0.00000
     22       9.8786     -0.00000
     23      11.2695      0.00000
     24      18.0426      0.00000

 k-point   199 :       0.5000    0.4444    0.2778
  band No.  band energies     occupation 
      1      -0.0124      1.00000
      2       1.1943      1.00000
      3       1.3193      1.00000
      4       1.9571      1.00000
      5       2.9086      1.00000
      6       2.9789      1.00000
      7       3.0189      1.00000
      8       3.4183      1.00000
      9       3.4206      1.00000
     10       3.5753      1.00000
     11       3.6430      1.00000
     12       4.2263      1.00000
     13       4.2268      1.00000
     14       4.3318      1.00000
     15       4.5748      1.00002
     16       4.6164      1.00006
     17       4.7830      1.00317
     18       5.5590     -0.02211
     19       5.5969     -0.01405
     20       8.9488     -0.00000
     21       9.6467     -0.00000
     22      10.0695     -0.00000
     23      10.9986      0.00000
     24      18.1256      0.00000

 k-point   200 :       0.5000    0.5000    0.2778
  band No.  band energies     occupation 
      1       0.0395      1.00000
      2       1.2912      1.00000
      3       1.2912      1.00000
      4       1.8813      1.00000
      5       2.9141      1.00000
      6       3.0125      1.00000
      7       3.0125      1.00000
      8       3.4334      1.00000
      9       3.4334      1.00000
     10       3.5535      1.00000
     11       3.6824      1.00000
     12       4.2613      1.00000
     13       4.2613      1.00000
     14       4.3059      1.00000
     15       4.5662      1.00001
     16       4.5864      1.00002
     17       4.7570      1.00187
     18       5.4895     -0.03512
     19       5.4895     -0.03512
     20       9.0957     -0.00000
     21       9.8383     -0.00000
     22       9.8383     -0.00000
     23      10.7261      0.00000
     24      18.2087      0.00000

 k-point   201 :       0.3333    0.3333    0.3333
  band No.  band energies     occupation 
      1      -0.7723      1.00000
      2       1.1207      1.00000
      3       1.8743      1.00000
      4       1.8743      1.00000
      5       2.8547      1.00000
      6       2.8957      1.00000
      7       2.8957      1.00000
      8       3.3260      1.00000
      9       3.3330      1.00000
     10       3.3330      1.00000
     11       3.7405      1.00000
     12       4.1770      1.00000
     13       4.1770      1.00000
     14       4.3734      1.00000
     15       4.3734      1.00000
     16       4.9587      1.03245
     17       5.4743     -0.03534
     18       5.8569     -0.00005
     19       5.8569     -0.00005
     20       9.3847     -0.00000
     21       9.6675     -0.00000
     22       9.6675     -0.00000
     23      12.9589      0.00000
     24      18.1252      0.00000

 k-point   202 :       0.3889    0.3333    0.3333
  band No.  band energies     occupation 
      1      -0.5062      1.00000
      2       1.0705      1.00000
      3       1.6677      1.00000
      4       2.0228      1.00000
      5       2.8696      1.00000
      6       2.9074      1.00000
      7       2.9733      1.00000
      8       3.3477      1.00000
      9       3.3498      1.00000
     10       3.4487      1.00000
     11       3.6777      1.00000
     12       4.1622      1.00000
     13       4.1885      1.00000
     14       4.3836      1.00000
     15       4.3836      1.00000
     16       4.9414      1.02908
     17       5.1998      0.64583
     18       5.8283     -0.00011
     19       5.8691     -0.00003
     20       8.9232     -0.00000
     21       9.2644     -0.00000
     22       9.9394     -0.00000
     23      12.2955      0.00000
     24      18.3624      0.00000

 k-point   203 :       0.4444    0.3333    0.3333
  band No.  band energies     occupation 
      1      -0.2816      1.00000
      2       1.0009      1.00000
      3       1.5173      1.00000
      4       2.1203      1.00000
      5       2.8658      1.00000
      6       2.9295      1.00000
      7       3.0435      1.00000
      8       3.3571      1.00000
      9       3.3641      1.00000
     10       3.5321      1.00000
     11       3.6375      1.00000
     12       4.1628      1.00000
     13       4.2097      1.00000
     14       4.3776      1.00000
     15       4.4460      1.00000
     16       4.8631      1.01227
     17       4.9124      1.02251
     18       5.8083     -0.00019
     19       6.0043     -0.00000
     20       8.5601     -0.00000
     21       9.0193     -0.00000
     22      10.2967     -0.00000
     23      11.7426      0.00000
     24      18.5395      0.00000

 k-point   204 :       0.5000    0.3333    0.3333
  band No.  band energies     occupation 
      1      -0.1858      1.00000
      2       0.9586      1.00000
      3       1.4650      1.00000
      4       2.1536      1.00000
      5       2.8636      1.00000
      6       2.9411      1.00000
      7       3.0715      1.00000
      8       3.3604      1.00000
      9       3.3691      1.00000
     10       3.5579      1.00000
     11       3.6235      1.00000
     12       4.1690      1.00000
     13       4.2231      1.00000
     14       4.3697      1.00000
     15       4.5697      1.00001
     16       4.6374      1.00010
     17       4.8984      1.01932
     18       5.8012     -0.00023
     19       6.0646     -0.00000
     20       8.4253     -0.00000
     21       8.9374     -0.00000
     22      10.5057     -0.00000
     23      11.4695      0.00000
     24      18.6066      0.00000

 k-point   205 :       0.3889    0.3889    0.3333
  band No.  band energies     occupation 
      1      -0.2917      1.00000
      2       1.1041      1.00000
      3       1.6568      1.00000
      4       1.9632      1.00000
      5       2.9215      1.00000
      6       2.9777      1.00000
      7       2.9779      1.00000
      8       3.3714      1.00000
      9       3.3737      1.00000
     10       3.5979      1.00000
     11       3.6130      1.00000
     12       4.1671      1.00000
     13       4.1730      1.00000
     14       4.3755      1.00000
     15       4.4057      1.00000
     16       4.9324      1.02710
     17       5.1748      0.74202
     18       5.5360     -0.02740
     19       5.7847     -0.00035
     20       8.6812     -0.00000
     21       9.3848     -0.00000
     22       9.4971     -0.00000
     23      11.6347      0.00000
     24      18.7903      0.00000

 k-point   206 :       0.4444    0.3889    0.3333
  band No.  band energies     occupation 
      1      -0.1269      1.00000
      2       1.1461      1.00000
      3       1.5330      1.00000
      4       1.9976      1.00000
      5       2.9467      1.00000
      6       2.9972      1.00000
      7       3.0437      1.00000
      8       3.3881      1.00000
      9       3.3910      1.00000
     10       3.5702      1.00000
     11       3.7005      1.00000
     12       4.1771      1.00000
     13       4.1827      1.00000
     14       4.3743      1.00000
     15       4.4498      1.00000
     16       4.8895      1.01739
     17       4.9269      1.02586
     18       5.5228     -0.03024
     19       5.7350     -0.00115
     20       8.4932     -0.00000
     21       9.1064     -0.00000
     22       9.7638     -0.00000
     23      11.0844      0.00000
     24      19.0034      0.00000

 k-point   207 :       0.5000    0.3889    0.3333
  band No.  band energies     occupation 
      1      -0.0631      1.00000
      2       1.1760      1.00000
      3       1.4600      1.00000
      4       2.0176      1.00000
      5       2.9511      1.00000
      6       3.0120      1.00000
      7       3.0715      1.00000
      8       3.3952      1.00000
      9       3.3955      1.00000
     10       3.5548      1.00000
     11       3.7312      1.00000
     12       4.1899      1.00000
     13       4.1905      1.00000
     14       4.3706      1.00000
     15       4.5308      1.00000
     16       4.7196      1.00082
     17       4.8953      1.01865
     18       5.5447     -0.02542
     19       5.7152     -0.00178
     20       8.4336     -0.00000
     21       8.9889     -0.00000
     22       9.9647     -0.00000
     23      10.8075      0.00000
     24      19.0811      0.00000

 k-point   208 :       0.4444    0.4444    0.3333
  band No.  band energies     occupation 
      1      -0.0184      1.00000
      2       1.2784      1.00000
      3       1.5105      1.00000
      4       1.9119      1.00000
      5       3.0185      1.00000
      6       3.0459      1.00000
      7       3.0527      1.00000
      8       3.4113      1.00000
      9       3.4134      1.00000
     10       3.5234      1.00000
     11       3.8124      1.00000
     12       4.1972      1.00000
     13       4.2024      1.00000
     14       4.3528      1.00000
     15       4.4680      1.00000
     16       4.8703      1.01356
     17       4.8713      1.01375
     18       5.3520      0.08648
     19       5.5320     -0.02829
     20       8.5029     -0.00000
     21       9.3245     -0.00000
     22       9.4015     -0.00000
     23      10.5390     -0.00000
     24      19.2363      0.00000

 k-point   209 :       0.5000    0.4444    0.3333
  band No.  band energies     occupation 
      1       0.0208      1.00000
      2       1.3654      1.00000
      3       1.4591      1.00000
      4       1.8843      1.00000
      5       3.0367      1.00000
      6       3.0592      1.00000
      7       3.0756      1.00000
      8       3.4197      1.00000
      9       3.4231      1.00000
     10       3.5053      1.00000
     11       3.8396      1.00000
     12       4.2190      1.00000
     13       4.2266      1.00000
     14       4.3393      1.00000
     15       4.5010      1.00000
     16       4.7734      1.00262
     17       4.8599      1.01173
     18       5.3637      0.06110
     19       5.4168     -0.01303
     20       8.5390     -0.00000
     21       9.1950     -0.00000
     22       9.5511     -0.00000
     23      10.2601     -0.00000
     24      19.3198      0.00000

 k-point   210 :       0.5000    0.5000    0.3333
  band No.  band energies     occupation 
      1       0.0507      1.00000
      2       1.4593      1.00000
      3       1.4593      1.00000
      4       1.8106      1.00000
      5       3.0742      1.00000
      6       3.0742      1.00000
      7       3.0804      1.00000
      8       3.4331      1.00000
      9       3.4331      1.00000
     10       3.4845      1.00000
     11       3.8598      1.00000
     12       4.2721      1.00000
     13       4.2721      1.00000
     14       4.2922      1.00000
     15       4.4901      1.00000
     16       4.7799      1.00299
     17       4.8337      1.00784
     18       5.3000      0.24005
     19       5.3000      0.24005
     20       8.6183     -0.00000
     21       9.3708     -0.00000
     22       9.3708     -0.00000
     23       9.9745     -0.00000
     24      19.4049      0.00000

 k-point   211 :       0.3889    0.3889    0.3889
  band No.  band energies     occupation 
      1      -0.1389      1.00000
      2       1.1735      1.00000
      3       1.7988      1.00000
      4       1.7988      1.00000
      5       2.9986      1.00000
      6       3.0275      1.00000
      7       3.0275      1.00000
      8       3.3924      1.00000
      9       3.3924      1.00000
     10       3.5517      1.00000
     11       3.7789      1.00000
     12       4.1582      1.00000
     13       4.1582      1.00000
     14       4.3858      1.00000
     15       4.3858      1.00000
     16       4.9476      1.03038
     17       5.2535      0.42130
     18       5.4214     -0.01668
     19       5.4214     -0.01668
     20       8.6285     -0.00000
     21       9.1360     -0.00000
     22       9.1360     -0.00000
     23      10.9829      0.00000
     24      19.8337      0.00000

 k-point   212 :       0.4444    0.3889    0.3889
  band No.  band energies     occupation 
      1      -0.0339      1.00000
      2       1.2751      1.00000
      3       1.6341      1.00000
      4       1.8900      1.00000
      5       3.0323      1.00000
      6       3.0881      1.00000
      7       3.0931      1.00000
      8       3.4061      1.00000
      9       3.4086      1.00000
     10       3.5104      1.00000
     11       3.8941      1.00000
     12       4.1518      1.00000
     13       4.1736      1.00000
     14       4.3810      1.00000
     15       4.4057      1.00000
     16       4.9324      1.02711
     17       4.9939      1.03540
     18       5.3488      0.09409
     19       5.4370     -0.02621
     20       8.3945     -0.00000
     21       8.9218     -0.00000
     22       9.3165     -0.00000
     23      10.4428     -0.00000
     24      20.0155      0.00000

 k-point   213 :       0.5000    0.3889    0.3889
  band No.  band energies     occupation 
      1       0.0034      1.00000
      2       1.3585      1.00000
      3       1.5287      1.00000
      4       1.9207      1.00000
      5       3.0412      1.00000
      6       3.1169      1.00000
      7       3.1252      1.00000
      8       3.4077      1.00000
      9       3.4160      1.00000
     10       3.4949      1.00000
     11       3.9211      1.00000
     12       4.1496      1.00000
     13       4.1927      1.00000
     14       4.3749      1.00000
     15       4.4591      1.00000
     16       4.8273      1.00706
     17       4.9196      1.02417
     18       5.3266      0.15328
     19       5.4724     -0.03523
     20       8.2914     -0.00000
     21       8.8512     -0.00000
     22       9.4936     -0.00000
     23      10.1648     -0.00000
     24      20.0836      0.00000

 k-point   214 :       0.4444    0.4444    0.3889
  band No.  band energies     occupation 
      1       0.0252      1.00000
      2       1.4092      1.00000
      3       1.6497      1.00000
      4       1.8259      1.00000
      5       3.1171      1.00000
      6       3.1367      1.00000
      7       3.1682      1.00000
      8       3.4222      1.00000
      9       3.4236      1.00000
     10       3.4691      1.00000
     11       3.9979      1.00000
     12       4.1687      1.00000
     13       4.1765      1.00000
     14       4.3493      1.00000
     15       4.3963      1.00000
     16       4.9220      1.02471
     17       5.0047      1.03453
     18       5.1761      0.73697
     19       5.2857      0.29232
     20       8.2983     -0.00000
     21       8.9711     -0.00000
     22       9.0656     -0.00000
     23       9.9193     -0.00000
     24      20.4168      0.00000

 k-point   215 :       0.5000    0.4444    0.3889
  band No.  band energies     occupation 
      1       0.0452      1.00000
      2       1.5137      1.00000
      3       1.5791      1.00000
      4       1.8227      1.00000
      5       3.1397      1.00000
      6       3.1703      1.00000
      7       3.2057      1.00000
      8       3.4228      1.00000
      9       3.4329      1.00000
     10       3.4527      1.00000
     11       4.0013      1.00000
     12       4.1777      1.00000
     13       4.2074      1.00000
     14       4.3348      1.00000
     15       4.4092      1.00000
     16       4.9010      1.01989
     17       4.9344      1.02754
     18       5.1689      0.76305
     19       5.2388      0.48346
     20       8.2576     -0.00000
     21       8.9106     -0.00000
     22       9.1670     -0.00000
     23       9.6452     -0.00000
     24      20.5120      0.00000

 k-point   216 :       0.5000    0.5000    0.3889
  band No.  band energies     occupation 
      1       0.0594      1.00000
      2       1.5977      1.00000
      3       1.5977      1.00000
      4       1.7585      1.00000
      5       3.1861      1.00000
      6       3.1861      1.00000
      7       3.2495      1.00000
      8       3.4335      1.00000
      9       3.4342      1.00000
     10       3.4342      1.00000
     11       3.9876      1.00000
     12       4.2355      1.00000
     13       4.2355      1.00000
     14       4.2811      1.00000
     15       4.3986      1.00000
     16       4.8909      1.01769
     17       4.9962      1.03530
     18       5.1131      0.92382
     19       5.1131      0.92382
     20       8.2627     -0.00000
     21       9.0432     -0.00000
     22       9.0432     -0.00000
     23       9.3612     -0.00000
     24      20.6175      0.00000

 k-point   217 :       0.4444    0.4444    0.4444
  band No.  band energies     occupation 
      1       0.0513      1.00000
      2       1.5316      1.00000
      3       1.7386      1.00000
      4       1.7386      1.00000
      5       3.2305      1.00000
      6       3.2436      1.00000
      7       3.2436      1.00000
      8       3.4325      1.00000
      9       3.4361      1.00000
     10       3.4361      1.00000
     11       4.1288      1.00000
     12       4.1321      1.00000
     13       4.1321      1.00000
     14       4.3319      1.00000
     15       4.3319      1.00000
     16       4.9406      1.02890
     17       5.0586      1.00799
     18       5.0586      1.00799
     19       5.1342      0.87202
     20       8.1559     -0.00000
     21       8.8689     -0.00000
     22       8.8689     -0.00000
     23       9.4351     -0.00000
     24      21.4635      0.00000

 k-point   218 :       0.5000    0.4444    0.4444
  band No.  band energies     occupation 
      1       0.0600      1.00000
      2       1.6246      1.00000
      3       1.6586      1.00000
      4       1.7686      1.00000
      5       3.2620      1.00000
      6       3.2952      1.00000
      7       3.3027      1.00000
      8       3.4176      1.00000
      9       3.4301      1.00000
     10       3.4475      1.00000
     11       4.1023      1.00000
     12       4.1127      1.00000
     13       4.1717      1.00000
     14       4.3135      1.00000
     15       4.3221      1.00000
     16       4.9334      1.02733
     17       4.9878      1.03544
     18       5.0301      1.02743
     19       5.1635      0.78184
     20       8.0956     -0.00000
     21       8.8045     -0.00000
     22       8.9314     -0.00000
     23       9.1847     -0.00000
     24      21.5388      0.00000

 k-point   219 :       0.5000    0.5000    0.4444
  band No.  band energies     occupation 
      1       0.0649      1.00000
      2       1.6860      1.00000
      3       1.6860      1.00000
      4       1.7266      1.00000
      5       3.3241      1.00000
      6       3.3241      1.00000
      7       3.3894      1.00000
      8       3.4023      1.00000
      9       3.4378      1.00000
     10       3.4378      1.00000
     11       4.0619      1.00000
     12       4.1471      1.00000
     13       4.1471      1.00000
     14       4.2739      1.00000
     15       4.3111      1.00000
     16       4.9262      1.02569
     17       4.9823      1.03525
     18       4.9823      1.03525
     19       5.1804      0.72129
     20       8.0429     -0.00000
     21       8.8522     -0.00000
     22       8.8522     -0.00000
     23       8.9422     -0.00000
     24      21.7956      0.00000

 k-point   220 :       0.5000    0.5000    0.5000
  band No.  band energies     occupation 
      1       0.0667      1.00000
      2       1.7159      1.00000
      3       1.7159      1.00000
      4       1.7159      1.00000
      5       3.3918      1.00000
      6       3.3918      1.00000
      7       3.3918      1.00000
      8       3.4477      1.00000
      9       3.4477      1.00000
     10       3.4477      1.00000
     11       4.0860      1.00000
     12       4.0860      1.00000
     13       4.0860      1.00000
     14       4.2714      1.00000
     15       4.2714      1.00000
     16       4.9381      1.02837
     17       4.9381      1.02837
     18       4.9381      1.02837
     19       5.2554      0.41361
     20       7.9684     -0.00000
     21       8.7898     -0.00000
     22       8.7898     -0.00000
     23       8.7898     -0.00000
     24      22.5572      0.00000
 Fermi energy:         5.2348548188

 spin component 2

 k-point     1 :       0.0000    0.0000    0.0000
  band No.  band energies     occupation 
      1      -4.0887      1.00000
      2       1.5453      1.00000
      3       2.2256      1.00000
      4       2.2256      1.00000
      5       2.6618      1.00000
      6       2.6619      1.00000
      7       2.6619      1.00000
      8       4.2435      1.00000
      9       4.2435      1.00000
     10       4.2435      1.00000
     11       4.8883      1.01713
     12       4.8883      1.01713
     13       5.2484      0.44301
     14       5.5540     -0.02327
     15       5.5540     -0.02327
     16       5.5540     -0.02327
     17       6.0658     -0.00000
     18       6.0658     -0.00000
     19       6.0658     -0.00000
     20      11.3493      0.00000
     21      11.3493      0.00000
     22      11.6208      0.00000
     23      16.6444      0.00000
     24      16.6444      0.00000

 k-point     2 :       0.0556    0.0000    0.0000
  band No.  band energies     occupation 
      1      -4.0538      1.00000
      2       1.5550      1.00000
      3       2.1991      1.00000
      4       2.2474      1.00000
      5       2.6651      1.00000
      6       2.6651      1.00000
      7       2.6703      1.00000
      8       4.2232      1.00000
      9       4.2232      1.00000
     10       4.2346      1.00000
     11       4.8698      1.01348
     12       4.8886      1.01720
     13       5.2364      0.49337
     14       5.4286     -0.02159
     15       5.4286     -0.02159
     16       5.5540     -0.02326
     17       5.9084     -0.00001
     18       6.2394     -0.00000
     19       6.2394     -0.00000
     20      11.3503      0.00000
     21      11.4575      0.00000
     22      11.7702      0.00000
     23      16.4956      0.00000
     24      16.5163      0.00000

 k-point     3 :       0.1111    0.0000    0.0000
  band No.  band energies     occupation 
      1      -3.9491      1.00000
      2       1.5747      1.00000
      3       2.1196      1.00000
      4       2.3116      1.00000
      5       2.6745      1.00000
      6       2.6745      1.00000
      7       2.6953      1.00000
      8       4.1665      1.00000
      9       4.1665      1.00000
     10       4.2083      1.00000
     11       4.8101      1.00525
     12       4.8891      1.01731
     13       5.2009      0.64127
     14       5.2257      0.53852
     15       5.2257      0.53850
     16       5.5319     -0.02830
     17       5.5541     -0.02324
     18       6.5843     -0.00000
     19       6.5843     -0.00000
     20      11.3535      0.00000
     21      11.5340      0.00000
     22      12.3806      0.00000
     23      15.9646      0.00000
     24      15.9646      0.00000

 k-point     4 :       0.1667    0.0000    0.0000
  band No.  band energies     occupation 
      1      -3.7757      1.00000
      2       1.5546      1.00000
      3       2.0110      1.00000
      4       2.4151      1.00000
      5       2.6889      1.00000
      6       2.6889      1.00000
      7       2.7354      1.00000
      8       4.0847      1.00000
      9       4.0847      1.00000
     10       4.1661      1.00000
     11       4.6870      1.00037
     12       4.8882      1.01713
     13       5.0388      1.02294
     14       5.0388      1.02293
     15       5.1280      0.88834
     16       5.1436      0.84516
     17       5.5542     -0.02321
     18       6.9995     -0.00000
     19       6.9995     -0.00000
     20      11.3589      0.00000
     21      11.5894      0.00000
     22      13.2767      0.00000
     23      15.1811      0.00000
     24      15.1811      0.00000

 k-point     5 :       0.2222    0.0000    0.0000
  band No.  band energies     occupation 
      1      -3.5354      1.00000
      2       1.3624      1.00000
      3       1.9768      1.00000
      4       2.5519      1.00000
      5       2.7061      1.00000
      6       2.7061      1.00000
      7       2.7880      1.00000
      8       3.9937      1.00000
      9       3.9937      1.00000
     10       4.1109      1.00000
     11       4.4676      1.00000
     12       4.8586      1.01151
     13       4.8775      1.01494
     14       4.8775      1.01494
     15       4.8808      1.01561
     16       5.0702      0.99578
     17       5.5544     -0.02317
     18       7.4655     -0.00000
     19       7.4655     -0.00000
     20      11.3664      0.00000
     21      11.6581      0.00000
     22      14.1992      0.00000
     23      14.3354      0.00000
     24      14.3354      0.00000

 k-point     6 :       0.2778    0.0000    0.0000
  band No.  band energies     occupation 
      1      -3.2313      1.00000
      2       0.9664      1.00000
      3       2.0409      1.00000
      4       2.7130      1.00000
      5       2.7239      1.00000
      6       2.7239      1.00000
      7       2.8495      1.00000
      8       3.9085      1.00000
      9       3.9085      1.00000
     10       4.0467      1.00000
     11       4.2384      1.00000
     12       4.6984      1.00049
     13       4.7399      1.00129
     14       4.7399      1.00129
     15       4.8499      1.01011
     16       5.0002      1.03502
     17       5.5546     -0.02313
     18       7.9762     -0.00000
     19       7.9762     -0.00000
     20      11.3757      0.00000
     21      11.7463      0.00000
     22      13.4943      0.00000
     23      13.4943      0.00000
     24      14.4053      0.00000

 k-point     7 :       0.3333    0.0000    0.0000
  band No.  band energies     occupation 
      1      -2.8685      1.00000
      2       0.4541      1.00000
      3       2.1390      1.00000
      4       2.7396      1.00000
      5       2.7396      1.00000
      6       2.8850      1.00000
      7       2.9140      1.00000
      8       3.8400      1.00000
      9       3.8400      1.00000
     10       3.9795      1.00000
     11       4.0827      1.00000
     12       4.5701      1.00001
     13       4.6254      1.00007
     14       4.6254      1.00007
     15       4.7706      1.00248
     16       4.9647      1.03341
     17       5.5547     -0.02310
     18       8.5285     -0.00000
     19       8.5285     -0.00000
     20      11.3861      0.00000
     21      11.8542      0.00000
     22      12.6790      0.00000
     23      12.6790      0.00000
     24      14.0626      0.00000

 k-point     8 :       0.3889    0.0000    0.0000
  band No.  band energies     occupation 
      1      -2.4581      1.00000
      2      -0.1007      1.00000
      3       2.2347      1.00000
      4       2.7514      1.00000
      5       2.7514      1.00000
      6       2.9734      1.00000
      7       3.0475      1.00000
      8       3.7930      1.00000
      9       3.7930      1.00000
     10       3.9180      1.00000
     11       3.9973      1.00000
     12       4.4611      1.00000
     13       4.5370      1.00000
     14       4.5370      1.00000
     15       4.6653      1.00021
     16       4.9546      1.03173
     17       5.5549     -0.02307
     18       9.1200     -0.00000
     19       9.1200     -0.00000
     20      11.3960      0.00000
     21      11.8976      0.00000
     22      11.8976      0.00000
     23      11.9749      0.00000
     24      13.7055      0.00000

 k-point     9 :       0.4444    0.0000    0.0000
  band No.  band energies     occupation 
      1      -2.0343      1.00000
      2      -0.6249      1.00000
      3       2.3041      1.00000
      4       2.7584      1.00000
      5       2.7584      1.00000
      6       3.0168      1.00000
      7       3.1704      1.00000
      8       3.7669      1.00000
      9       3.7669      1.00000
     10       3.8732      1.00000
     11       3.9593      1.00000
     12       4.3833      1.00000
     13       4.4801      1.00000
     14       4.4801      1.00000
     15       4.5757      1.00002
     16       4.9522      1.03128
     17       5.5549     -0.02305
     18       9.7464     -0.00000
     19       9.7464     -0.00000
     20      11.1569      0.00000
     21      11.1569      0.00000
     22      11.4033      0.00000
     23      12.0847      0.00000
     24      13.4406      0.00000

 k-point    10 :       0.5000    0.0000    0.0000
  band No.  band energies     occupation 
      1      -1.7812      1.00000
      2      -0.9136      1.00000
      3       2.3296      1.00000
      4       2.7607      1.00000
      5       2.7607      1.00000
      6       3.0329      1.00000
      7       3.2177      1.00000
      8       3.7587      1.00000
      9       3.7587      1.00000
     10       3.8565      1.00000
     11       3.9494      1.00000
     12       4.3544      1.00000
     13       4.4604      1.00000
     14       4.4604      1.00000
     15       4.5397      1.00001
     16       4.9518      1.03120
     17       5.5550     -0.02304
     18      10.2924     -0.00000
     19      10.2924     -0.00000
     20      10.5726     -0.00000
     21      10.5726     -0.00000
     22      11.4061      0.00000
     23      12.1333      0.00000
     24      13.3385      0.00000

 k-point    11 :       0.0556    0.0556    0.0000
  band No.  band energies     occupation 
      1      -4.0188      1.00000
      2       1.5650      1.00000
      3       2.1969      1.00000
      4       2.2448      1.00000
      5       2.6605      1.00000
      6       2.6680      1.00000
      7       2.6868      1.00000
      8       4.1773      1.00000
      9       4.2034      1.00000
     10       4.2527      1.00000
     11       4.8605      1.01182
     12       4.8797      1.01539
     13       5.2221      0.55382
     14       5.3019      0.23306
     15       5.3554      0.07870
     16       5.5395     -0.02662
     17       5.9788     -0.00000
     18       6.1842     -0.00000
     19       6.3739     -0.00000
     20      11.3989      0.00000
     21      11.5928      0.00000
     22      11.8499      0.00000
     23      16.0654      0.00000
     24      16.4126      0.00000

 k-point    12 :       0.1111    0.0556    0.0000
  band No.  band energies     occupation 
      1      -3.9143      1.00000
      2       1.5864      1.00000
      3       2.1265      1.00000
      4       2.2990      1.00000
      5       2.6639      1.00000
      6       2.6765      1.00000
      7       2.7182      1.00000
      8       4.1018      1.00000
      9       4.1485      1.00000
     10       4.2489      1.00000
     11       4.8018      1.00452
     12       4.8768      1.01482
     13       5.0759      0.98874
     14       5.1923      0.67544
     15       5.1941      0.66845
     16       5.5314     -0.02842
     17       5.6826     -0.00343
     18       6.4544     -0.00000
     19       6.6826     -0.00000
     20      11.4168      0.00000
     21      11.7249      0.00000
     22      12.4017      0.00000
     23      15.3814      0.00000
     24      15.9809      0.00000

 k-point    13 :       0.1667    0.0556    0.0000
  band No.  band energies     occupation 
      1      -3.7412      1.00000
      2       1.5705      1.00000
      3       2.0173      1.00000
      4       2.3995      1.00000
      5       2.6752      1.00000
      6       2.6901      1.00000
      7       2.7619      1.00000
      8       4.0106      1.00000
      9       4.0707      1.00000
     10       4.2219      1.00000
     11       4.6606      1.00019
     12       4.8664      1.01287
     13       4.8868      1.01684
     14       5.0206      1.03103
     15       5.1332      0.87460
     16       5.3189      0.17686
     17       5.5293     -0.02887
     18       6.8439     -0.00000
     19       7.0780     -0.00000
     20      11.4318      0.00000
     21      11.7877      0.00000
     22      13.2969      0.00000
     23      14.5967      0.00000
     24      15.2177      0.00000

 k-point    14 :       0.2222    0.0556    0.0000
  band No.  band energies     occupation 
      1      -3.5013      1.00000
      2       1.3830      1.00000
      3       1.9815      1.00000
      4       2.5309      1.00000
      5       2.6918      1.00000
      6       2.7096      1.00000
      7       2.8157      1.00000
      8       3.9169      1.00000
      9       3.9856      1.00000
     10       4.1752      1.00000
     11       4.4240      1.00000
     12       4.7341      1.00114
     13       4.8647      1.01256
     14       4.8701      1.01354
     15       5.0225      1.03040
     16       5.0860      0.97438
     17       5.5289     -0.02895
     18       7.2829     -0.00000
     19       7.5320     -0.00000
     20      11.4478      0.00000
     21      11.8617      0.00000
     22      13.7635      0.00000
     23      14.2968      0.00000
     24      14.3735      0.00000

 k-point    15 :       0.2778    0.0556    0.0000
  band No.  band energies     occupation 
      1      -3.1977      1.00000
      2       0.9896      1.00000
      3       2.0465      1.00000
      4       2.6602      1.00000
      5       2.7108      1.00000
      6       2.7559      1.00000
      7       2.8758      1.00000
      8       3.8343      1.00000
      9       3.9045      1.00000
     10       4.1130      1.00000
     11       4.2052      1.00000
     12       4.6126      1.00005
     13       4.7298      1.00103
     14       4.8215      1.00640
     15       4.8734      1.01416
     16       4.9988      1.03514
     17       5.5290     -0.02893
     18       7.7614     -0.00000
     19       8.0345     -0.00000
     20      11.4589      0.00000
     21      11.9528      0.00000
     22      13.0098      0.00000
     23      13.5325      0.00000
     24      14.6506      0.00000

 k-point    16 :       0.3333    0.0556    0.0000
  band No.  band energies     occupation 
      1      -2.8357      1.00000
      2       0.4798      1.00000
      3       2.1463      1.00000
      4       2.7068      1.00000
      5       2.7291      1.00000
      6       2.8941      1.00000
      7       2.9362      1.00000
      8       3.7747      1.00000
      9       3.8309      1.00000
     10       4.0399      1.00000
     11       4.0686      1.00000
     12       4.4968      1.00000
     13       4.6187      1.00006
     14       4.7005      1.00052
     15       4.7855      1.00333
     16       4.9574      1.03222
     17       5.5292     -0.02888
     18       8.2746     -0.00000
     19       8.5808     -0.00000
     20      11.4366      0.00000
     21      12.0223      0.00000
     22      12.3570      0.00000
     23      12.7178      0.00000
     24      14.3231      0.00000

 k-point    17 :       0.3889    0.0556    0.0000
  band No.  band energies     occupation 
      1      -2.4263      1.00000
      2      -0.0728      1.00000
      3       2.2444      1.00000
      4       2.7192      1.00000
      5       2.7440      1.00000
      6       2.9888      1.00000
      7       3.0539      1.00000
      8       3.7456      1.00000
      9       3.7690      1.00000
     10       3.9622      1.00000
     11       4.0067      1.00000
     12       4.3938      1.00000
     13       4.5350      1.00000
     14       4.6004      1.00003
     15       4.6814      1.00032
     16       4.9459      1.03003
     17       5.5295     -0.02883
     18       8.8180     -0.00000
     19       9.1675     -0.00000
     20      11.2161      0.00000
     21      11.7798      0.00000
     22      11.9379      0.00000
     23      12.2698      0.00000
     24      13.9501      0.00000

 k-point    18 :       0.4444    0.0556    0.0000
  band No.  band energies     occupation 
      1      -2.0040      1.00000
      2      -0.5947      1.00000
      3       2.3164      1.00000
      4       2.7230      1.00000
      5       2.7535      1.00000
      6       3.0248      1.00000
      7       3.1799      1.00000
      8       3.7272      1.00000
      9       3.7478      1.00000
     10       3.8910      1.00000
     11       3.9874      1.00000
     12       4.3187      1.00000
     13       4.4827      1.00000
     14       4.5409      1.00001
     15       4.5887      1.00002
     16       4.9433      1.02949
     17       5.5297     -0.02879
     18       9.3808     -0.00000
     19       9.7894     -0.00000
     20      10.6784     -0.00000
     21      11.1998      0.00000
     22      11.6874      0.00000
     23      12.3847      0.00000
     24      13.6656      0.00000

 k-point    19 :       0.5000    0.0556    0.0000
  band No.  band energies     occupation 
      1      -1.7523      1.00000
      2      -0.8817      1.00000
      3       2.3431      1.00000
      4       2.7235      1.00000
      5       2.7567      1.00000
      6       3.0376      1.00000
      7       3.2297      1.00000
      8       3.7118      1.00000
      9       3.7603      1.00000
     10       3.8547      1.00000
     11       3.9845      1.00000
     12       4.2902      1.00000
     13       4.4650      1.00000
     14       4.5303      1.00000
     15       4.5419      1.00001
     16       4.9429      1.02940
     17       5.5297     -0.02878
     18       9.8113     -0.00000
     19      10.2344     -0.00000
     20      10.3244     -0.00000
     21      10.6260     -0.00000
     22      11.6769      0.00000
     23      12.4421      0.00000
     24      13.5528      0.00000

 k-point    20 :       0.1111    0.1111    0.0000
  band No.  band energies     occupation 
      1      -3.8103      1.00000
      2       1.6140      1.00000
      3       2.1083      1.00000
      4       2.2966      1.00000
      5       2.6575      1.00000
      6       2.6828      1.00000
      7       2.7605      1.00000
      8       4.0034      1.00000
      9       4.1001      1.00000
     10       4.2792      1.00000
     11       4.7325      1.00110
     12       4.8548      1.01088
     13       4.8852      1.01650
     14       5.0967      0.95666
     15       5.1600      0.79349
     16       5.4962     -0.03453
     17       5.7830     -0.00037
     18       6.2975     -0.00000
     19       6.9379     -0.00000
     20      11.4491      0.00000
     21      12.2664      0.00000
     22      12.5570      0.00000
     23      14.5652      0.00000
     24      15.9194      0.00000

 k-point    21 :       0.1667    0.1111    0.0000
  band No.  band energies     occupation 
      1      -3.6380      1.00000
      2       1.6138      1.00000
      3       2.0168      1.00000
      4       2.3647      1.00000
      5       2.6606      1.00000
      6       2.6950      1.00000
      7       2.8141      1.00000
      8       3.8971      1.00000
      9       4.0350      1.00000
     10       4.2831      1.00000
     11       4.5274      1.00000
     12       4.7743      1.00267
     13       4.8474      1.00974
     14       4.9640      1.03330
     15       5.1025      0.94576
     16       5.4753     -0.03538
     17       5.5266     -0.02945
     18       6.5155     -0.00000
     19       7.2940     -0.00000
     20      11.4709      0.00000
     21      12.4444      0.00000
     22      13.3622      0.00000
     23      13.7328      0.00000
     24      15.3217      0.00000

 k-point    22 :       0.2222    0.1111    0.0000
  band No.  band energies     occupation 
      1      -3.3994      1.00000
      2       1.4433      1.00000
      3       1.9811      1.00000
      4       2.4747      1.00000
      5       2.6717      1.00000
      6       2.7197      1.00000
      7       2.8752      1.00000
      8       3.7962      1.00000
      9       3.9670      1.00000
     10       4.2603      1.00000
     11       4.2926      1.00000
     12       4.6721      1.00025
     13       4.8245      1.00674
     14       4.8406      1.00877
     15       5.0212      1.03083
     16       5.2458      0.45357
     17       5.4656     -0.03460
     18       6.8770     -0.00000
     19       7.7202     -0.00000
     20      11.4838      0.00000
     21      12.5068      0.00000
     22      12.9759      0.00000
     23      14.3543      0.00000
     24      14.4861      0.00000

 k-point    23 :       0.2778    0.1111    0.0000
  band No.  band energies     occupation 
      1      -3.0975      1.00000
      2       1.0581      1.00000
      3       2.0520      1.00000
      4       2.5767      1.00000
      5       2.6886      1.00000
      6       2.7820      1.00000
      7       2.9377      1.00000
      8       3.7149      1.00000
      9       3.8936      1.00000
     10       4.1123      1.00000
     11       4.2100      1.00000
     12       4.5573      1.00001
     13       4.6982      1.00049
     14       4.8087      1.00512
     15       4.9316      1.02693
     16       5.0538      1.01232
     17       5.4612     -0.03394
     18       7.2863     -0.00000
     19       8.2023     -0.00000
     20      11.4324      0.00000
     21      12.1653      0.00000
     22      12.7619      0.00000
     23      13.6455      0.00000
     24      14.8808      0.00000

 k-point    24 :       0.3333    0.1111    0.0000
  band No.  band energies     occupation 
      1      -2.7377      1.00000
      2       0.5556      1.00000
      3       2.1586      1.00000
      4       2.6239      1.00000
      5       2.7080      1.00000
      6       2.9102      1.00000
      7       2.9923      1.00000
      8       3.6679      1.00000
      9       3.7992      1.00000
     10       4.0330      1.00000
     11       4.1319      1.00000
     12       4.4377      1.00000
     13       4.5979      1.00003
     14       4.7201      1.00083
     15       4.8602      1.01178
     16       4.9475      1.03035
     17       5.4593     -0.03360
     18       7.7287     -0.00000
     19       8.7328     -0.00000
     20      11.0848      0.00000
     21      11.8588      0.00000
     22      12.8327      0.00000
     23      12.8922      0.00000
     24      14.6139      0.00000

 k-point    25 :       0.3889    0.1111    0.0000
  band No.  band energies     occupation 
      1      -2.3314      1.00000
      2       0.0102      1.00000
      3       2.2655      1.00000
      4       2.6323      1.00000
      5       2.7266      1.00000
      6       3.0295      1.00000
      7       3.0666      1.00000
      8       3.6670      1.00000
      9       3.7094      1.00000
     10       4.0220      1.00000
     11       4.0317      1.00000
     12       4.3262      1.00000
     13       4.5290      1.00000
     14       4.6243      1.00007
     15       4.7612      1.00205
     16       4.9212      1.02455
     17       5.4585     -0.03345
     18       8.1991     -0.00000
     19       9.3065     -0.00000
     20      10.4954     -0.00000
     21      11.8298      0.00000
     22      12.0570      0.00000
     23      13.0609      0.00000
     24      14.2614      0.00000

 k-point    26 :       0.4444    0.1111    0.0000
  band No.  band energies     occupation 
      1      -1.9134      1.00000
      2      -0.5049      1.00000
      3       2.3488      1.00000
      4       2.6242      1.00000
      5       2.7402      1.00000
      6       3.0471      1.00000
      7       3.2010      1.00000
      8       3.6447      1.00000
      9       3.7121      1.00000
     10       3.9236      1.00000
     11       4.0349      1.00000
     12       4.2399      1.00000
     13       4.4900      1.00000
     14       4.5633      1.00001
     15       4.6722      1.00026
     16       4.9170      1.02356
     17       5.4582     -0.03339
     18       8.6877     -0.00000
     19       9.9052     -0.00000
     20       9.9155     -0.00000
     21      11.3269      0.00000
     22      11.8511      0.00000
     23      13.2279      0.00000
     24      13.9827      0.00000

 k-point    27 :       0.5000    0.1111    0.0000
  band No.  band energies     occupation 
      1      -1.6662      1.00000
      2      -0.7865      1.00000
      3       2.3822      1.00000
      4       2.6173      1.00000
      5       2.7452      1.00000
      6       3.0515      1.00000
      7       3.2588      1.00000
      8       3.6173      1.00000
      9       3.7648      1.00000
     10       3.8499      1.00000
     11       4.0446      1.00000
     12       4.2046      1.00000
     13       4.4774      1.00000
     14       4.5458      1.00001
     15       4.6339      1.00009
     16       4.9164      1.02343
     17       5.4582     -0.03338
     18       9.0481     -0.00000
     19       9.5085     -0.00000
     20      10.4201     -0.00000
     21      10.7819      0.00000
     22      11.8628      0.00000
     23      13.3145      0.00000
     24      13.8609      0.00000

 k-point    28 :       0.1667    0.1667    0.0000
  band No.  band energies     occupation 
      1      -3.4672      1.00000
      2       1.6563      1.00000
      3       1.9538      1.00000
      4       2.3618      1.00000
      5       2.6554      1.00000
      6       2.7080      1.00000
      7       2.8789      1.00000
      8       3.7800      1.00000
      9       3.9920      1.00000
     10       4.3192      1.00000
     11       4.3206      1.00000
     12       4.7243      1.00091
     13       4.8149      1.00571
     14       4.8700      1.01352
     15       5.0495      1.01576
     16       5.4251     -0.01927
     17       5.5777     -0.01794
     18       6.3328     -0.00000
     19       7.6124     -0.00000
     20      11.4807      0.00000
     21      12.8759      0.00000
     22      13.2532      0.00000
     23      13.5842      0.00000
     24      15.3882      0.00000

 k-point    29 :       0.2222    0.1667    0.0000
  band No.  band energies     occupation 
      1      -3.2307      1.00000
      2       1.5375      1.00000
      3       1.9167      1.00000
      4       2.4200      1.00000
      5       2.6595      1.00000
      6       2.7386      1.00000
      7       2.9507      1.00000
      8       3.6730      1.00000
      9       3.9509      1.00000
     10       4.1150      1.00000
     11       4.3287      1.00000
     12       4.6442      1.00012
     13       4.7534      1.00174
     14       4.7989      1.00429
     15       4.9747      1.03466
     16       5.3894      0.01726
     17       5.3914      0.01453
     18       6.4875     -0.00000
     19       8.0074     -0.00000
     20      11.4003      0.00000
     21      12.1672      0.00000
     22      13.5141      0.00000
     23      14.4574      0.00000
     24      14.6685      0.00000

 k-point    30 :       0.2778    0.1667    0.0000
  band No.  band energies     occupation 
      1      -2.9317      1.00000
      2       1.1676      1.00000
      3       2.0064      1.00000
      4       2.4914      1.00000
      5       2.6712      1.00000
      6       2.8062      1.00000
      7       3.0198      1.00000
      8       3.5924      1.00000
      9       3.8652      1.00000
     10       4.0045      1.00000
     11       4.2981      1.00000
     12       4.5361      1.00000
     13       4.6413      1.00011
     14       4.7730      1.00260
     15       4.8962      1.01884
     16       5.1781      0.72965
     17       5.3717      0.04575
     18       6.7914     -0.00000
     19       8.4639     -0.00000
     20      10.9632      0.00000
     21      11.8789      0.00000
     22      13.6809      0.00000
     23      13.8281      0.00000
     24      15.0602      0.00000

 k-point    31 :       0.3333    0.1667    0.0000
  band No.  band energies     occupation 
      1      -2.5758      1.00000
      2       0.6780      1.00000
      3       2.1288      1.00000
      4       2.5313      1.00000
      5       2.6882      1.00000
      6       2.9256      1.00000
      7       3.0692      1.00000
      8       3.5597      1.00000
      9       3.7354      1.00000
     10       4.0034      1.00000
     11       4.2164      1.00000
     12       4.4151      1.00000
     13       4.5620      1.00001
     14       4.6982      1.00049
     15       4.8588      1.01155
     16       5.0150      1.03261
     17       5.3608      0.06719
     18       7.1524     -0.00000
     19       8.9730     -0.00000
     20      10.3104     -0.00000
     21      11.8782      0.00000
     22      13.0186      0.00000
     23      13.8570      0.00000
     24      14.8529      0.00000

 k-point    32 :       0.3889    0.1667    0.0000
  band No.  band energies     occupation 
      1      -2.1746      1.00000
      2       0.1451      1.00000
      3       2.2516      1.00000
      4       2.5333      1.00000
      5       2.7066      1.00000
      6       3.0764      1.00000
      7       3.0851      1.00000
      8       3.5921      1.00000
      9       3.6320      1.00000
     10       4.0310      1.00000
     11       4.0926      1.00000
     12       4.2961      1.00000
     13       4.5199      1.00000
     14       4.6117      1.00005
     15       4.8352      1.00805
     16       4.9033      1.02042
     17       5.3549      0.07994
     18       7.5521     -0.00000
     19       9.5278     -0.00000
     20       9.6691     -0.00000
     21      11.9335      0.00000
     22      12.2500      0.00000
     23      14.0197      0.00000
     24      14.5509      0.00000

 k-point    33 :       0.4444    0.1667    0.0000
  band No.  band energies     occupation 
      1      -1.7641      1.00000
      2      -0.3579      1.00000
      3       2.3600      1.00000
      4       2.5040      1.00000
      5       2.7216      1.00000
      6       3.0790      1.00000
      7       3.2199      1.00000
      8       3.5530      1.00000
      9       3.6798      1.00000
     10       3.9531      1.00000
     11       4.0664      1.00000
     12       4.1949      1.00000
     13       4.5004      1.00000
     14       4.5585      1.00001
     15       4.7683      1.00237
     16       4.8751      1.01449
     17       5.3520      0.08645
     18       7.9821     -0.00000
     19       9.0878     -0.00000
     20      10.1167     -0.00000
     21      11.5334      0.00000
     22      11.9872      0.00000
     23      14.0938      0.00000
     24      14.3960      0.00000

 k-point    34 :       0.5000    0.1667    0.0000
  band No.  band energies     occupation 
      1      -1.5244      1.00000
      2      -0.6306      1.00000
      3       2.4415      1.00000
      4       2.4498      1.00000
      5       2.7275      1.00000
      6       3.0737      1.00000
      7       3.2922      1.00000
      8       3.5105      1.00000
      9       3.7724      1.00000
     10       3.8444      1.00000
     11       4.0982      1.00000
     12       4.1372      1.00000
     13       4.4946      1.00000
     14       4.5444      1.00001
     15       4.7325      1.00110
     16       4.8728      1.01404
     17       5.3512      0.08844
     18       8.3171     -0.00000
     19       8.7015     -0.00000
     20      10.5791     -0.00000
     21      11.0285      0.00000
     22      12.0092      0.00000
     23      14.0797      0.00000
     24      14.3875      0.00000

 k-point    35 :       0.2222    0.2222    0.0000
  band No.  band energies     occupation 
      1      -2.9973      1.00000
      2       1.6257      1.00000
      3       1.7341      1.00000
      4       2.4236      1.00000
      5       2.6565      1.00000
      6       2.7736      1.00000
      7       3.0356      1.00000
      8       3.5604      1.00000
      9       3.9323      1.00000
     10       3.9506      1.00000
     11       4.3727      1.00000
     12       4.6010      1.00004
     13       4.6546      1.00016
     14       4.7618      1.00207
     15       4.9052      1.02085
     16       5.3278      0.14984
     17       5.3978      0.00629
     18       6.3218     -0.00000
     19       8.3730     -0.00000
     20      10.9168      0.00000
     21      11.8846      0.00000
     22      14.4476      0.00000
     23      14.6612      0.00000
     24      14.9053      0.00000

 k-point    36 :       0.2778    0.2222    0.0000
  band No.  band energies     occupation 
      1      -2.7025      1.00000
      2       1.3105      1.00000
      3       1.8182      1.00000
      4       2.4679      1.00000
      5       2.6619      1.00000
      6       2.8382      1.00000
      7       3.1168      1.00000
      8       3.4767      1.00000
      9       3.7724      1.00000
     10       3.9687      1.00000
     11       4.3721      1.00000
     12       4.5197      1.00000
     13       4.5550      1.00001
     14       4.7310      1.00106
     15       4.8283      1.00718
     16       5.2590      0.39875
     17       5.2823      0.30528
     18       6.4285     -0.00000
     19       8.8032     -0.00000
     20      10.2059     -0.00000
     21      11.8991      0.00000
     22      14.0699      0.00000
     23      14.6949      0.00000
     24      15.2078      0.00000

 k-point    37 :       0.3333    0.2222    0.0000
  band No.  band energies     occupation 
      1      -2.3522      1.00000
      2       0.8402      1.00000
      3       1.9606      1.00000
      4       2.5063      1.00000
      5       2.6735      1.00000
      6       2.9432      1.00000
      7       3.1599      1.00000
      8       3.4602      1.00000
      9       3.6460      1.00000
     10       4.0031      1.00000
     11       4.2811      1.00000
     12       4.4115      1.00000
     13       4.5136      1.00000
     14       4.6613      1.00019
     15       4.7950      1.00399
     16       5.0977      0.95483
     17       5.2529      0.42390
     18       6.6748     -0.00000
     19       9.2885     -0.00000
     20       9.5111     -0.00000
     21      11.9783      0.00000
     22      13.2659      0.00000
     23      14.7426      0.00000
     24      15.2722      0.00000

 k-point    38 :       0.3889    0.2222    0.0000
  band No.  band energies     occupation 
      1      -1.9587      1.00000
      2       0.3263      1.00000
      3       2.0909      1.00000
      4       2.5207      1.00000
      5       2.6880      1.00000
      6       3.0804      1.00000
      7       3.1449      1.00000
      8       3.5348      1.00000
      9       3.5509      1.00000
     10       4.0415      1.00000
     11       4.1333      1.00000
     12       4.2962      1.00000
     13       4.5105      1.00000
     14       4.5814      1.00002
     15       4.7942      1.00393
     16       4.9627      1.03310
     17       5.2353      0.49832
     18       6.9899     -0.00000
     19       8.8781     -0.00000
     20       9.8208     -0.00000
     21      12.0720      0.00000
     22      12.5082      0.00000
     23      14.5617      0.00000
     24      15.3364      0.00000

 k-point    39 :       0.4444    0.2222    0.0000
  band No.  band energies     occupation 
      1      -1.5589      1.00000
      2      -0.1587      1.00000
      3       2.1874      1.00000
      4       2.5162      1.00000
      5       2.7006      1.00000
      6       3.1151      1.00000
      7       3.2240      1.00000
      8       3.4700      1.00000
      9       3.6600      1.00000
     10       3.9734      1.00000
     11       4.0744      1.00000
     12       4.1954      1.00000
     13       4.5124      1.00000
     14       4.5374      1.00000
     15       4.7996      1.00434
     16       4.8635      1.01235
     17       5.2259      0.53773
     18       7.3548     -0.00000
     19       8.3210     -0.00000
     20      10.3841     -0.00000
     21      11.8106      0.00000
     22      12.1501      0.00000
     23      14.3575      0.00000
     24      15.4671      0.00000

 k-point    40 :       0.5000    0.2222    0.0000
  band No.  band energies     occupation 
      1      -1.3295      1.00000
      2      -0.4187      1.00000
      3       2.2249      1.00000
      4       2.5102      1.00000
      5       2.7057      1.00000
      6       3.1024      1.00000
      7       3.3195      1.00000
      8       3.4043      1.00000
      9       3.7828      1.00000
     10       3.8402      1.00000
     11       4.0997      1.00000
     12       4.1403      1.00000
     13       4.5133      1.00000
     14       4.5279      1.00000
     15       4.8104      1.00528
     16       4.8162      1.00584
     17       5.2230      0.54997
     18       7.6730     -0.00000
     19       7.9383     -0.00000
     20      10.8005      0.00000
     21      11.3497      0.00000
     22      12.1814      0.00000
     23      14.2774      0.00000
     24      15.5267      0.00000

 k-point    41 :       0.2778    0.2778    0.0000
  band No.  band energies     occupation 
      1      -2.4135      1.00000
      2       1.4700      1.00000
      3       1.4799      1.00000
      4       2.5018      1.00000
      5       2.6603      1.00000
      6       2.8898      1.00000
      7       3.2211      1.00000
      8       3.3794      1.00000
      9       3.6543      1.00000
     10       3.9903      1.00000
     11       4.4300      1.00000
     12       4.4399      1.00000
     13       4.4799      1.00000
     14       4.6960      1.00047
     15       4.7406      1.00132
     16       5.2076      0.61408
     17       5.2359      0.49560
     18       6.2929     -0.00000
     19       9.2078     -0.00000
     20       9.4560     -0.00000
     21      11.9927      0.00000
     22      14.2550      0.00000
     23      14.4842      0.00000
     24      15.2167      0.00000

 k-point    42 :       0.3333    0.2778    0.0000
  band No.  band energies     occupation 
      1      -2.0710      1.00000
      2       1.0309      1.00000
      3       1.6451      1.00000
      4       2.5418      1.00000
      5       2.6646      1.00000
      6       2.9724      1.00000
      7       3.2509      1.00000
      8       3.3858      1.00000
      9       3.5548      1.00000
     10       4.0299      1.00000
     11       4.2981      1.00000
     12       4.4045      1.00000
     13       4.4758      1.00000
     14       4.6202      1.00006
     15       4.7040      1.00057
     16       5.1280      0.88843
     17       5.1526      0.81765
     18       6.3685     -0.00000
     19       8.7706     -0.00000
     20       9.6684     -0.00000
     21      12.1138      0.00000
     22      13.5544      0.00000
     23      14.7263      0.00000
     24      15.1092      0.00000

 k-point    43 :       0.3889    0.2778    0.0000
  band No.  band energies     occupation 
      1      -1.6879      1.00000
      2       0.5442      1.00000
      3       1.7976      1.00000
      4       2.5631      1.00000
      5       2.6723      1.00000
      6       3.0849      1.00000
      7       3.1930      1.00000
      8       3.4782      1.00000
      9       3.5123      1.00000
     10       4.0671      1.00000
     11       4.1424      1.00000
     12       4.3070      1.00000
     13       4.5066      1.00000
     14       4.5361      1.00000
     15       4.7082      1.00063
     16       5.0077      1.03409
     17       5.1160      0.91734
     18       6.5687     -0.00000
     19       8.1666     -0.00000
     20      10.1760     -0.00000
     21      12.2404      0.00000
     22      12.8174      0.00000
     23      14.8251      0.00000
     24      15.0595      0.00000

 k-point    44 :       0.4444    0.2778    0.0000
  band No.  band energies     occupation 
      1      -1.3026      1.00000
      2       0.0843      1.00000
      3       1.9067      1.00000
      4       2.5673      1.00000
      5       2.6794      1.00000
      6       3.1501      1.00000
      7       3.2096      1.00000
      8       3.4094      1.00000
      9       3.6588      1.00000
     10       3.9806      1.00000
     11       4.0891      1.00000
     12       4.2152      1.00000
     13       4.4964      1.00000
     14       4.5245      1.00000
     15       4.7173      1.00078
     16       4.9141      1.02290
     17       5.0954      0.95898
     18       6.8477     -0.00000
     19       7.6510     -0.00000
     20      10.7103      0.00000
     21      12.1450      0.00000
     22      12.3433      0.00000
     23      14.5872      0.00000
     24      15.3398      0.00000

 k-point    45 :       0.5000    0.2778    0.0000
  band No.  band energies     occupation 
      1      -1.0862      1.00000
      2      -0.1590      1.00000
      3       1.9469      1.00000
      4       2.5663      1.00000
      5       2.6824      1.00000
      6       3.1350      1.00000
      7       3.3120      1.00000
      8       3.3341      1.00000
      9       3.7959      1.00000
     10       3.8382      1.00000
     11       4.0986      1.00000
     12       4.1720      1.00000
     13       4.4899      1.00000
     14       4.5304      1.00000
     15       4.7226      1.00088
     16       4.8762      1.01469
     17       5.0887      0.97019
     18       7.1374     -0.00000
     19       7.2828     -0.00000
     20      11.0832      0.00000
     21      11.7261      0.00000
     22      12.3844      0.00000
     23      14.4967      0.00000
     24      15.4576      0.00000

 k-point    46 :       0.3333    0.3333    0.0000
  band No.  band energies     occupation 
      1      -1.7389      1.00000
      2       1.2037      1.00000
      3       1.2676      1.00000
      4       2.5784      1.00000
      5       2.6605      1.00000
      6       3.0258      1.00000
      7       3.2591      1.00000
      8       3.4219      1.00000
      9       3.4787      1.00000
     10       4.0714      1.00000
     11       4.2305      1.00000
     12       4.3729      1.00000
     13       4.4853      1.00000
     14       4.5746      1.00002
     15       4.6123      1.00005
     16       5.0705      0.99543
     17       5.0875      0.97200
     18       6.2623     -0.00000
     19       8.1153     -0.00000
     20      10.1039     -0.00000
     21      12.2702      0.00000
     22      13.7151      0.00000
     23      14.1306      0.00000
     24      15.2293      0.00000

 k-point    47 :       0.3889    0.3333    0.0000
  band No.  band energies     occupation 
      1      -1.3697      1.00000
      2       0.7826      1.00000
      3       1.4290      1.00000
      4       2.5890      1.00000
      5       2.6596      1.00000
      6       3.1070      1.00000
      7       3.2128      1.00000
      8       3.4209      1.00000
      9       3.5420      1.00000
     10       4.1094      1.00000
     11       4.1111      1.00000
     12       4.3106      1.00000
     13       4.4838      1.00000
     14       4.5138      1.00000
     15       4.5970      1.00003
     16       5.0075      1.03412
     17       5.0109      1.03351
     18       6.3199     -0.00000
     19       7.5586     -0.00000
     20      10.5855     -0.00000
     21      12.4289      0.00000
     22      13.1472      0.00000
     23      14.3237      0.00000
     24      15.0693      0.00000

 k-point    48 :       0.4444    0.3333    0.0000
  band No.  band energies     occupation 
      1      -1.0028      1.00000
      2       0.3564      1.00000
      3       1.5710      1.00000
      4       2.5791      1.00000
      5       2.6602      1.00000
      6       3.1794      1.00000
      7       3.1996      1.00000
      8       3.3722      1.00000
      9       3.6792      1.00000
     10       3.9717      1.00000
     11       4.1275      1.00000
     12       4.2347      1.00000
     13       4.4386      1.00000
     14       4.5362      1.00000
     15       4.5994      1.00003
     16       4.9349      1.02766
     17       4.9747      1.03465
     18       6.4891     -0.00000
     19       7.1057     -0.00000
     20      11.0893      0.00000
     21      12.5148      0.00000
     22      12.5570      0.00000
     23      14.6001      0.00000
     24      14.8470      0.00000

 k-point    49 :       0.5000    0.3333    0.0000
  band No.  band energies     occupation 
      1      -0.8017      1.00000
      2       0.1336      1.00000
      3       1.6251      1.00000
      4       2.5713      1.00000
      5       2.6606      1.00000
      6       3.1678      1.00000
      7       3.2582      1.00000
      8       3.3354      1.00000
      9       3.8109      1.00000
     10       3.8385      1.00000
     11       4.1322      1.00000
     12       4.1962      1.00000
     13       4.4325      1.00000
     14       4.5444      1.00001
     15       4.6016      1.00004
     16       4.9052      1.02086
     17       4.9624      1.03306
     18       6.7228     -0.00000
     19       6.7795     -0.00000
     20      11.4255      0.00000
     21      12.1337      0.00000
     22      12.6083      0.00000
     23      14.7202      0.00000
     24      14.7550      0.00000

 k-point    50 :       0.3889    0.3889    0.0000
  band No.  band energies     occupation 
      1      -1.0185      1.00000
      2       0.9805      1.00000
      3       1.0580      1.00000
      4       2.5694      1.00000
      5       2.6504      1.00000
      6       3.1587      1.00000
      7       3.2091      1.00000
      8       3.3797      1.00000
      9       3.6183      1.00000
     10       4.0412      1.00000
     11       4.1552      1.00000
     12       4.2928      1.00000
     13       4.4278      1.00000
     14       4.4966      1.00000
     15       4.5302      1.00000
     16       4.9291      1.02635
     17       4.9691      1.03401
     18       6.2376     -0.00000
     19       7.0682     -0.00000
     20      11.0397      0.00000
     21      12.6176      0.00000
     22      13.3182      0.00000
     23      13.8102      0.00000
     24      15.2145      0.00000

 k-point    51 :       0.4444    0.3889    0.0000
  band No.  band energies     occupation 
      1      -0.6744      1.00000
      2       0.6304      1.00000
      3       1.2063      1.00000
      4       2.5211      1.00000
      5       2.6447      1.00000
      6       3.2002      1.00000
      7       3.2241      1.00000
      8       3.3485      1.00000
      9       3.7204      1.00000
     10       3.9441      1.00000
     11       4.1814      1.00000
     12       4.2486      1.00000
     13       4.3750      1.00000
     14       4.4637      1.00000
     15       4.5471      1.00001
     16       4.8764      1.01474
     17       4.9224      1.02480
     18       6.2868     -0.00000
     19       6.6984     -0.00000
     20      11.5143      0.00000
     21      12.7689      0.00000
     22      12.8778      0.00000
     23      13.9292      0.00000
     24      15.1335      0.00000

 k-point    52 :       0.5000    0.3889    0.0000
  band No.  band energies     occupation 
      1      -0.4903      1.00000
      2       0.4314      1.00000
      3       1.2789      1.00000
      4       2.4944      1.00000
      5       2.6428      1.00000
      6       3.1963      1.00000
      7       3.2620      1.00000
      8       3.3288      1.00000
      9       3.8259      1.00000
     10       3.8400      1.00000
     11       4.1881      1.00000
     12       4.2161      1.00000
     13       4.3660      1.00000
     14       4.4586      1.00000
     15       4.5543      1.00001
     16       4.8579      1.01140
     17       4.9013      1.01996
     18       6.4348     -0.00000
     19       6.4477     -0.00000
     20      11.8248      0.00000
     21      12.5349      0.00000
     22      12.8293      0.00000
     23      14.0391      0.00000
     24      15.0612      0.00000

 k-point    53 :       0.4444    0.4444    0.0000
  band No.  band energies     occupation 
      1      -0.3560      1.00000
      2       0.8340      1.00000
      3       0.8821      1.00000
      4       2.4232      1.00000
      5       2.6347      1.00000
      6       3.2121      1.00000
      7       3.2706      1.00000
      8       3.3321      1.00000
      9       3.7768      1.00000
     10       3.8984      1.00000
     11       4.2269      1.00000
     12       4.2507      1.00000
     13       4.3190      1.00000
     14       4.3655      1.00000
     15       4.5563      1.00001
     16       4.8113      1.00537
     17       4.8929      1.01813
     18       6.2221     -0.00000
     19       6.4250     -0.00000
     20      11.9657      0.00000
     21      12.9371      0.00000
     22      13.0750      0.00000
     23      13.4365      0.00000
     24      15.3741      0.00000

 k-point    54 :       0.5000    0.4444    0.0000
  band No.  band energies     occupation 
      1      -0.1882      1.00000
      2       0.6794      1.00000
      3       0.9519      1.00000
      4       2.3717      1.00000
      5       2.6312      1.00000
      6       3.2159      1.00000
      7       3.2984      1.00000
      8       3.3215      1.00000
      9       3.8377      1.00000
     10       3.8416      1.00000
     11       4.2356      1.00000
     12       4.2433      1.00000
     13       4.3012      1.00000
     14       4.3412      1.00000
     15       4.5602      1.00001
     16       4.7882      1.00350
     17       4.8771      1.01487
     18       6.2697     -0.00000
     19       6.2708     -0.00000
     20      12.2736      0.00000
     21      12.8597      0.00000
     22      13.0039      0.00000
     23      13.4216      0.00000
     24      15.4207      0.00000

 k-point    55 :       0.5000    0.5000    0.0000
  band No.  band energies     occupation 
      1      -0.0287      1.00000
      2       0.7832      1.00000
      3       0.7832      1.00000
      4       2.3075      1.00000
      5       2.6272      1.00000
      6       3.2229      1.00000
      7       3.3184      1.00000
      8       3.3184      1.00000
      9       3.8423      1.00000
     10       3.8423      1.00000
     11       4.2493      1.00000
     12       4.2674      1.00000
     13       4.2674      1.00000
     14       4.2964      1.00000
     15       4.5621      1.00001
     16       4.7635      1.00214
     17       4.8627      1.01221
     18       6.2168     -0.00000
     19       6.2168     -0.00000
     20      12.6461      0.00000
     21      12.9929      0.00000
     22      12.9929      0.00000
     23      13.0729      0.00000
     24      15.8057      0.00000

 k-point    56 :       0.0556    0.0556    0.0556
  band No.  band energies     occupation 
      1      -3.9839      1.00000
      2       1.5754      1.00000
      3       2.2185      1.00000
      4       2.2185      1.00000
      5       2.6494      1.00000
      6       2.6902      1.00000
      7       2.6902      1.00000
      8       4.1234      1.00000
      9       4.2317      1.00000
     10       4.2317      1.00000
     11       4.8611      1.01192
     12       4.8611      1.01192
     13       5.2104      0.60261
     14       5.2417      0.47112
     15       5.2417      0.47111
     16       5.5281     -0.02913
     17       6.0455     -0.00000
     18       6.3017     -0.00000
     19       6.3017     -0.00000
     20      11.5965      0.00000
     21      11.5965      0.00000
     22      11.9169      0.00000
     23      15.8822      0.00000
     24      16.3514      0.00000

 k-point    57 :       0.1111    0.0556    0.0556
  band No.  band energies     occupation 
      1      -3.8796      1.00000
      2       1.5981      1.00000
      3       2.1386      1.00000
      4       2.2821      1.00000
      5       2.6450      1.00000
      6       2.7000      1.00000
      7       2.7271      1.00000
      8       4.0391      1.00000
      9       4.1734      1.00000
     10       4.2440      1.00000
     11       4.7965      1.00410
     12       4.8621      1.01210
     13       5.0266      1.02890
     14       5.1025      0.94573
     15       5.1813      0.71798
     16       5.5166     -0.03146
     17       5.7937     -0.00028
     18       6.5129     -0.00000
     19       6.5812     -0.00000
     20      11.6071      0.00000
     21      11.7924      0.00000
     22      12.4241      0.00000
     23      15.2857      0.00000
     24      15.6100      0.00000

 k-point    58 :       0.1667    0.0556    0.0556
  band No.  band energies     occupation 
      1      -3.7068      1.00000
      2       1.5860      1.00000
      3       2.0260      1.00000
      4       2.3837      1.00000
      5       2.6485      1.00000
      6       2.7161      1.00000
      7       2.7749      1.00000
      8       3.9457      1.00000
      9       4.0896      1.00000
     10       4.2324      1.00000
     11       4.6375      1.00010
     12       4.8384      1.00846
     13       4.8592      1.01161
     14       4.9573      1.03222
     15       5.1285      0.88696
     16       5.4280     -0.02117
     17       5.5112     -0.03242
     18       6.8901     -0.00000
     19       6.9454     -0.00000
     20      11.6231      0.00000
     21      11.8726      0.00000
     22      13.3170      0.00000
     23      14.5328      0.00000
     24      14.7693      0.00000

 k-point    59 :       0.2222    0.0556    0.0556
  band No.  band energies     occupation 
      1      -3.4673      1.00000
      2       1.4032      1.00000
      3       1.9875      1.00000
      4       2.5143      1.00000
      5       2.6577      1.00000
      6       2.7397      1.00000
      7       2.8313      1.00000
      8       3.8568      1.00000
      9       3.9960      1.00000
     10       4.2005      1.00000
     11       4.3904      1.00000
     12       4.7110      1.00067
     13       4.8008      1.00444
     14       4.8737      1.01421
     15       5.0592      1.00749
     16       5.1372      0.86366
     17       5.5086     -0.03285
     18       7.3257     -0.00000
     19       7.3641     -0.00000
     20      11.6393      0.00000
     21      11.9609      0.00000
     22      13.6990      0.00000
     23      13.9421      0.00000
     24      14.3608      0.00000

 k-point    60 :       0.2778    0.0556    0.0556
  band No.  band energies     occupation 
      1      -3.1643      1.00000
      2       1.0126      1.00000
      3       2.0528      1.00000
      4       2.6479      1.00000
      5       2.6694      1.00000
      6       2.7858      1.00000
      7       2.8921      1.00000
      8       3.7830      1.00000
      9       3.9066      1.00000
     10       4.1502      1.00000
     11       4.1748      1.00000
     12       4.5919      1.00003
     13       4.6852      1.00036
     14       4.8459      1.00952
     15       4.9288      1.02628
     16       4.9881      1.03545
     17       5.5074     -0.03305
     18       7.8054     -0.00000
     19       7.8246     -0.00000
     20      11.6396      0.00000
     21      12.0704      0.00000
     22      12.9374      0.00000
     23      13.1748      0.00000
     24      14.9116      0.00000

 k-point    61 :       0.3333    0.0556    0.0556
  band No.  band energies     occupation 
      1      -2.8030      1.00000
      2       0.5052      1.00000
      3       2.1537      1.00000
      4       2.6797      1.00000
      5       2.7194      1.00000
      6       2.9047      1.00000
      7       2.9507      1.00000
      8       3.7312      1.00000
      9       3.8298      1.00000
     10       4.0226      1.00000
     11       4.1020      1.00000
     12       4.4743      1.00000
     13       4.5852      1.00002
     14       4.7755      1.00273
     15       4.7780      1.00287
     16       4.9476      1.03037
     17       5.5068     -0.03313
     18       8.3190     -0.00000
     19       8.3241     -0.00000
     20      11.5633      0.00000
     21      12.1168      0.00000
     22      12.2739      0.00000
     23      12.5368      0.00000
     24      14.6379      0.00000

 k-point    62 :       0.3889    0.0556    0.0556
  band No.  band energies     occupation 
      1      -2.3946      1.00000
      2      -0.0450      1.00000
      3       2.2538      1.00000
      4       2.6854      1.00000
      5       2.7436      1.00000
      6       2.9995      1.00000
      7       3.0605      1.00000
      8       3.7073      1.00000
      9       3.7681      1.00000
     10       3.9344      1.00000
     11       4.0543      1.00000
     12       4.3684      1.00000
     13       4.5122      1.00000
     14       4.6638      1.00021
     15       4.6781      1.00030
     16       4.9361      1.02794
     17       5.5066     -0.03317
     18       8.8386     -0.00000
     19       8.8787     -0.00000
     20      11.2525      0.00000
     21      11.4446      0.00000
     22      12.1874      0.00000
     23      12.3781      0.00000
     24      14.2441      0.00000

 k-point    63 :       0.4444    0.0556    0.0556
  band No.  band energies     occupation 
      1      -1.9737      1.00000
      2      -0.5646      1.00000
      3       2.3286      1.00000
      4       2.6853      1.00000
      5       2.7541      1.00000
      6       3.0315      1.00000
      7       3.1897      1.00000
      8       3.7116      1.00000
      9       3.7221      1.00000
     10       3.8753      1.00000
     11       4.0281      1.00000
     12       4.2900      1.00000
     13       4.4750      1.00000
     14       4.5855      1.00002
     15       4.5938      1.00003
     16       4.9337      1.02739
     17       5.5065     -0.03318
     18       9.3592     -0.00000
     19       9.4665     -0.00000
     20      10.7458      0.00000
     21      10.7578      0.00000
     22      12.0988      0.00000
     23      12.5220      0.00000
     24      13.9340      0.00000

 k-point    64 :       0.5000    0.0556    0.0556
  band No.  band energies     occupation 
      1      -1.7236      1.00000
      2      -0.8498      1.00000
      3       2.3569      1.00000
      4       2.6840      1.00000
      5       2.7572      1.00000
      6       3.0426      1.00000
      7       3.2426      1.00000
      8       3.7026      1.00000
      9       3.7224      1.00000
     10       3.8477      1.00000
     11       4.0222      1.00000
     12       4.2596      1.00000
     13       4.4697      1.00000
     14       4.5422      1.00001
     15       4.5698      1.00001
     16       4.9333      1.02731
     17       5.5065     -0.03318
     18       9.6925     -0.00000
     19      10.0164     -0.00000
     20      10.1746     -0.00000
     21      10.4020     -0.00000
     22      12.0864      0.00000
     23      12.5888      0.00000
     24      13.8097      0.00000

 k-point    65 :       0.1111    0.1111    0.0556
  band No.  band energies     occupation 
      1      -3.7757      1.00000
      2       1.6260      1.00000
      3       2.1299      1.00000
      4       2.2720      1.00000
      5       2.6301      1.00000
      6       2.7188      1.00000
      7       2.7636      1.00000
      8       3.9425      1.00000
      9       4.1416      1.00000
     10       4.2538      1.00000
     11       4.7340      1.00114
     12       4.8338      1.00786
     13       4.8777      1.01498
     14       5.0050      1.03448
     15       5.1358      0.86744
     16       5.4914     -0.03498
     17       5.8785     -0.00003
     18       6.3664     -0.00000
     19       6.7923     -0.00000
     20      11.7051      0.00000
     21      12.2752      0.00000
     22      12.5843      0.00000
     23      14.5886      0.00000
     24      15.4814      0.00000

 k-point    66 :       0.1667    0.1111    0.0556
  band No.  band energies     occupation 
      1      -3.6038      1.00000
      2       1.6279      1.00000
      3       2.0332      1.00000
      4       2.3465      1.00000
      5       2.6242      1.00000
      6       2.7362      1.00000
      7       2.8181      1.00000
      8       3.8425      1.00000
      9       4.0681      1.00000
     10       4.2564      1.00000
     11       4.5327      1.00000
     12       4.7717      1.00253
     13       4.8205      1.00630
     14       4.8973      1.01908
     15       5.0830      0.97893
     16       5.4719     -0.03520
     17       5.6104     -0.01163
     18       6.5724     -0.00000
     19       7.1245     -0.00000
     20      11.7389      0.00000
     21      12.4632      0.00000
     22      13.3823      0.00000
     23      13.7657      0.00000
     24      14.7885      0.00000

 k-point    67 :       0.2222    0.1111    0.0556
  band No.  band energies     occupation 
      1      -3.3656      1.00000
      2       1.4621      1.00000
      3       1.9914      1.00000
      4       2.4635      1.00000
      5       2.6275      1.00000
      6       2.7625      1.00000
      7       2.8801      1.00000
      8       3.7529      1.00000
      9       3.9838      1.00000
     10       4.2211      1.00000
     11       4.3172      1.00000
     12       4.6712      1.00025
     13       4.7496      1.00160
     14       4.8450      1.00938
     15       5.0172      1.03204
     16       5.3038      0.22657
     17       5.4595     -0.03365
     18       6.9265     -0.00000
     19       7.5220     -0.00000
     20      11.7572      0.00000
     21      12.5410      0.00000
     22      12.9993      0.00000
     23      13.9559      0.00000
     24      14.4264      0.00000

 k-point    68 :       0.2778    0.1111    0.0556
  band No.  band energies     occupation 
      1      -3.0643      1.00000
      2       1.0801      1.00000
      3       2.0599      1.00000
      4       2.5728      1.00000
      5       2.6476      1.00000
      6       2.8135      1.00000
      7       2.9427      1.00000
      8       3.6843      1.00000
      9       3.8960      1.00000
     10       4.0885      1.00000
     11       4.2263      1.00000
     12       4.5576      1.00001
     13       4.6457      1.00013
     14       4.8215      1.00641
     15       4.9442      1.02968
     16       5.0732      0.99212
     17       5.4512     -0.03166
     18       7.3300     -0.00000
     19       7.9691     -0.00000
     20      11.6633      0.00000
     21      12.2664      0.00000
     22      12.7372      0.00000
     23      13.2278      0.00000
     24      15.1555      0.00000

 k-point    69 :       0.3333    0.1111    0.0556
  band No.  band energies     occupation 
      1      -2.7053      1.00000
      2       0.5803      1.00000
      3       2.1657      1.00000
      4       2.6078      1.00000
      5       2.6974      1.00000
      6       2.9218      1.00000
      7       2.9969      1.00000
      8       3.6464      1.00000
      9       3.8015      1.00000
     10       3.9870      1.00000
     11       4.1692      1.00000
     12       4.4382      1.00000
     13       4.5593      1.00001
     14       4.7542      1.00176
     15       4.8771      1.01486
     16       4.9330      1.02723
     17       5.4461     -0.03004
     18       7.7666     -0.00000
     19       8.4562     -0.00000
     20      11.2000      0.00000
     21      11.9727      0.00000
     22      12.5164      0.00000
     23      12.9644      0.00000
     24      15.0092      0.00000

 k-point    70 :       0.3889    0.1111    0.0556
  band No.  band energies     occupation 
      1      -2.3000      1.00000
      2       0.0374      1.00000
      3       2.2732      1.00000
      4       2.6062      1.00000
      5       2.7296      1.00000
      6       3.0319      1.00000
      7       3.0742      1.00000
      8       3.6473      1.00000
      9       3.7145      1.00000
     10       3.9283      1.00000
     11       4.1176      1.00000
     12       4.3264      1.00000
     13       4.5020      1.00000
     14       4.6590      1.00018
     15       4.7687      1.00238
     16       4.9079      1.02147
     17       5.4432     -0.02895
     18       8.2294     -0.00000
     19       8.9728     -0.00000
     20      10.5867     -0.00000
     21      11.5011      0.00000
     22      12.3411      0.00000
     23      13.1119      0.00000
     24      14.6353      0.00000

 k-point    71 :       0.4444    0.1111    0.0556
  band No.  band energies     occupation 
      1      -1.8835      1.00000
      2      -0.4752      1.00000
      3       2.3598      1.00000
      4       2.5912      1.00000
      5       2.7452      1.00000
      6       3.0516      1.00000
      7       3.2110      1.00000
      8       3.6402      1.00000
      9       3.6892      1.00000
     10       3.8703      1.00000
     11       4.0918      1.00000
     12       4.2398      1.00000
     13       4.4795      1.00000
     14       4.5794      1.00002
     15       4.6836      1.00034
     16       4.9051      1.02082
     17       5.4418     -0.02835
     18       8.7037     -0.00000
     19       9.4720     -0.00000
     20      10.0416     -0.00000
     21      10.8968      0.00000
     22      12.3568      0.00000
     23      13.2735      0.00000
     24      14.3265      0.00000

 k-point    72 :       0.5000    0.1111    0.0556
  band No.  band energies     occupation 
      1      -1.6380      1.00000
      2      -0.7550      1.00000
      3       2.3965      1.00000
      4       2.5797      1.00000
      5       2.7501      1.00000
      6       3.0571      1.00000
      7       3.2733      1.00000
      8       3.6081      1.00000
      9       3.7225      1.00000
     10       3.8297      1.00000
     11       4.0888      1.00000
     12       4.2039      1.00000
     13       4.4822      1.00000
     14       4.5416      1.00001
     15       4.6514      1.00015
     16       4.9048      1.02077
     17       5.4413     -0.02816
     18       9.0302     -0.00000
     19       9.5205     -0.00000
     20      10.0150     -0.00000
     21      10.4820     -0.00000
     22      12.3740      0.00000
     23      13.3531      0.00000
     24      14.1968      0.00000

 k-point    73 :       0.1667    0.1667    0.0556
  band No.  band energies     occupation 
      1      -3.4333      1.00000
      2       1.6686      1.00000
      3       1.9763      1.00000
      4       2.3444      1.00000
      5       2.6121      1.00000
      6       2.7536      1.00000
      7       2.8810      1.00000
      8       3.7373      1.00000
      9       4.0183      1.00000
     10       4.2337      1.00000
     11       4.3913      1.00000
     12       4.7257      1.00094
     13       4.7667      1.00229
     14       4.8358      1.00811
     15       5.0191      1.03149
     16       5.4327     -0.02395
     17       5.6550     -0.00570
     18       6.3727     -0.00000
     19       7.4209     -0.00000
     20      11.7605      0.00000
     21      12.9235      0.00000
     22      13.2653      0.00000
     23      13.5994      0.00000
     24      14.8944      0.00000

 k-point    74 :       0.2222    0.1667    0.0556
  band No.  band energies     occupation 
      1      -3.1973      1.00000
      2       1.5535      1.00000
      3       1.9334      1.00000
      4       2.4110      1.00000
      5       2.6144      1.00000
      6       2.7805      1.00000
      7       2.9521      1.00000
      8       3.6441      1.00000
      9       3.9610      1.00000
     10       4.0918      1.00000
     11       4.3415      1.00000
     12       4.6448      1.00012
     13       4.6901      1.00040
     14       4.8017      1.00451
     15       4.9493      1.03072
     16       5.3982      0.00584
     17       5.4493     -0.03108
     18       6.5221     -0.00000
     19       7.7868     -0.00000
     20      11.6348      0.00000
     21      12.2781      0.00000
     22      13.5101      0.00000
     23      14.1309      0.00000
     24      14.5352      0.00000

 k-point    75 :       0.2778    0.1667    0.0556
  band No.  band energies     occupation 
      1      -2.8989      1.00000
      2       1.1877      1.00000
      3       2.0166      1.00000
      4       2.4897      1.00000
      5       2.6372      1.00000
      6       2.8332      1.00000
      7       3.0202      1.00000
      8       3.5762      1.00000
      9       3.8627      1.00000
     10       3.9872      1.00000
     11       4.3040      1.00000
     12       4.5391      1.00001
     13       4.6004      1.00003
     14       4.7795      1.00296
     15       4.8813      1.01569
     16       5.2065      0.61853
     17       5.3797      0.03194
     18       6.8231     -0.00000
     19       8.2050     -0.00000
     20      11.0808      0.00000
     21      12.1201      0.00000
     22      13.2947      0.00000
     23      13.7750      0.00000
     24      15.2411      0.00000

 k-point    76 :       0.3333    0.1667    0.0556
  band No.  band energies     occupation 
      1      -2.5438      1.00000
      2       0.7013      1.00000
      3       2.1336      1.00000
      4       2.5269      1.00000
      5       2.6772      1.00000
      6       2.9342      1.00000
      7       3.0695      1.00000
      8       3.5519      1.00000
      9       3.7354      1.00000
     10       3.9602      1.00000
     11       4.2395      1.00000
     12       4.4229      1.00000
     13       4.5340      1.00000
     14       4.7154      1.00074
     15       4.8484      1.00989
     16       5.0220      1.03059
     17       5.3631      0.06240
     18       7.1805     -0.00000
     19       8.6599     -0.00000
     20      10.4107     -0.00000
     21      12.0872      0.00000
     22      12.6733      0.00000
     23      13.9279      0.00000
     24      15.2431      0.00000

 k-point    77 :       0.3889    0.1667    0.0556
  band No.  band energies     occupation 
      1      -2.1438      1.00000
      2       0.1713      1.00000
      3       2.2507      1.00000
      4       2.5253      1.00000
      5       2.7099      1.00000
      6       3.0661      1.00000
      7       3.0995      1.00000
      8       3.5848      1.00000
      9       3.6320      1.00000
     10       3.9356      1.00000
     11       4.1698      1.00000
     12       4.3082      1.00000
     13       4.4996      1.00000
     14       4.6298      1.00008
     15       4.8349      1.00801
     16       4.8927      1.01809
     17       5.3527      0.08478
     18       7.5749     -0.00000
     19       9.0997     -0.00000
     20       9.8296     -0.00000
     21      11.6990      0.00000
     22      12.4618      0.00000
     23      14.1157      0.00000
     24      14.9083      0.00000

 k-point    78 :       0.4444    0.1667    0.0556
  band No.  band energies     occupation 
      1      -1.7350      1.00000
      2      -0.3290      1.00000
      3       2.3531      1.00000
      4       2.4966      1.00000
      5       2.7292      1.00000
      6       3.0823      1.00000
      7       3.2281      1.00000
      8       3.5465      1.00000
      9       3.6623      1.00000
     10       3.8743      1.00000
     11       4.1374      1.00000
     12       4.2127      1.00000
     13       4.4918      1.00000
     14       4.5644      1.00001
     15       4.7740      1.00265
     16       4.8587      1.01153
     17       5.3472      0.09799
     18       7.9956     -0.00000
     19       9.0441     -0.00000
     20       9.8314     -0.00000
     21      11.1074      0.00000
     22      12.5033      0.00000
     23      14.2885      0.00000
     24      14.6222      0.00000

 k-point    79 :       0.5000    0.1667    0.0556
  band No.  band energies     occupation 
      1      -1.4970      1.00000
      2      -0.5996      1.00000
      3       2.4183      1.00000
      4       2.4567      1.00000
      5       2.7358      1.00000
      6       3.0802      1.00000
      7       3.3075      1.00000
      8       3.4946      1.00000
      9       3.7320      1.00000
     10       3.8089      1.00000
     11       4.1487      1.00000
     12       4.1574      1.00000
     13       4.4993      1.00000
     14       4.5350      1.00000
     15       4.7392      1.00127
     16       4.8572      1.01127
     17       5.3454      0.10230
     18       8.3107     -0.00000
     19       8.7186     -0.00000
     20      10.1536     -0.00000
     21      10.7122      0.00000
     22      12.5320      0.00000
     23      14.4192      0.00000
     24      14.4535      0.00000

 k-point    80 :       0.2222    0.2222    0.0556
  band No.  band energies     occupation 
      1      -2.9644      1.00000
      2       1.6338      1.00000
      3       1.7580      1.00000
      4       2.4205      1.00000
      5       2.6167      1.00000
      6       2.8073      1.00000
      7       3.0353      1.00000
      8       3.5446      1.00000
      9       3.9209      1.00000
     10       3.9488      1.00000
     11       4.3762      1.00000
     12       4.6048      1.00004
     13       4.6078      1.00004
     14       4.7622      1.00209
     15       4.8708      1.01366
     16       5.3467      0.09917
     17       5.4520     -0.03188
     18       6.3418     -0.00000
     19       8.1198     -0.00000
     20      11.0342      0.00000
     21      12.1377      0.00000
     22      14.2286      0.00000
     23      14.3484      0.00000
     24      14.5248      0.00000

 k-point    81 :       0.2778    0.2222    0.0556
  band No.  band energies     occupation 
      1      -2.6703      1.00000
      2       1.3278      1.00000
      3       1.8299      1.00000
      4       2.4715      1.00000
      5       2.6346      1.00000
      6       2.8571      1.00000
      7       3.1147      1.00000
      8       3.4714      1.00000
      9       3.7681      1.00000
     10       3.9496      1.00000
     11       4.3720      1.00000
     12       4.5212      1.00000
     13       4.5341      1.00000
     14       4.7324      1.00110
     15       4.7982      1.00423
     16       5.2803      0.31302
     17       5.3168      0.18357
     18       6.4453     -0.00000
     19       8.5000     -0.00000
     20      10.3104     -0.00000
     21      12.1969      0.00000
     22      13.5622      0.00000
     23      14.6014      0.00000
     24      14.8340      0.00000

 k-point    82 :       0.3333    0.2222    0.0556
  band No.  band energies     occupation 
      1      -2.3210      1.00000
      2       0.8614      1.00000
      3       1.9640      1.00000
      4       2.5124      1.00000
      5       2.6641      1.00000
      6       2.9461      1.00000
      7       3.1586      1.00000
      8       3.4596      1.00000
      9       3.6462      1.00000
     10       3.9581      1.00000
     11       4.2961      1.00000
     12       4.4248      1.00000
     13       4.4995      1.00000
     14       4.6643      1.00021
     15       4.7743      1.00267
     16       5.1084      0.93391
     17       5.2742      0.33723
     18       6.6909     -0.00000
     19       8.8709     -0.00000
     20       9.6832     -0.00000
     21      12.2502      0.00000
     22      12.8847      0.00000
     23      14.8435      0.00000
     24      15.1034      0.00000

 k-point    83 :       0.3889    0.2222    0.0556
  band No.  band energies     occupation 
      1      -1.9288      1.00000
      2       0.3510      1.00000
      3       2.0844      1.00000
      4       2.5287      1.00000
      5       2.6917      1.00000
      6       3.0698      1.00000
      7       3.1548      1.00000
      8       3.5177      1.00000
      9       3.5636      1.00000
     10       3.9458      1.00000
     11       4.2024      1.00000
     12       4.3189      1.00000
     13       4.4970      1.00000
     14       4.5871      1.00002
     15       4.7767      1.00280
     16       4.9627      1.03311
     17       5.2504      0.43431
     18       7.0038     -0.00000
     19       8.7952     -0.00000
     20       9.6088     -0.00000
     21      11.9533      0.00000
     22      12.6177      0.00000
     23      14.9020      0.00000
     24      15.4040      0.00000

 k-point    84 :       0.4444    0.2222    0.0556
  band No.  band energies     occupation 
      1      -1.5310      1.00000
      2      -0.1309      1.00000
      3       2.1703      1.00000
      4       2.5289      1.00000
      5       2.7101      1.00000
      6       3.1172      1.00000
      7       3.2272      1.00000
      8       3.4616      1.00000
      9       3.6470      1.00000
     10       3.8811      1.00000
     11       4.1470      1.00000
     12       4.2308      1.00000
     13       4.5016      1.00000
     14       4.5399      1.00001
     15       4.7829      1.00316
     16       4.8601      1.01176
     17       5.2370      0.49097
     18       7.3635     -0.00000
     19       8.3116     -0.00000
     20      10.0377     -0.00000
     21      11.3832      0.00000
     22      12.6747      0.00000
     23      14.7472      0.00000
     24      15.5027      0.00000

 k-point    85 :       0.5000    0.2222    0.0556
  band No.  band energies     occupation 
      1      -1.3034      1.00000
      2      -0.3885      1.00000
      3       2.2023      1.00000
      4       2.5262      1.00000
      5       2.7166      1.00000
      6       3.1100      1.00000
      7       3.3328      1.00000
      8       3.3822      1.00000
      9       3.7459      1.00000
     10       3.7953      1.00000
     11       4.1326      1.00000
     12       4.1933      1.00000
     13       4.5152      1.00000
     14       4.5171      1.00000
     15       4.7892      1.00358
     16       4.8168      1.00591
     17       5.2326      0.50934
     18       7.6679     -0.00000
     19       7.9530     -0.00000
     20      10.3581     -0.00000
     21      11.0184      0.00000
     22      12.7124      0.00000
     23      14.6637      0.00000
     24      15.5554      0.00000

 k-point    86 :       0.2778    0.2778    0.0556
  band No.  band energies     occupation 
      1      -2.3821      1.00000
      2       1.4820      1.00000
      3       1.4953      1.00000
      4       2.5104      1.00000
      5       2.6424      1.00000
      6       2.8973      1.00000
      7       3.2154      1.00000
      8       3.3830      1.00000
      9       3.6539      1.00000
     10       3.9585      1.00000
     11       4.4238      1.00000
     12       4.4349      1.00000
     13       4.4904      1.00000
     14       4.6978      1.00049
     15       4.7052      1.00058
     16       5.2341      0.50303
     17       5.2693      0.35643
     18       6.2986     -0.00000
     19       8.7935     -0.00000
     20       9.6319     -0.00000
     21      12.3199      0.00000
     22      13.8034      0.00000
     23      13.9089      0.00000
     24      15.6833      0.00000

 k-point    87 :       0.3333    0.2778    0.0556
  band No.  band energies     occupation 
      1      -2.0408      1.00000
      2       1.0494      1.00000
      3       1.6519      1.00000
      4       2.5519      1.00000
      5       2.6599      1.00000
      6       2.9672      1.00000
      7       3.2524      1.00000
      8       3.3825      1.00000
      9       3.5615      1.00000
     10       3.9734      1.00000
     11       4.3207      1.00000
     12       4.4161      1.00000
     13       4.4739      1.00000
     14       4.6075      1.00004
     15       4.6886      1.00039
     16       5.1381      0.86112
     17       5.1889      0.68871
     18       6.3720     -0.00000
     19       8.6673     -0.00000
     20       9.4922     -0.00000
     21      12.4356      0.00000
     22      13.1475      0.00000
     23      14.1968      0.00000
     24      15.6218      0.00000

 k-point    88 :       0.3889    0.2778    0.0556
  band No.  band energies     occupation 
      1      -1.6593      1.00000
      2       0.5668      1.00000
      3       1.7966      1.00000
      4       2.5738      1.00000
      5       2.6785      1.00000
      6       3.0674      1.00000
      7       3.2083      1.00000
      8       3.4498      1.00000
      9       3.5360      1.00000
     10       3.9600      1.00000
     11       4.2198      1.00000
     12       4.3347      1.00000
     13       4.4924      1.00000
     14       4.5356      1.00000
     15       4.6906      1.00041
     16       5.0081      1.03402
     17       5.1472      0.83437
     18       6.5722     -0.00000
     19       8.1424     -0.00000
     20       9.8732     -0.00000
     21      12.2542      0.00000
     22      12.8060      0.00000
     23      14.5383      0.00000
     24      15.3286      0.00000

 k-point    89 :       0.4444    0.2778    0.0556
  band No.  band energies     occupation 
      1      -1.2763      1.00000
      2       0.1107      1.00000
      3       1.8979      1.00000
      4       2.5806      1.00000
      5       2.6908      1.00000
      6       3.1438      1.00000
      7       3.2136      1.00000
      8       3.4017      1.00000
      9       3.6503      1.00000
     10       3.8912      1.00000
     11       4.1560      1.00000
     12       4.2563      1.00000
     13       4.4794      1.00000
     14       4.5293      1.00000
     15       4.6957      1.00046
     16       4.9113      1.02224
     17       5.1224      0.90233
     18       6.8497     -0.00000
     19       7.6461     -0.00000
     20      10.3275     -0.00000
     21      11.7144      0.00000
     22      12.8746      0.00000
     23      14.8176      0.00000
     24      15.0804      0.00000

 k-point    90 :       0.5000    0.2778    0.0556
  band No.  band energies     occupation 
      1      -1.0620      1.00000
      2      -0.1299      1.00000
      3       1.9347      1.00000
      4       2.5813      1.00000
      5       2.6951      1.00000
      6       3.1424      1.00000
      7       3.2886      1.00000
      8       3.3424      1.00000
      9       3.7637      1.00000
     10       3.7954      1.00000
     11       4.1345      1.00000
     12       4.2216      1.00000
     13       4.4768      1.00000
     14       4.5330      1.00000
     15       4.6985      1.00049
     16       4.8736      1.01419
     17       5.1142      0.92154
     18       7.1305     -0.00000
     19       7.2909     -0.00000
     20      10.6218     -0.00000
     21      11.3801      0.00000
     22      12.9215      0.00000
     23      14.8760      0.00000
     24      15.0485      0.00000

 k-point    91 :       0.3333    0.3333    0.0556
  band No.  band energies     occupation 
      1      -1.7100      1.00000
      2       1.2300      1.00000
      3       1.2678      1.00000
      4       2.5860      1.00000
      5       2.6654      1.00000
      6       3.0114      1.00000
      7       3.2770      1.00000
      8       3.3869      1.00000
      9       3.5074      1.00000
     10       3.9872      1.00000
     11       4.2918      1.00000
     12       4.3747      1.00000
     13       4.4883      1.00000
     14       4.5408      1.00001
     15       4.6206      1.00006
     16       5.1011      0.94855
     17       5.1030      0.94481
     18       6.2582     -0.00000
     19       8.0862     -0.00000
     20       9.8145     -0.00000
     21      12.6180      0.00000
     22      13.3170      0.00000
     23      13.6426      0.00000
     24      15.7417      0.00000

 k-point    92 :       0.3889    0.3333    0.0556
  band No.  band energies     occupation 
      1      -1.3428      1.00000
      2       0.8026      1.00000
      3       1.4352      1.00000
      4       2.5935      1.00000
      5       2.6724      1.00000
      6       3.0832      1.00000
      7       3.2379      1.00000
      8       3.3991      1.00000
      9       3.5566      1.00000
     10       3.9686      1.00000
     11       4.2321      1.00000
     12       4.3273      1.00000
     13       4.4597      1.00000
     14       4.5150      1.00000
     15       4.5953      1.00003
     16       5.0071      1.03418
     17       5.0485      1.01655
     18       6.3142     -0.00000
     19       7.5462     -0.00000
     20      10.2333     -0.00000
     21      12.5808      0.00000
     22      12.9967      0.00000
     23      13.8779      0.00000
     24      15.5229      0.00000

 k-point    93 :       0.4444    0.3333    0.0556
  band No.  band energies     occupation 
      1      -0.9788      1.00000
      2       0.3811      1.00000
      3       1.5720      1.00000
      4       2.5856      1.00000
      5       2.6741      1.00000
      6       3.1538      1.00000
      7       3.2236      1.00000
      8       3.3643      1.00000
      9       3.6742      1.00000
     10       3.8998      1.00000
     11       4.1829      1.00000
     12       4.2678      1.00000
     13       4.4232      1.00000
     14       4.5360      1.00000
     15       4.5874      1.00002
     16       4.9308      1.02673
     17       5.0104      1.03360
     18       6.4835     -0.00000
     19       7.0992     -0.00000
     20      10.6721     -0.00000
     21      12.0837      0.00000
     22      13.0777      0.00000
     23      14.1967      0.00000
     24      15.2208      0.00000

 k-point    94 :       0.5000    0.3333    0.0556
  band No.  band energies     occupation 
      1      -0.7804      1.00000
      2       0.1616      1.00000
      3       1.6236      1.00000
      4       2.5797      1.00000
      5       2.6742      1.00000
      6       3.1704      1.00000
      7       3.2463      1.00000
      8       3.3372      1.00000
      9       3.7848      1.00000
     10       3.8064      1.00000
     11       4.1635      1.00000
     12       4.2351      1.00000
     13       4.4212      1.00000
     14       4.5454      1.00001
     15       4.5842      1.00002
     16       4.9011      1.01992
     17       4.9970      1.03525
     18       6.7131     -0.00000
     19       6.7786     -0.00000
     20      10.9407      0.00000
     21      11.7761      0.00000
     22      13.1349      0.00000
     23      14.3590      0.00000
     24      15.0719      0.00000

 k-point    95 :       0.3889    0.3889    0.0556
  band No.  band energies     occupation 
      1      -0.9941      1.00000
      2       1.0073      1.00000
      3       1.0612      1.00000
      4       2.5676      1.00000
      5       2.6661      1.00000
      6       3.1307      1.00000
      7       3.2436      1.00000
      8       3.3647      1.00000
      9       3.6239      1.00000
     10       3.9505      1.00000
     11       4.2406      1.00000
     12       4.2972      1.00000
     13       4.3982      1.00000
     14       4.5121      1.00000
     15       4.5309      1.00000
     16       4.9615      1.03291
     17       4.9703      1.03417
     18       6.2273     -0.00000
     19       7.0585     -0.00000
     20      10.6410     -0.00000
     21      12.8701      0.00000
     22      12.9564      0.00000
     23      13.5558      0.00000
     24      15.5152      0.00000

 k-point    96 :       0.4444    0.3889    0.0556
  band No.  band energies     occupation 
      1      -0.6538      1.00000
      2       0.6534      1.00000
      3       1.2165      1.00000
      4       2.5179      1.00000
      5       2.6593      1.00000
      6       3.1843      1.00000
      7       3.2481      1.00000
      8       3.3394      1.00000
      9       3.7168      1.00000
     10       3.8958      1.00000
     11       4.2256      1.00000
     12       4.2627      1.00000
     13       4.3589      1.00000
     14       4.4685      1.00000
     15       4.5471      1.00001
     16       4.9082      1.02153
     17       4.9213      1.02457
     18       6.2755     -0.00000
     19       6.6886     -0.00000
     20      11.0591      0.00000
     21      12.4596      0.00000
     22      13.1411      0.00000
     23      13.7262      0.00000
     24      15.2481      0.00000

 k-point    97 :       0.5000    0.3889    0.0556
  band No.  band energies     occupation 
      1      -0.4731      1.00000
      2       0.4585      1.00000
      3       1.2879      1.00000
      4       2.4914      1.00000
      5       2.6568      1.00000
      6       3.2027      1.00000
      7       3.2606      1.00000
      8       3.3253      1.00000
      9       3.8069      1.00000
     10       3.8199      1.00000
     11       4.2128      1.00000
     12       4.2364      1.00000
     13       4.3583      1.00000
     14       4.4572      1.00000
     15       4.5537      1.00001
     16       4.8930      1.01815
     17       4.8966      1.01893
     18       6.4224     -0.00000
     19       6.4388     -0.00000
     20      11.3078      0.00000
     21      12.1752      0.00000
     22      13.2320      0.00000
     23      13.8526      0.00000
     24      15.0882      0.00000

 k-point    98 :       0.4444    0.4444    0.0556
  band No.  band energies     occupation 
      1      -0.3407      1.00000
      2       0.8610      1.00000
      3       0.8960      1.00000
      4       2.4139      1.00000
      5       2.6489      1.00000
      6       3.2242      1.00000
      7       3.2747      1.00000
      8       3.3230      1.00000
      9       3.7717      1.00000
     10       3.8715      1.00000
     11       4.2438      1.00000
     12       4.2635      1.00000
     13       4.3082      1.00000
     14       4.3812      1.00000
     15       4.5548      1.00001
     16       4.8447      1.00934
     17       4.8887      1.01722
     18       6.2083     -0.00000
     19       6.4126     -0.00000
     20      11.4583      0.00000
     21      12.7344      0.00000
     22      12.8362      0.00000
     23      13.7260      0.00000
     24      14.9878      0.00000

 k-point    99 :       0.5000    0.4444    0.0556
  band No.  band energies     occupation 
      1      -0.1777      1.00000
      2       0.7063      1.00000
      3       0.9715      1.00000
      4       2.3605      1.00000
      5       2.6453      1.00000
      6       3.2385      1.00000
      7       3.2927      1.00000
      8       3.3146      1.00000
      9       3.8254      1.00000
     10       3.8296      1.00000
     11       4.2277      1.00000
     12       4.2634      1.00000
     13       4.3047      1.00000
     14       4.3537      1.00000
     15       4.5582      1.00001
     16       4.8219      1.00645
     17       4.8725      1.01398
     18       6.2555     -0.00000
     19       6.2573     -0.00000
     20      11.6978      0.00000
     21      12.5132      0.00000
     22      12.9289      0.00000
     23      13.7919      0.00000
     24      14.8284      0.00000

 k-point   100 :       0.5000    0.5000    0.0556
  band No.  band energies     occupation 
      1      -0.0243      1.00000
      2       0.8102      1.00000
      3       0.8102      1.00000
      4       2.2936      1.00000
      5       2.6413      1.00000
      6       3.2521      1.00000
      7       3.3105      1.00000
      8       3.3105      1.00000
      9       3.8330      1.00000
     10       3.8330      1.00000
     11       4.2171      1.00000
     12       4.2860      1.00000
     13       4.2860      1.00000
     14       4.3150      1.00000
     15       4.5594      1.00001
     16       4.7972      1.00415
     17       4.8581      1.01143
     18       6.2019     -0.00000
     19       6.2019     -0.00000
     20      11.9439      0.00000
     21      12.6594      0.00000
     22      12.6594      0.00000
     23      13.8381      0.00000
     24      14.6773      0.00000

 k-point   101 :       0.1111    0.1111    0.1111
  band No.  band energies     occupation 
      1      -3.6724      1.00000
      2       1.6556      1.00000
      3       2.1934      1.00000
      4       2.1934      1.00000
      5       2.6019      1.00000
      6       2.7732      1.00000
      7       2.7732      1.00000
      8       3.8434      1.00000
      9       4.1859      1.00000
     10       4.1859      1.00000
     11       4.7319      1.00108
     12       4.7319      1.00108
     13       4.8556      1.01101
     14       4.8556      1.01101
     15       5.0812      0.98151
     16       5.4787     -0.03545
     17       5.9932     -0.00000
     18       6.5520     -0.00000
     19       6.5520     -0.00000
     20      12.2986      0.00000
     21      12.2986      0.00000
     22      12.7338      0.00000
     23      14.4776      0.00000
     24      14.9137      0.00000

 k-point   102 :       0.1667    0.1111    0.1111
  band No.  band energies     occupation 
      1      -3.5014      1.00000
      2       1.6658      1.00000
      3       2.0695      1.00000
      4       2.2942      1.00000
      5       2.5833      1.00000
      6       2.7897      1.00000
      7       2.8357      1.00000
      8       3.7469      1.00000
      9       4.0926      1.00000
     10       4.1986      1.00000
     11       4.5219      1.00000
     12       4.7074      1.00061
     13       4.7637      1.00215
     14       4.8308      1.00748
     15       5.0218      1.03065
     16       5.4614     -0.03399
     17       5.7739     -0.00046
     18       6.6732     -0.00000
     19       6.8173     -0.00000
     20      12.3210      0.00000
     21      12.6030      0.00000
     22      13.4449      0.00000
     23      13.7605      0.00000
     24      14.0580      0.00000

 k-point   103 :       0.2222    0.1111    0.1111
  band No.  band energies     occupation 
      1      -3.2645      1.00000
      2       1.5165      1.00000
      3       2.0107      1.00000
      4       2.4230      1.00000
      5       2.5738      1.00000
      6       2.8155      1.00000
      7       2.9022      1.00000
      8       3.6684      1.00000
      9       3.9898      1.00000
     10       4.1474      1.00000
     11       4.3431      1.00000
     12       4.6494      1.00014
     13       4.6678      1.00023
     14       4.8190      1.00614
     15       4.9633      1.03319
     16       5.4426     -0.02870
     17       5.4446     -0.02947
     18       7.0128     -0.00000
     19       7.1361     -0.00000
     20      12.2742      0.00000
     21      12.7418      0.00000
     22      12.9460      0.00000
     23      13.3422      0.00000
     24      14.4623      0.00000

 k-point   104 :       0.2778    0.1111    0.1111
  band No.  band energies     occupation 
      1      -2.9650      1.00000
      2       1.1444      1.00000
      3       2.0729      1.00000
      4       2.5602      1.00000
      5       2.5697      1.00000
      6       2.8603      1.00000
      7       2.9658      1.00000
      8       3.6161      1.00000
      9       3.8883      1.00000
     10       4.0190      1.00000
     11       4.2687      1.00000
     12       4.5571      1.00001
     13       4.5779      1.00002
     14       4.8062      1.00490
     15       4.9066      1.02117
     16       5.1722      0.75116
     17       5.4253     -0.01944
     18       7.4208     -0.00000
     19       7.4925     -0.00000
     20      11.9472      0.00000
     21      12.1591      0.00000
     22      12.9056      0.00000
     23      12.9907      0.00000
     24      15.2685      0.00000

 k-point   105 :       0.3333    0.1111    0.1111
  band No.  band energies     occupation 
      1      -2.6084      1.00000
      2       0.6530      1.00000
      3       2.1756      1.00000
      4       2.5644      1.00000
      5       2.6687      1.00000
      6       2.9480      1.00000
      7       3.0172      1.00000
      8       3.5956      1.00000
      9       3.7915      1.00000
     10       3.9100      1.00000
     11       4.2277      1.00000
     12       4.4395      1.00000
     13       4.5148      1.00000
     14       4.7579      1.00191
     15       4.8746      1.01438
     16       4.9665      1.03366
     17       5.4116     -0.00846
     18       7.8728     -0.00000
     19       7.8752     -0.00000
     20      11.3652      0.00000
     21      11.4197      0.00000
     22      12.9820      0.00000
     23      13.0901      0.00000
     24      15.5193      0.00000

 k-point   106 :       0.3889    0.1111    0.1111
  band No.  band energies     occupation 
      1      -2.2064      1.00000
      2       0.1179      1.00000
      3       2.2827      1.00000
      4       2.5498      1.00000
      5       2.7252      1.00000
      6       3.0504      1.00000
      7       3.0855      1.00000
      8       3.6105      1.00000
      9       3.6972      1.00000
     10       3.8444      1.00000
     11       4.1926      1.00000
     12       4.3287      1.00000
     13       4.4759      1.00000
     14       4.6740      1.00027
     15       4.8192      1.00616
     16       4.8688      1.01330
     17       5.4021      0.00122
     18       8.2699     -0.00000
     19       8.3627     -0.00000
     20      10.7249      0.00000
     21      10.7704      0.00000
     22      13.0723      0.00000
     23      13.2957      0.00000
     24      15.2588      0.00000

 k-point   107 :       0.4444    0.1111    0.1111
  band No.  band energies     occupation 
      1      -1.7946      1.00000
      2      -0.3871      1.00000
      3       2.3780      1.00000
      4       2.5184      1.00000
      5       2.7485      1.00000
      6       3.0679      1.00000
      7       3.2308      1.00000
      8       3.6038      1.00000
      9       3.6503      1.00000
     10       3.8028      1.00000
     11       4.1713      1.00000
     12       4.2413      1.00000
     13       4.4722      1.00000
     14       4.5860      1.00002
     15       4.7285      1.00100
     16       4.8695      1.01342
     17       5.3968      0.00756
     18       8.6362     -0.00000
     19       8.8878     -0.00000
     20      10.0772     -0.00000
     21      10.2736     -0.00000
     22      13.1624      0.00000
     23      13.4883      0.00000
     24      14.9509      0.00000

 k-point   108 :       0.5000    0.1111    0.1111
  band No.  band energies     occupation 
      1      -1.5538      1.00000
      2      -0.6612      1.00000
      3       2.4379      1.00000
      4       2.4809      1.00000
      5       2.7549      1.00000
      6       3.0735      1.00000
      7       3.3089      1.00000
      8       3.5473      1.00000
      9       3.6775      1.00000
     10       3.7813      1.00000
     11       4.1721      1.00000
     12       4.1994      1.00000
     13       4.4958      1.00000
     14       4.5286      1.00000
     15       4.6976      1.00048
     16       4.8701      1.01353
     17       5.3950      0.00974
     18       8.8207     -0.00000
     19       9.3708     -0.00000
     20       9.5535     -0.00000
     21      10.0443     -0.00000
     22      13.1998      0.00000
     23      13.5783      0.00000
     24      14.8162      0.00000

 k-point   109 :       0.1667    0.1667    0.1111
  band No.  band energies     occupation 
      1      -3.3319      1.00000
      2       1.7013      1.00000
      3       2.0423      1.00000
      4       2.2798      1.00000
      5       2.5563      1.00000
      6       2.8228      1.00000
      7       2.8875      1.00000
      8       3.6548      1.00000
      9       4.0497      1.00000
     10       4.1365      1.00000
     11       4.4451      1.00000
     12       4.6236      1.00007
     13       4.7291      1.00102
     14       4.7924      1.00380
     15       4.9464      1.03012
     16       5.4425     -0.02865
     17       5.8200     -0.00014
     18       6.4866     -0.00000
     19       7.0029     -0.00000
     20      12.4233      0.00000
     21      13.0791      0.00000
     22      13.2776      0.00000
     23      13.6247      0.00000
     24      14.1224      0.00000

 k-point   110 :       0.2222    0.1667    0.1111
  band No.  band energies     occupation 
      1      -3.0973      1.00000
      2       1.5980      1.00000
      3       1.9791      1.00000
      4       2.3720      1.00000
      5       2.5456      1.00000
      6       2.8492      1.00000
      7       2.9576      1.00000
      8       3.5817      1.00000
      9       3.9636      1.00000
     10       4.0336      1.00000
     11       4.3679      1.00000
     12       4.5765      1.00002
     13       4.6539      1.00016
     14       4.7786      1.00291
     15       4.8768      1.01481
     16       5.4166     -0.01288
     17       5.5836     -0.01668
     18       6.6200     -0.00000
     19       7.3038     -0.00000
     20      12.0020      0.00000
     21      12.7097      0.00000
     22      13.2306      0.00000
     23      13.7094      0.00000
     24      14.2311      0.00000

 k-point   111 :       0.2778    0.1667    0.1111
  band No.  band energies     occupation 
      1      -2.8008      1.00000
      2       1.2462      1.00000
      3       2.0395      1.00000
      4       2.4846      1.00000
      5       2.5594      1.00000
      6       2.8892      1.00000
      7       3.0238      1.00000
      8       3.5370      1.00000
      9       3.8508      1.00000
     10       3.9316      1.00000
     11       4.3221      1.00000
     12       4.5268      1.00000
     13       4.5564      1.00001
     14       4.7675      1.00233
     15       4.8206      1.00630
     16       5.2979      0.24729
     17       5.3922      0.01344
     18       6.9134     -0.00000
     19       7.6517     -0.00000
     20      11.2797      0.00000
     21      12.2791      0.00000
     22      13.0233      0.00000
     23      13.8400      0.00000
     24      14.5811      0.00000

 k-point   112 :       0.3333    0.1667    0.1111
  band No.  band energies     occupation 
      1      -2.4484      1.00000
      2       0.7697      1.00000
      3       2.1371      1.00000
      4       2.5210      1.00000
      5       2.6404      1.00000
      6       2.9622      1.00000
      7       3.0715      1.00000
      8       3.5311      1.00000
      9       3.7336      1.00000
     10       3.8641      1.00000
     11       4.2811      1.00000
     12       4.4442      1.00000
     13       4.4910      1.00000
     14       4.7167      1.00076
     15       4.8035      1.00467
     16       5.0707      0.99513
     17       5.3654      0.05779
     18       7.2601     -0.00000
     19       8.0324     -0.00000
     20      10.5860     -0.00000
     21      11.6058      0.00000
     22      13.1310      0.00000
     23      14.0297      0.00000
     24      14.9305      0.00000

 k-point   113 :       0.3889    0.1667    0.1111
  band No.  band energies     occupation 
      1      -2.0520      1.00000
      2       0.2486      1.00000
      3       2.2315      1.00000
      4       2.5205      1.00000
      5       2.7101      1.00000
      6       3.0709      1.00000
      7       3.1074      1.00000
      8       3.5678      1.00000
      9       3.6298      1.00000
     10       3.8118      1.00000
     11       4.2409      1.00000
     12       4.3457      1.00000
     13       4.4690      1.00000
     14       4.6413      1.00011
     15       4.8060      1.00488
     16       4.9040      1.02057
     17       5.3455      0.10213
     18       7.6360     -0.00000
     19       8.4215     -0.00000
     20       9.9802     -0.00000
     21      10.9585      0.00000
     22      13.2890      0.00000
     23      14.2369      0.00000
     24      15.2633      0.00000

 k-point   114 :       0.4444    0.1667    0.1111
  band No.  band energies     occupation 
      1      -1.6483      1.00000
      2      -0.2432      1.00000
      3       2.3038      1.00000
      4       2.5093      1.00000
      5       2.7435      1.00000
      6       3.0967      1.00000
      7       3.2376      1.00000
      8       3.5228      1.00000
      9       3.6315      1.00000
     10       3.7645      1.00000
     11       4.2072      1.00000
     12       4.2751      1.00000
     13       4.4746      1.00000
     14       4.5683      1.00001
     15       4.7936      1.00389
     16       4.8140      1.00562
     17       5.3333      0.13418
     18       8.0161     -0.00000
     19       8.7172     -0.00000
     20       9.5667     -0.00000
     21      10.3975     -0.00000
     22      13.4286      0.00000
     23      14.4268      0.00000
     24      15.3275      0.00000

 k-point   115 :       0.5000    0.1667    0.1111
  band No.  band energies     occupation 
      1      -1.4154      1.00000
      2      -0.5076      1.00000
      3       2.3333      1.00000
      4       2.5009      1.00000
      5       2.7531      1.00000
      6       3.0999      1.00000
      7       3.3482      1.00000
      8       3.4315      1.00000
      9       3.6764      1.00000
     10       3.7299      1.00000
     11       4.1924      1.00000
     12       4.2497      1.00000
     13       4.5064      1.00000
     14       4.5134      1.00000
     15       4.7585      1.00193
     16       4.8130      1.00553
     17       5.3292      0.14569
     18       8.2506     -0.00000
     19       8.7231     -0.00000
     20       9.5260     -0.00000
     21      10.0974     -0.00000
     22      13.4868      0.00000
     23      14.5182      0.00000
     24      15.2241      0.00000

 k-point   116 :       0.2222    0.2222    0.1111
  band No.  band energies     occupation 
      1      -2.8660      1.00000
      2       1.6547      1.00000
      3       1.8285      1.00000
      4       2.3976      1.00000
      5       2.5417      1.00000
      6       2.8732      1.00000
      7       3.0346      1.00000
      8       3.5074      1.00000
      9       3.8887      1.00000
     10       3.9283      1.00000
     11       4.3858      1.00000
     12       4.5213      1.00000
     13       4.6154      1.00005
     14       4.7440      1.00142
     15       4.7886      1.00353
     16       5.3827      0.02717
     17       5.5864     -0.01611
     18       6.4013     -0.00000
     19       7.5761     -0.00000
     20      11.2361      0.00000
     21      12.7793      0.00000
     22      13.4957      0.00000
     23      13.4969      0.00000
     24      14.5681      0.00000

 k-point   117 :       0.2778    0.2222    0.1111
  band No.  band energies     occupation 
      1      -2.5741      1.00000
      2       1.3758      1.00000
      3       1.8639      1.00000
      4       2.4795      1.00000
      5       2.5611      1.00000
      6       2.9059      1.00000
      7       3.1088      1.00000
      8       3.4582      1.00000
      9       3.7553      1.00000
     10       3.8905      1.00000
     11       4.3736      1.00000
     12       4.4826      1.00000
     13       4.5442      1.00001
     14       4.7095      1.00064
     15       4.7323      1.00109
     16       5.3366      0.12519
     17       5.4001      0.00357
     18       6.4953     -0.00000
     19       7.8863     -0.00000
     20      10.4939     -0.00000
     21      12.5330      0.00000
     22      13.1322      0.00000
     23      13.7903      0.00000
     24      14.9065      0.00000

 k-point   118 :       0.3333    0.2222    0.1111
  band No.  band energies     occupation 
      1      -2.2277      1.00000
      2       0.9230      1.00000
      3       1.9698      1.00000
      4       2.5342      1.00000
      5       2.6251      1.00000
      6       2.9636      1.00000
      7       3.1531      1.00000
      8       3.4584      1.00000
      9       3.6467      1.00000
     10       3.8554      1.00000
     11       4.3215      1.00000
     12       4.4578      1.00000
     13       4.4724      1.00000
     14       4.6426      1.00012
     15       4.7299      1.00104
     16       5.1585      0.79830
     17       5.3146      0.19033
     18       6.7376     -0.00000
     19       8.1992     -0.00000
     20       9.8535     -0.00000
     21      11.8697      0.00000
     22      13.2597      0.00000
     23      14.1280      0.00000
     24      15.1315      0.00000

 k-point   119 :       0.3889    0.2222    0.1111
  band No.  band energies     occupation 
      1      -1.8396      1.00000
      2       0.4235      1.00000
      3       2.0602      1.00000
      4       2.5575      1.00000
      5       2.6940      1.00000
      6       3.0570      1.00000
      7       3.1646      1.00000
      8       3.4990      1.00000
      9       3.5762      1.00000
     10       3.8121      1.00000
     11       4.2600      1.00000
     12       4.3831      1.00000
     13       4.4674      1.00000
     14       4.5842      1.00002
     15       4.7323      1.00109
     16       4.9804      1.03513
     17       5.2814      0.30869
     18       7.0415     -0.00000
     19       8.3927     -0.00000
     20       9.4432     -0.00000
     21      11.2216      0.00000
     22      13.4432      0.00000
     23      14.4915      0.00000
     24      15.3417      0.00000

 k-point   120 :       0.4444    0.2222    0.1111
  band No.  band energies     occupation 
      1      -1.4478      1.00000
      2      -0.0484      1.00000
      3       2.1191      1.00000
      4       2.5694      1.00000
      5       2.7325      1.00000
      6       3.1273      1.00000
      7       3.2164      1.00000
      8       3.4489      1.00000
      9       3.6222      1.00000
     10       3.7581      1.00000
     11       4.2097      1.00000
     12       4.3265      1.00000
     13       4.4701      1.00000
     14       4.5452      1.00001
     15       4.7354      1.00117
     16       4.8625      1.01217
     17       5.2604      0.39278
     18       7.3802     -0.00000
     19       8.2270     -0.00000
     20       9.4923     -0.00000
     21      10.6584     -0.00000
     22      13.6019      0.00000
     23      14.8383      0.00000
     24      15.4746      0.00000

 k-point   121 :       0.5000    0.2222    0.1111
  band No.  band energies     occupation 
      1      -1.2259      1.00000
      2      -0.2989      1.00000
      3       2.1394      1.00000
      4       2.5729      1.00000
      5       2.7444      1.00000
      6       3.1333      1.00000
      7       3.3091      1.00000
      8       3.3710      1.00000
      9       3.6905      1.00000
     10       3.7012      1.00000
     11       4.1899      1.00000
     12       4.3020      1.00000
     13       4.4774      1.00000
     14       4.5300      1.00000
     15       4.7371      1.00122
     16       4.8191      1.00615
     17       5.2532      0.42270
     18       7.6360     -0.00000
     19       7.9768     -0.00000
     20       9.6786     -0.00000
     21      10.3522     -0.00000
     22      13.6680      0.00000
     23      15.0330      0.00000
     24      15.4158      0.00000

 k-point   122 :       0.2778    0.2778    0.1111
  band No.  band energies     occupation 
      1      -2.2885      1.00000
      2       1.4866      1.00000
      3       1.5702      1.00000
      4       2.5376      1.00000
      5       2.5784      1.00000
      6       2.9265      1.00000
      7       3.1993      1.00000
      8       3.3922      1.00000
      9       3.6523      1.00000
     10       3.8746      1.00000
     11       4.4125      1.00000
     12       4.4275      1.00000
     13       4.5139      1.00000
     14       4.6212      1.00006
     15       4.6934      1.00044
     16       5.2913      0.27126
     17       5.3628      0.06288
     18       6.3162     -0.00000
     19       8.1247     -0.00000
     20       9.8089     -0.00000
     21      12.7531      0.00000
     22      12.9736      0.00000
     23      13.4260      0.00000
     24      15.8735      0.00000

 k-point   123 :       0.3333    0.2778    0.1111
  band No.  band energies     occupation 
      1      -1.9506      1.00000
      2       1.1010      1.00000
      3       1.6734      1.00000
      4       2.5780      1.00000
      5       2.6364      1.00000
      6       2.9662      1.00000
      7       3.2454      1.00000
      8       3.3845      1.00000
      9       3.5768      1.00000
     10       3.8572      1.00000
     11       4.3481      1.00000
     12       4.4365      1.00000
     13       4.4769      1.00000
     14       4.5498      1.00001
     15       4.6753      1.00028
     16       5.1912      0.68002
     17       5.2567      0.40825
     18       6.3823     -0.00000
     19       8.2368     -0.00000
     20       9.3697     -0.00000
     21      12.1832      0.00000
     22      13.1771      0.00000
     23      13.6169      0.00000
     24      16.1475      0.00000

 k-point   124 :       0.3889    0.2778    0.1111
  band No.  band energies     occupation 
      1      -1.5739      1.00000
      2       0.6325      1.00000
      3       1.7929      1.00000
      4       2.6021      1.00000
      5       2.6922      1.00000
      6       3.0363      1.00000
      7       3.2288      1.00000
      8       3.4195      1.00000
      9       3.5637      1.00000
     10       3.8236      1.00000
     11       4.2729      1.00000
     12       4.4077      1.00000
     13       4.4502      1.00000
     14       4.5255      1.00000
     15       4.6641      1.00021
     16       5.0266      1.02892
     17       5.2097      0.60541
     18       6.5811     -0.00000
     19       8.0081     -0.00000
     20       9.3936     -0.00000
     21      11.5372      0.00000
     22      13.4732      0.00000
     23      13.8942      0.00000
     24      15.9291      0.00000

 k-point   125 :       0.4444    0.2778    0.1111
  band No.  band energies     occupation 
      1      -1.1981      1.00000
      2       0.1888      1.00000
      3       1.8722      1.00000
      4       2.6190      1.00000
      5       2.7215      1.00000
      6       3.1180      1.00000
      7       3.2192      1.00000
      8       3.3937      1.00000
      9       3.6337      1.00000
     10       3.7727      1.00000
     11       4.2181      1.00000
     12       4.3453      1.00000
     13       4.4449      1.00000
     14       4.5362      1.00000
     15       4.6545      1.00016
     16       4.9089      1.02171
     17       5.1797      0.72391
     18       6.8508     -0.00000
     19       7.6101     -0.00000
     20       9.6911     -0.00000
     21      10.9790      0.00000
     22      13.6946      0.00000
     23      14.2054      0.00000
     24      15.5399      0.00000

 k-point   126 :       0.5000    0.2778    0.1111
  band No.  band energies     occupation 
      1      -0.9904      1.00000
      2      -0.0434      1.00000
      3       1.8997      1.00000
      4       2.6247      1.00000
      5       2.7304      1.00000
      6       3.1521      1.00000
      7       3.2307      1.00000
      8       3.3653      1.00000
      9       3.7090      1.00000
     10       3.7124      1.00000
     11       4.1997      1.00000
     12       4.3107      1.00000
     13       4.4503      1.00000
     14       4.5425      1.00001
     15       4.6500      1.00014
     16       4.8660      1.01278
     17       5.1691      0.76233
     18       7.1015     -0.00000
     19       7.3053     -0.00000
     20       9.9114     -0.00000
     21      10.6832     -0.00000
     22      13.7788      0.00000
     23      14.3832      0.00000
     24      15.3316      0.00000

 k-point   127 :       0.3333    0.3333    0.1111
  band No.  band energies     occupation 
      1      -1.6241      1.00000
      2       1.2676      1.00000
      3       1.3078      1.00000
      4       2.5926      1.00000
      5       2.6825      1.00000
      6       2.9883      1.00000
      7       3.3194      1.00000
      8       3.3297      1.00000
      9       3.5464      1.00000
     10       3.8548      1.00000
     11       4.3608      1.00000
     12       4.3761      1.00000
     13       4.4552      1.00000
     14       4.5057      1.00000
     15       4.6395      1.00011
     16       5.1537      0.81406
     17       5.1714      0.75407
     18       6.2454     -0.00000
     19       7.9366     -0.00000
     20       9.3565     -0.00000
     21      12.5311      0.00000
     22      12.5427      0.00000
     23      13.7506      0.00000
     24      16.0790      0.00000

 k-point   128 :       0.3889    0.3333    0.1111
  band No.  band energies     occupation 
      1      -1.2629      1.00000
      2       0.8595      1.00000
      3       1.4556      1.00000
      4       2.5974      1.00000
      5       2.7100      1.00000
      6       3.0435      1.00000
      7       3.2806      1.00000
      8       3.3596      1.00000
      9       3.5832      1.00000
     10       3.8356      1.00000
     11       4.2913      1.00000
     12       4.3701      1.00000
     13       4.4029      1.00000
     14       4.5182      1.00000
     15       4.6119      1.00005
     16       5.0274      1.02856
     17       5.1228      0.90138
     18       6.2961     -0.00000
     19       7.4854     -0.00000
     20       9.6311     -0.00000
     21      11.8939      0.00000
     22      12.9065      0.00000
     23      13.9741      0.00000
     24      15.5769      0.00000

 k-point   129 :       0.4444    0.3333    0.1111
  band No.  band energies     occupation 
      1      -0.9079      1.00000
      2       0.4538      1.00000
      3       1.5753      1.00000
      4       2.5999      1.00000
      5       2.7145      1.00000
      6       3.1098      1.00000
      7       3.2596      1.00000
      8       3.3504      1.00000
      9       3.6648      1.00000
     10       3.7966      1.00000
     11       4.2383      1.00000
     12       4.3109      1.00000
     13       4.4145      1.00000
     14       4.5343      1.00000
     15       4.5842      1.00002
     16       4.9256      1.02555
     17       5.0870      0.97278
     18       6.4644     -0.00000
     19       7.0693     -0.00000
     20       9.9848     -0.00000
     21      11.3429      0.00000
     22      13.2352      0.00000
     23      14.1952      0.00000
     24      15.0994      0.00000

 k-point   130 :       0.5000    0.3333    0.1111
  band No.  band energies     occupation 
      1      -0.7175      1.00000
      2       0.2446      1.00000
      3       1.6193      1.00000
      4       2.6005      1.00000
      5       2.7138      1.00000
      6       3.1415      1.00000
      7       3.2536      1.00000
      8       3.3407      1.00000
      9       3.7401      1.00000
     10       3.7415      1.00000
     11       4.2263      1.00000
     12       4.2728      1.00000
     13       4.4242      1.00000
     14       4.5503      1.00001
     15       4.5633      1.00001
     16       4.8885      1.01719
     17       5.0737      0.99153
     18       6.6794     -0.00000
     19       6.7713     -0.00000
     20      10.2052     -0.00000
     21      11.0590      0.00000
     22      13.3840      0.00000
     23      14.3244      0.00000
     24      14.8570      0.00000

 k-point   131 :       0.3889    0.3889    0.1111
  band No.  band energies     occupation 
      1      -0.9221      1.00000
      2       1.0709      1.00000
      3       1.0865      1.00000
      4       2.5569      1.00000
      5       2.7104      1.00000
      6       3.0960      1.00000
      7       3.3034      1.00000
      8       3.3261      1.00000
      9       3.6371      1.00000
     10       3.8361      1.00000
     11       4.2816      1.00000
     12       4.3293      1.00000
     13       4.3537      1.00000
     14       4.5348      1.00000
     15       4.5636      1.00001
     16       4.9784      1.03499
     17       5.0383      1.02325
     18       6.1950     -0.00000
     19       7.0185     -0.00000
     20       9.9682     -0.00000
     21      12.2266      0.00000
     22      12.3188      0.00000
     23      14.1904      0.00000
     24      15.0397      0.00000

 k-point   132 :       0.4444    0.3889    0.1111
  band No.  band energies     occupation 
      1      -0.5937      1.00000
      2       0.7204      1.00000
      3       1.2484      1.00000
      4       2.5050      1.00000
      5       2.7020      1.00000
      6       3.1591      1.00000
      7       3.2981      1.00000
      8       3.3189      1.00000
      9       3.7097      1.00000
     10       3.8166      1.00000
     11       4.2312      1.00000
     12       4.2919      1.00000
     13       4.3688      1.00000
     14       4.5086      1.00000
     15       4.5496      1.00001
     16       4.9099      1.02192
     17       4.9912      1.03545
     18       6.2401     -0.00000
     19       6.6541     -0.00000
     20      10.3332     -0.00000
     21      11.7261      0.00000
     22      12.6204      0.00000
     23      14.3438      0.00000
     24      14.6158      0.00000

 k-point   133 :       0.5000    0.3889    0.1111
  band No.  band energies     occupation 
      1      -0.4234      1.00000
      2       0.5386      1.00000
      3       1.3148      1.00000
      4       2.4797      1.00000
      5       2.6985      1.00000
      6       3.1868      1.00000
      7       3.2975      1.00000
      8       3.3141      1.00000
      9       3.7713      1.00000
     10       3.7774      1.00000
     11       4.2141      1.00000
     12       4.2681      1.00000
     13       4.3834      1.00000
     14       4.4834      1.00000
     15       4.5534      1.00001
     16       4.8823      1.01591
     17       4.9750      1.03468
     18       6.3826     -0.00000
     19       6.4095     -0.00000
     20      10.5490     -0.00000
     21      11.4519      0.00000
     22      12.7815      0.00000
     23      14.2907      0.00000
     24      14.5460      0.00000

 k-point   134 :       0.4444    0.4444    0.1111
  band No.  band energies     occupation 
      1      -0.2969      1.00000
      2       0.9381      1.00000
      3       0.9408      1.00000
      4       2.3863      1.00000
      5       2.6915      1.00000
      6       3.2251      1.00000
      7       3.2979      1.00000
      8       3.3243      1.00000
      9       3.7601      1.00000
     10       3.8206      1.00000
     11       4.1825      1.00000
     12       4.3244      1.00000
     13       4.3292      1.00000
     14       4.4431      1.00000
     15       4.5515      1.00001
     16       4.8760      1.01464
     17       4.9246      1.02531
     18       6.1655     -0.00000
     19       6.3725     -0.00000
     20      10.6986      0.00000
     21      12.0335      0.00000
     22      12.1258      0.00000
     23      14.0166      0.00000
     24      14.6747      0.00000

 k-point   135 :       0.5000    0.4444    0.1111
  band No.  band energies     occupation 
      1      -0.1480      1.00000
      2       0.7855      1.00000
      3       1.0302      1.00000
      4       2.3289      1.00000
      5       2.6877      1.00000
      6       3.2544      1.00000
      7       3.2954      1.00000
      8       3.3289      1.00000
      9       3.7996      1.00000
     10       3.8030      1.00000
     11       4.1620      1.00000
     12       4.3124      1.00000
     13       4.3443      1.00000
     14       4.4082      1.00000
     15       4.5528      1.00001
     16       4.8581      1.01142
     17       4.9028      1.02031
     18       6.2110     -0.00000
     19       6.2150     -0.00000
     20      10.9132      0.00000
     21      11.8045      0.00000
     22      12.2464      0.00000
     23      13.8178      0.00000
     24      14.7523      0.00000

 k-point   136 :       0.5000    0.5000    0.1111
  band No.  band energies     occupation 
      1      -0.0117      1.00000
      2       0.8902      1.00000
      3       0.8902      1.00000
      4       2.2556      1.00000
      5       2.6839      1.00000
      6       3.2887      1.00000
      7       3.2887      1.00000
      8       3.3368      1.00000
      9       3.8121      1.00000
     10       3.8121      1.00000
     11       4.1405      1.00000
     12       4.3330      1.00000
     13       4.3330      1.00000
     14       4.3686      1.00000
     15       4.5517      1.00001
     16       4.8439      1.00923
     17       4.8781      1.01507
     18       6.1558     -0.00000
     19       6.1558     -0.00000
     20      11.1330      0.00000
     21      11.9685      0.00000
     22      11.9685      0.00000
     23      13.6122      0.00000
     24      14.8387      0.00000

 k-point   137 :       0.1667    0.1667    0.1667
  band No.  band energies     occupation 
      1      -3.1641      1.00000
      2       1.7335      1.00000
      3       2.1476      1.00000
      4       2.1476      1.00000
      5       2.5200      1.00000
      6       2.8989      1.00000
      7       2.8989      1.00000
      8       3.5756      1.00000
      9       4.0332      1.00000
     10       4.0332      1.00000
     11       4.4792      1.00000
     12       4.4792      1.00000
     13       4.7332      1.00112
     14       4.7332      1.00112
     15       4.8608      1.01188
     16       5.4396     -0.02741
     17       5.9203     -0.00001
     18       6.6603     -0.00000
     19       6.6604     -0.00000
     20      12.9957      0.00000
     21      13.0201      0.00000
     22      13.0201      0.00000
     23      13.6743      0.00000
     24      13.6743      0.00000

 k-point   138 :       0.2222    0.1667    0.1667
  band No.  band energies     occupation 
      1      -2.9319      1.00000
      2       1.6580      1.00000
      3       2.0224      1.00000
      4       2.2841      1.00000
      5       2.5083      1.00000
      6       2.9167      1.00000
      7       2.9761      1.00000
      8       3.5174      1.00000
      9       3.9279      1.00000
     10       3.9498      1.00000
     11       4.3919      1.00000
     12       4.4910      1.00000
     13       4.6553      1.00016
     14       4.7364      1.00120
     15       4.7821      1.00311
     16       5.4216     -0.01681
     17       5.7296     -0.00130
     18       6.7072     -0.00000
     19       6.8779     -0.00000
     20      12.2447      0.00000
     21      12.2853      0.00000
     22      13.3585      0.00000
     23      13.6967      0.00000
     24      13.8857      0.00000

 k-point   139 :       0.2778    0.1667    0.1667
  band No.  band energies     occupation 
      1      -2.6388      1.00000
      2       1.3359      1.00000
      3       2.0377      1.00000
      4       2.4383      1.00000
      5       2.5148      1.00000
      6       2.9453      1.00000
      7       3.0435      1.00000
      8       3.4893      1.00000
      9       3.8232      1.00000
     10       3.8444      1.00000
     11       4.3495      1.00000
     12       4.4813      1.00000
     13       4.5646      1.00001
     14       4.7182      1.00079
     15       4.7391      1.00127
     16       5.3930      0.01242
     17       5.4244     -0.01882
     18       6.9951     -0.00000
     19       7.1260     -0.00000
     20      11.4740      0.00000
     21      11.5299      0.00000
     22      13.6898      0.00000
     23      13.8466      0.00000
     24      14.0635      0.00000

 k-point   140 :       0.3333    0.1667    0.1667
  band No.  band energies     occupation 
      1      -2.2909      1.00000
      2       0.8784      1.00000
      3       2.0998      1.00000
      4       2.5322      1.00000
      5       2.5867      1.00000
      6       2.9955      1.00000
      7       3.0884      1.00000
      8       3.5001      1.00000
      9       3.7189      1.00000
     10       3.7650      1.00000
     11       4.3169      1.00000
     12       4.4605      1.00000
     13       4.4738      1.00000
     14       4.6651      1.00021
     15       4.7414      1.00134
     16       5.1606      0.79161
     17       5.3604      0.06786
     18       7.3639     -0.00000
     19       7.3930     -0.00000
     20      10.7490      0.00000
     21      10.8491      0.00000
     22      14.0331      0.00000
     23      14.0482      0.00000
     24      14.2743      0.00000

 k-point   141 :       0.3889    0.1667    0.1667
  band No.  band energies     occupation 
      1      -1.9007      1.00000
      2       0.3736      1.00000
      3       2.1569      1.00000
      4       2.5515      1.00000
      5       2.6968      1.00000
      6       3.0847      1.00000
      7       3.1120      1.00000
      8       3.5461      1.00000
      9       3.6113      1.00000
     10       3.7168      1.00000
     11       4.2770      1.00000
     12       4.4031      1.00000
     13       4.4462      1.00000
     14       4.6125      1.00005
     15       4.7444      1.00143
     16       4.9611      1.03286
     17       5.3313      0.13985
     18       7.6617     -0.00000
     19       7.7781     -0.00000
     20      10.0834     -0.00000
     21      10.2762     -0.00000
     22      14.2226      0.00000
     23      14.4045      0.00000
     24      14.5267      0.00000

 k-point   142 :       0.4444    0.1667    0.1667
  band No.  band energies     occupation 
      1      -1.5060      1.00000
      2      -0.1032      1.00000
      3       2.1944      1.00000
      4       2.5644      1.00000
      5       2.7533      1.00000
      6       3.1266      1.00000
      7       3.2109      1.00000
      8       3.4961      1.00000
      9       3.6038      1.00000
     10       3.6847      1.00000
     11       4.2357      1.00000
     12       4.3647      1.00000
     13       4.4492      1.00000
     14       4.5613      1.00001
     15       4.7470      1.00151
     16       4.8333      1.00780
     17       5.3115      0.20053
     18       7.8914     -0.00000
     19       8.2124     -0.00000
     20       9.4986     -0.00000
     21       9.8604     -0.00000
     22      14.3727      0.00000
     23      14.6557      0.00000
     24      14.8458      0.00000

 k-point   143 :       0.5000    0.1667    0.1667
  band No.  band energies     occupation 
      1      -1.2817      1.00000
      2      -0.3569      1.00000
      3       2.2073      1.00000
      4       2.5685      1.00000
      5       2.7692      1.00000
      6       3.1328      1.00000
      7       3.3158      1.00000
      8       3.4001      1.00000
      9       3.6451      1.00000
     10       3.6571      1.00000
     11       4.2180      1.00000
     12       4.3530      1.00000
     13       4.4590      1.00000
     14       4.5338      1.00000
     15       4.7480      1.00154
     16       4.7885      1.00352
     17       5.3046      0.22394
     18       7.9915     -0.00000
     19       8.4984     -0.00000
     20       9.1623     -0.00000
     21       9.6976     -0.00000
     22      14.4316      0.00000
     23      14.7507      0.00000
     24      15.0463      0.00000

 k-point   144 :       0.2222    0.2222    0.1667
  band No.  band energies     occupation 
      1      -2.7033      1.00000
      2       1.6766      1.00000
      3       1.9418      1.00000
      4       2.2866      1.00000
      5       2.5107      1.00000
      6       2.9516      1.00000
      7       3.0338      1.00000
      8       3.4668      1.00000
      9       3.8400      1.00000
     10       3.8679      1.00000
     11       4.3997      1.00000
     12       4.4533      1.00000
     13       4.6303      1.00008
     14       4.6891      1.00039
     15       4.7031      1.00055
     16       5.4081     -0.00509
     17       5.7475     -0.00087
     18       6.4973     -0.00000
     19       7.0118     -0.00000
     20      11.4595      0.00000
     21      12.4882      0.00000
     22      12.6069      0.00000
     23      13.9079      0.00000
     24      14.6916      0.00000

 k-point   145 :       0.2778    0.2222    0.1667
  band No.  band energies     occupation 
      1      -2.4152      1.00000
      2       1.4416      1.00000
      3       1.9140      1.00000
      4       2.4051      1.00000
      5       2.5374      1.00000
      6       2.9722      1.00000
      7       3.1016      1.00000
      8       3.4413      1.00000
      9       3.7342      1.00000
     10       3.8005      1.00000
     11       4.3799      1.00000
     12       4.4496      1.00000
     13       4.5657      1.00001
     14       4.6140      1.00005
     15       4.6974      1.00048
     16       5.3783      0.03425
     17       5.5262     -0.02953
     18       6.5747     -0.00000
     19       7.2490     -0.00000
     20      10.7094      0.00000
     21      11.7707      0.00000
     22      12.8686      0.00000
     23      14.0908      0.00000
     24      15.0430      0.00000

 k-point   146 :       0.3333    0.2222    0.1667
  band No.  band energies     occupation 
      1      -2.0741      1.00000
      2       1.0182      1.00000
      3       1.9639      1.00000
      4       2.5460      1.00000
      5       2.5794      1.00000
      6       3.0012      1.00000
      7       3.1445      1.00000
      8       3.4557      1.00000
      9       3.6472      1.00000
     10       3.7406      1.00000
     11       4.3420      1.00000
     12       4.4424      1.00000
     13       4.5005      1.00000
     14       4.5686      1.00001
     15       4.6945      1.00045
     16       5.2490      0.44031
     17       5.3467      0.09905
     18       6.8090     -0.00000
     19       7.5112     -0.00000
     20      10.0492     -0.00000
     21      11.0664      0.00000
     22      13.2258      0.00000
     23      14.3007      0.00000
     24      15.2761      0.00000

 k-point   147 :       0.3889    0.2222    0.1667
  band No.  band energies     occupation 
      1      -1.6931      1.00000
      2       0.5395      1.00000
      3       2.0084      1.00000
      4       2.6130      1.00000
      5       2.6772      1.00000
      6       3.0520      1.00000
      7       3.1645      1.00000
      8       3.4937      1.00000
      9       3.5818      1.00000
     10       3.6951      1.00000
     11       4.2921      1.00000
     12       4.4208      1.00000
     13       4.4601      1.00000
     14       4.5531      1.00001
     15       4.6869      1.00037
     16       5.0282      1.02824
     17       5.3080      0.21229
     18       7.0892     -0.00000
     19       7.7631     -0.00000
     20       9.5197     -0.00000
     21      10.4486     -0.00000
     22      13.6063      0.00000
     23      14.5190      0.00000
     24      15.4917      0.00000

 k-point   148 :       0.4444    0.2222    0.1667
  band No.  band energies     occupation 
      1      -1.3116      1.00000
      2       0.0858      1.00000
      3       2.0356      1.00000
      4       2.6382      1.00000
      5       2.7548      1.00000
      6       3.1243      1.00000
      7       3.1815      1.00000
      8       3.4662      1.00000
      9       3.5829      1.00000
     10       3.6689      1.00000
     11       4.2504      1.00000
     12       4.3941      1.00000
     13       4.4500      1.00000
     14       4.5516      1.00001
     15       4.6772      1.00029
     16       4.8785      1.01514
     17       5.2810      0.31047
     18       7.3664     -0.00000
     19       7.9188     -0.00000
     20       9.2047     -0.00000
     21       9.9594     -0.00000
     22      13.9582      0.00000
     23      14.7106      0.00000
     24      15.5521      0.00000

 k-point   149 :       0.5000    0.2222    0.1667
  band No.  band energies     occupation 
      1      -1.0994      1.00000
      2      -0.1525      1.00000
      3       2.0447      1.00000
      4       2.6460      1.00000
      5       2.7792      1.00000
      6       3.1626      1.00000
      7       3.1969      1.00000
      8       3.4288      1.00000
      9       3.5956      1.00000
     10       3.6629      1.00000
     11       4.2354      1.00000
     12       4.3808      1.00000
     13       4.4519      1.00000
     14       4.5521      1.00001
     15       4.6726      1.00026
     16       4.8235      1.00663
     17       5.2712      0.34912
     18       7.5175     -0.00000
     19       7.9277     -0.00000
     20       9.1416     -0.00000
     21       9.7380     -0.00000
     22      14.1279      0.00000
     23      14.8061      0.00000
     24      15.3832      0.00000

 k-point   150 :       0.2778    0.2778    0.1667
  band No.  band energies     occupation 
      1      -2.1341      1.00000
      2       1.4877      1.00000
      3       1.6911      1.00000
      4       2.4530      1.00000
      5       2.5883      1.00000
      6       2.9805      1.00000
      7       3.1749      1.00000
      8       3.4035      1.00000
      9       3.6485      1.00000
     10       3.7692      1.00000
     11       4.4024      1.00000
     12       4.4233      1.00000
     13       4.5104      1.00000
     14       4.5521      1.00001
     15       4.6731      1.00026
     16       5.3467      0.09902
     17       5.4979     -0.03435
     18       6.3459     -0.00000
     19       7.4407     -0.00000
     20      10.0090     -0.00000
     21      12.0571      0.00000
     22      12.1196      0.00000
     23      14.2878      0.00000
     24      16.0133      0.00000

 k-point   151 :       0.3333    0.2778    0.1667
  band No.  band energies     occupation 
      1      -1.8023      1.00000
      2       1.1728      1.00000
      3       1.7135      1.00000
      4       2.5330      1.00000
      5       2.6562      1.00000
      6       2.9909      1.00000
      7       3.2191      1.00000
      8       3.4021      1.00000
      9       3.5939      1.00000
     10       3.7389      1.00000
     11       4.3607      1.00000
     12       4.4195      1.00000
     13       4.4570      1.00000
     14       4.5247      1.00000
     15       4.6640      1.00021
     16       5.2792      0.31752
     17       5.3289      0.14658
     18       6.3991     -0.00000
     19       7.6032     -0.00000
     20       9.4600     -0.00000
     21      11.3782      0.00000
     22      12.4468      0.00000
     23      14.5072      0.00000
     24      16.0265      0.00000

 k-point   152 :       0.3889    0.2778    0.1667
  band No.  band energies     occupation 
      1      -1.4342      1.00000
      2       0.7352      1.00000
      3       1.7852      1.00000
      4       2.6158      1.00000
      5       2.7192      1.00000
      6       3.0151      1.00000
      7       3.2291      1.00000
      8       3.4189      1.00000
      9       3.5849      1.00000
     10       3.7087      1.00000
     11       4.2997      1.00000
     12       4.3717      1.00000
     13       4.4720      1.00000
     14       4.5205      1.00000
     15       4.6516      1.00015
     16       5.0752      0.98957
     17       5.2705      0.35172
     18       6.5902     -0.00000
     19       7.6359     -0.00000
     20       9.1677     -0.00000
     21      10.7509      0.00000
     22      12.8302      0.00000
     23      14.7237      0.00000
     24      15.4709      0.00000

 k-point   153 :       0.4444    0.2778    0.1667
  band No.  band energies     occupation 
      1      -1.0709      1.00000
      2       0.3150      1.00000
      3       1.8307      1.00000
      4       2.6734      1.00000
      5       2.7633      1.00000
      6       3.0496      1.00000
      7       3.2381      1.00000
      8       3.4067      1.00000
      9       3.6115      1.00000
     10       3.6864      1.00000
     11       4.2614      1.00000
     12       4.3255      1.00000
     13       4.4910      1.00000
     14       4.5415      1.00001
     15       4.6276      1.00008
     16       4.9148      1.02305
     17       5.2370      0.49087
     18       6.8346     -0.00000
     19       7.4714     -0.00000
     20       9.1886     -0.00000
     21      10.2383     -0.00000
     22      13.1899      0.00000
     23      14.8234      0.00000
     24      15.0675      0.00000

 k-point   154 :       0.5000    0.2778    0.1667
  band No.  band energies     occupation 
      1      -0.8746      1.00000
      2       0.0976      1.00000
      3       1.8457      1.00000
      4       2.6912      1.00000
      5       2.7811      1.00000
      6       3.0672      1.00000
      7       3.2454      1.00000
      8       3.3943      1.00000
      9       3.6228      1.00000
     10       3.6818      1.00000
     11       4.2546      1.00000
     12       4.3010      1.00000
     13       4.5012      1.00000
     14       4.5624      1.00001
     15       4.6065      1.00004
     16       4.8537      1.01070
     17       5.2247      0.54301
     18       7.0225     -0.00000
     19       7.2891     -0.00000
     20       9.2966     -0.00000
     21       9.9874     -0.00000
     22      13.3680      0.00000
     23      14.6904      0.00000
     24      15.0539      0.00000

 k-point   155 :       0.3333    0.3333    0.1667
  band No.  band energies     occupation 
      1      -1.4833      1.00000
      2       1.2652      1.00000
      3       1.4334      1.00000
      4       2.5441      1.00000
      5       2.7317      1.00000
      6       2.9907      1.00000
      7       3.2693      1.00000
      8       3.3716      1.00000
      9       3.5802      1.00000
     10       3.7375      1.00000
     11       4.3441      1.00000
     12       4.3847      1.00000
     13       4.3958      1.00000
     14       4.5303      1.00000
     15       4.6523      1.00015
     16       5.2441      0.46090
     17       5.2500      0.43620
     18       6.2229     -0.00000
     19       7.5500     -0.00000
     20       9.1465     -0.00000
     21      11.7310      0.00000
     22      11.7380      0.00000
     23      14.7149      0.00000
     24      15.4313      0.00000

 k-point   156 :       0.3889    0.3333    0.1667
  band No.  band energies     occupation 
      1      -1.1329      1.00000
      2       0.9421      1.00000
      3       1.4966      1.00000
      4       2.5723      1.00000
      5       2.7713      1.00000
      6       3.0194      1.00000
      7       3.2756      1.00000
      8       3.3740      1.00000
      9       3.6087      1.00000
     10       3.7307      1.00000
     11       4.2706      1.00000
     12       4.3396      1.00000
     13       4.4197      1.00000
     14       4.5369      1.00000
     15       4.6421      1.00011
     16       5.0770      0.98729
     17       5.2062      0.62007
     18       6.2633     -0.00000
     19       7.3034     -0.00000
     20       9.1648     -0.00000
     21      11.1017      0.00000
     22      12.1182      0.00000
     23      14.6555      0.00000
     24      15.1147      0.00000

 k-point   157 :       0.4444    0.3333    0.1667
  band No.  band energies     occupation 
      1      -0.7938      1.00000
      2       0.5698      1.00000
      3       1.5822      1.00000
      4       2.6046      1.00000
      5       2.7773      1.00000
      6       3.0548      1.00000
      7       3.2909      1.00000
      8       3.3620      1.00000
      9       3.6568      1.00000
     10       3.7185      1.00000
     11       4.2253      1.00000
     12       4.3002      1.00000
     13       4.4531      1.00000
     14       4.5492      1.00001
     15       4.6179      1.00006
     16       4.9262      1.02569
     17       5.1709      0.75573
     18       6.4246     -0.00000
     19       6.9828     -0.00000
     20       9.3790     -0.00000
     21      10.5802     -0.00000
     22      12.4805      0.00000
     23      14.2129      0.00000
     24      15.2500      0.00000

 k-point   158 :       0.5000    0.3333    0.1667
  band No.  band energies     occupation 
      1      -0.6173      1.00000
      2       0.3795      1.00000
      3       1.6129      1.00000
      4       2.6197      1.00000
      5       2.7756      1.00000
      6       3.0673      1.00000
      7       3.3171      1.00000
      8       3.3397      1.00000
      9       3.6819      1.00000
     10       3.7094      1.00000
     11       4.2132      1.00000
     12       4.2837      1.00000
     13       4.4699      1.00000
     14       4.5638      1.00001
     15       4.5940      1.00003
     16       4.8672      1.01300
     17       5.1574      0.80209
     18       6.6074     -0.00000
     19       6.7412     -0.00000
     20       9.5432     -0.00000
     21      10.3219     -0.00000
     22      12.6616      0.00000
     23      13.9910      0.00000
     24      15.3241      0.00000

 k-point   159 :       0.3889    0.3889    0.1667
  band No.  band energies     occupation 
      1      -0.8065      1.00000
      2       1.0872      1.00000
      3       1.2143      1.00000
      4       2.5204      1.00000
      5       2.7783      1.00000
      6       3.0779      1.00000
      7       3.2761      1.00000
      8       3.3811      1.00000
      9       3.6525      1.00000
     10       3.7485      1.00000
     11       4.2004      1.00000
     12       4.3574      1.00000
     13       4.3710      1.00000
     14       4.5470      1.00001
     15       4.6342      1.00009
     16       5.0087      1.03392
     17       5.1297      0.88392
     18       6.1380     -0.00000
     19       6.9136     -0.00000
     20       9.3750     -0.00000
     21      11.4519      0.00000
     22      11.5132      0.00000
     23      14.0881      0.00000
     24      15.3093      0.00000

 k-point   160 :       0.4444    0.3889    0.1667
  band No.  band energies     occupation 
      1      -0.4991      1.00000
      2       0.8244      1.00000
      3       1.3054      1.00000
      4       2.4738      1.00000
      5       2.7702      1.00000
      6       3.1313      1.00000
      7       3.2813      1.00000
      8       3.3915      1.00000
      9       3.7042      1.00000
     10       3.7535      1.00000
     11       4.1494      1.00000
     12       4.3311      1.00000
     13       4.3952      1.00000
     14       4.5528      1.00001
     15       4.6051      1.00004
     16       4.9025      1.02025
     17       5.0861      0.97427
     18       6.1764     -0.00000
     19       6.5785     -0.00000
     20       9.6671     -0.00000
     21      10.9551      0.00000
     22      11.8455      0.00000
     23      13.5853      0.00000
     24      15.5098      0.00000

 k-point   161 :       0.5000    0.3889    0.1667
  band No.  band energies     occupation 
      1      -0.3463      1.00000
      2       0.6682      1.00000
      3       1.3598      1.00000
      4       2.4539      1.00000
      5       2.7663      1.00000
      6       3.1461      1.00000
      7       3.2954      1.00000
      8       3.3907      1.00000
      9       3.7377      1.00000
     10       3.7428      1.00000
     11       4.1319      1.00000
     12       4.3244      1.00000
     13       4.4093      1.00000
     14       4.5578      1.00001
     15       4.5783      1.00002
     16       4.8574      1.01131
     17       5.0716      0.99409
     18       6.3075     -0.00000
     19       6.3523     -0.00000
     20       9.8517     -0.00000
     21      10.6955      0.00000
     22      12.0268      0.00000
     23      13.3552      0.00000
     24      15.5939      0.00000

 k-point   162 :       0.4444    0.4444    0.1667
  band No.  band energies     occupation 
      1      -0.2309      1.00000
      2       1.0092      1.00000
      3       1.0695      1.00000
      4       2.3418      1.00000
      5       2.7614      1.00000
      6       3.2050      1.00000
      7       3.2632      1.00000
      8       3.4330      1.00000
      9       3.7485      1.00000
     10       3.7764      1.00000
     11       4.0925      1.00000
     12       4.3625      1.00000
     13       4.3687      1.00000
     14       4.5499      1.00001
     15       4.5544      1.00001
     16       4.8558      1.01105
     17       5.0217      1.03069
     18       6.0902     -0.00000
     19       6.2965     -0.00000
     20       9.9919     -0.00000
     21      11.2840      0.00000
     22      11.3459      0.00000
     23      13.0733      0.00000
     24      15.7247      0.00000

 k-point   163 :       0.5000    0.4444    0.1667
  band No.  band energies     occupation 
      1      -0.1041      1.00000
      2       0.9133      1.00000
      3       1.1275      1.00000
      4       2.2820      1.00000
      5       2.7580      1.00000
      6       3.2254      1.00000
      7       3.2680      1.00000
      8       3.4479      1.00000
      9       3.7754      1.00000
     10       3.7765      1.00000
     11       4.0715      1.00000
     12       4.3684      1.00000
     13       4.3790      1.00000
     14       4.5133      1.00000
     15       4.5470      1.00001
     16       4.8325      1.00769
     17       5.0011      1.03494
     18       6.1319     -0.00000
     19       6.1395     -0.00000
     20      10.1871     -0.00000
     21      11.0510      0.00000
     22      11.4956      0.00000
     23      12.8423      0.00000
     24      15.8125      0.00000

 k-point   164 :       0.5000    0.5000    0.1667
  band No.  band energies     occupation 
      1       0.0073      1.00000
      2       1.0190      1.00000
      3       1.0190      1.00000
      4       2.2015      1.00000
      5       2.7547      1.00000
      6       3.2588      1.00000
      7       3.2588      1.00000
      8       3.4692      1.00000
      9       3.7903      1.00000
     10       3.7903      1.00000
     11       4.0484      1.00000
     12       4.3904      1.00000
     13       4.3904      1.00000
     14       4.4527      1.00000
     15       4.5398      1.00001
     16       4.8184      1.00608
     17       4.9769      1.03486
     18       6.0750     -0.00000
     19       6.0750     -0.00000
     20      10.3895     -0.00000
     21      11.2279      0.00000
     22      11.2279      0.00000
     23      12.6130      0.00000
     24      15.9011      0.00000

 k-point   165 :       0.2222    0.2222    0.2222
  band No.  band energies     occupation 
      1      -2.4788      1.00000
      2       1.6634      1.00000
      3       2.0910      1.00000
      4       2.0910      1.00000
      5       2.5364      1.00000
      6       3.0336      1.00000
      7       3.0336      1.00000
      8       3.4351      1.00000
      9       3.7800      1.00000
     10       3.7800      1.00000
     11       4.4159      1.00000
     12       4.4159      1.00000
     13       4.5904      1.00003
     14       4.6464      1.00013
     15       4.6464      1.00013
     16       5.4114     -0.00832
     17       5.8290     -0.00011
     18       6.6234     -0.00000
     19       6.6234     -0.00000
     20      11.6426      0.00000
     21      11.7762      0.00000
     22      11.7762      0.00000
     23      14.8608      0.00000
     24      14.8608      0.00000

 k-point   166 :       0.2778    0.2222    0.2222
  band No.  band energies     occupation 
      1      -2.1964      1.00000
      2       1.4976      1.00000
      3       1.9455      1.00000
      4       2.2658      1.00000
      5       2.5881      1.00000
      6       3.0340      1.00000
      7       3.1043      1.00000
      8       3.4234      1.00000
      9       3.7022      1.00000
     10       3.7132      1.00000
     11       4.3903      1.00000
     12       4.4290      1.00000
     13       4.5084      1.00000
     14       4.5854      1.00002
     15       4.6587      1.00018
     16       5.3930      0.01238
     17       5.6481     -0.00642
     18       6.6236     -0.00000
     19       6.7702     -0.00000
     20      10.9182      0.00000
     21      11.0308      0.00000
     22      12.0521      0.00000
     23      15.0659      0.00000
     24      15.3191      0.00000

 k-point   167 :       0.3333    0.2222    0.2222
  band No.  band energies     occupation 
      1      -1.8629      1.00000
      2       1.1332      1.00000
      3       1.9148      1.00000
      4       2.4509      1.00000
      5       2.6484      1.00000
      6       3.0346      1.00000
      7       3.1500      1.00000
      8       3.4442      1.00000
      9       3.6440      1.00000
     10       3.6559      1.00000
     11       4.3558      1.00000
     12       4.4031      1.00000
     13       4.4854      1.00000
     14       4.5392      1.00001
     15       4.6627      1.00020
     16       5.3528      0.08476
     17       5.3591      0.07068
     18       6.8650     -0.00000
     19       6.9265     -0.00000
     20      10.2170     -0.00000
     21      10.3927     -0.00000
     22      12.4105      0.00000
     23      15.2919      0.00000
     24      15.5255      0.00000

 k-point   168 :       0.3889    0.2222    0.2222
  band No.  band energies     occupation 
      1      -1.4927      1.00000
      2       0.6908      1.00000
      3       1.9165      1.00000
      4       2.6253      1.00000
      5       2.6985      1.00000
      6       3.0343      1.00000
      7       3.1835      1.00000
      8       3.4800      1.00000
      9       3.5772      1.00000
     10       3.6415      1.00000
     11       4.3112      1.00000
     12       4.3542      1.00000
     13       4.5106      1.00000
     14       4.5223      1.00000
     15       4.6536      1.00016
     16       5.0935      0.96225
     17       5.3203      0.17244
     18       7.0765     -0.00000
     19       7.1801     -0.00000
     20       9.5966     -0.00000
     21       9.8877     -0.00000
     22      12.7974      0.00000
     23      15.3206      0.00000
     24      15.5118      0.00000

 k-point   169 :       0.4444    0.2222    0.2222
  band No.  band energies     occupation 
      1      -1.1266      1.00000
      2       0.2660      1.00000
      3       1.9212      1.00000
      4       2.7264      1.00000
      5       2.7592      1.00000
      6       3.0315      1.00000
      7       3.2200      1.00000
      8       3.4936      1.00000
      9       3.5231      1.00000
     10       3.6516      1.00000
     11       4.2768      1.00000
     12       4.3213      1.00000
     13       4.5322      1.00000
     14       4.5466      1.00001
     15       4.6300      1.00008
     16       4.9064      1.02111
     17       5.2895      0.27816
     18       7.1936     -0.00000
     19       7.4943     -0.00000
     20       9.1024     -0.00000
     21       9.5526     -0.00000
     22      13.1650      0.00000
     23      14.8578      0.00000
     24      15.6816      0.00000

 k-point   170 :       0.5000    0.2222    0.2222
  band No.  band energies     occupation 
      1      -0.9284      1.00000
      2       0.0458      1.00000
      3       1.9231      1.00000
      4       2.7344      1.00000
      5       2.8126      1.00000
      6       3.0286      1.00000
      7       3.2394      1.00000
      8       3.4915      1.00000
      9       3.5008      1.00000
     10       3.6604      1.00000
     11       4.2653      1.00000
     12       4.3100      1.00000
     13       4.5456      1.00001
     14       4.5758      1.00002
     15       4.6051      1.00004
     16       4.8306      1.00745
     17       5.2777      0.32306
     18       7.2398     -0.00000
     19       7.6555     -0.00000
     20       8.8815     -0.00000
     21       9.4328     -0.00000
     22      13.3510      0.00000
     23      14.6315      0.00000
     24      15.7474      0.00000

 k-point   171 :       0.2778    0.2778    0.2222
  band No.  band energies     occupation 
      1      -1.9219      1.00000
      2       1.4745      1.00000
      3       1.8514      1.00000
      4       2.2676      1.00000
      5       2.6597      1.00000
      6       3.0473      1.00000
      7       3.1444      1.00000
      8       3.4127      1.00000
      9       3.6416      1.00000
     10       3.6793      1.00000
     11       4.3957      1.00000
     12       4.4117      1.00000
     13       4.4171      1.00000
     14       4.5799      1.00002
     15       4.6404      1.00011
     16       5.3819      0.02849
     17       5.6437     -0.00691
     18       6.3871     -0.00000
     19       6.8392     -0.00000
     20      10.2556     -0.00000
     21      11.2603      0.00000
     22      11.3260      0.00000
     23      15.3683      0.00000
     24      15.9374      0.00000

 k-point   172 :       0.3333    0.2778    0.2222
  band No.  band energies     occupation 
      1      -1.5993      1.00000
      2       1.2410      1.00000
      3       1.7775      1.00000
      4       2.3972      1.00000
      5       2.7341      1.00000
      6       3.0341      1.00000
      7       3.1843      1.00000
      8       3.4251      1.00000
      9       3.6093      1.00000
     10       3.6541      1.00000
     11       4.3284      1.00000
     12       4.3675      1.00000
     13       4.4349      1.00000
     14       4.5607      1.00001
     15       4.6442      1.00012
     16       5.3483      0.09532
     17       5.4231     -0.01793
     18       6.4205     -0.00000
     19       6.9766     -0.00000
     20       9.6549     -0.00000
     21      10.6185     -0.00000
     22      11.6499      0.00000
     23      15.2082      0.00000
     24      15.6856      0.00000

 k-point   173 :       0.3889    0.2778    0.2222
  band No.  band energies     occupation 
      1      -1.2444      1.00000
      2       0.8632      1.00000
      3       1.7708      1.00000
      4       2.5568      1.00000
      5       2.7891      1.00000
      6       3.0098      1.00000
      7       3.2226      1.00000
      8       3.4401      1.00000
      9       3.5961      1.00000
     10       3.6465      1.00000
     11       4.2660      1.00000
     12       4.3267      1.00000
     13       4.4674      1.00000
     14       4.5616      1.00001
     15       4.6410      1.00011
     16       5.1491      0.82853
     17       5.3144      0.19106
     18       6.5887     -0.00000
     19       7.0994     -0.00000
     20       9.2042     -0.00000
     21      10.0524     -0.00000
     22      12.0362      0.00000
     23      14.6054      0.00000
     24      15.8968      0.00000

 k-point   174 :       0.4444    0.2778    0.2222
  band No.  band energies     occupation 
      1      -0.9000      1.00000
      2       0.4828      1.00000
      3       1.7744      1.00000
      4       2.7004      1.00000
      5       2.8183      1.00000
      6       2.9671      1.00000
      7       3.2796      1.00000
      8       3.4252      1.00000
      9       3.5828      1.00000
     10       3.6629      1.00000
     11       4.2277      1.00000
     12       4.2985      1.00000
     13       4.5070      1.00000
     14       4.5848      1.00002
     15       4.6282      1.00008
     16       4.9358      1.02787
     17       5.2800      0.31430
     18       6.7649     -0.00000
     19       7.1638     -0.00000
     20       8.9474     -0.00000
     21       9.6386     -0.00000
     22      12.4078      0.00000
     23      14.0898      0.00000
     24      16.0815      0.00000

 k-point   175 :       0.5000    0.2778    0.2222
  band No.  band energies     occupation 
      1      -0.7201      1.00000
      2       0.2879      1.00000
      3       1.7761      1.00000
      4       2.7661      1.00000
      5       2.8383      1.00000
      6       2.9266      1.00000
      7       3.3215      1.00000
      8       3.4008      1.00000
      9       3.5756      1.00000
     10       3.6733      1.00000
     11       4.2152      1.00000
     12       4.2900      1.00000
     13       4.5324      1.00000
     14       4.5894      1.00002
     15       4.6373      1.00010
     16       4.8377      1.00836
     17       5.2667      0.36719
     18       6.8518     -0.00000
     19       7.1683     -0.00000
     20       8.8779     -0.00000
     21       9.4733     -0.00000
     22      12.5990      0.00000
     23      13.8498      0.00000
     24      16.1559      0.00000

 k-point   176 :       0.3333    0.3333    0.2222
  band No.  band energies     occupation 
      1      -1.2920      1.00000
      2       1.2582      1.00000
      3       1.6002      1.00000
      4       2.4176      1.00000
      5       2.8126      1.00000
      6       3.0248      1.00000
      7       3.2101      1.00000
      8       3.4278      1.00000
      9       3.6082      1.00000
     10       3.6608      1.00000
     11       4.2462      1.00000
     12       4.3731      1.00000
     13       4.4027      1.00000
     14       4.5640      1.00001
     15       4.6488      1.00014
     16       5.3171      0.18244
     17       5.3656      0.05725
     18       6.1900     -0.00000
     19       7.0076     -0.00000
     20       9.1960     -0.00000
     21      10.9499      0.00000
     22      10.9802      0.00000
     23      14.5301      0.00000
     24      15.9206      0.00000

 k-point   177 :       0.3889    0.3333    0.2222
  band No.  band energies     occupation 
      1      -0.9584      1.00000
      2       1.0310      1.00000
      3       1.5690      1.00000
      4       2.4893      1.00000
      5       2.8524      1.00000
      6       3.0240      1.00000
      7       3.2346      1.00000
      8       3.4427      1.00000
      9       3.6298      1.00000
     10       3.6699      1.00000
     11       4.1789      1.00000
     12       4.3435      1.00000
     13       4.4183      1.00000
     14       4.5700      1.00001
     15       4.6570      1.00017
     16       5.1600      0.79349
     17       5.2798      0.31491
     18       6.2129     -0.00000
     19       6.9453     -0.00000
     20       8.9696     -0.00000
     21      10.3747     -0.00000
     22      11.3459      0.00000
     23      13.8923      0.00000
     24      16.1662      0.00000

 k-point   178 :       0.4444    0.3333    0.2222
  band No.  band energies     occupation 
      1      -0.6436      1.00000
      2       0.7209      1.00000
      3       1.5947      1.00000
      4       2.5705      1.00000
      5       2.8563      1.00000
      6       3.0139      1.00000
      7       3.2878      1.00000
      8       3.4371      1.00000
      9       3.6470      1.00000
     10       3.6862      1.00000
     11       4.1361      1.00000
     12       4.3234      1.00000
     13       4.4477      1.00000
     14       4.5831      1.00002
     15       4.6689      1.00023
     16       4.9481      1.03047
     17       5.2443      0.46016
     18       6.3515     -0.00000
     19       6.7906     -0.00000
     20       8.9670     -0.00000
     21       9.9137     -0.00000
     22      11.7162      0.00000
     23      13.3658      0.00000
     24      16.3652      0.00000

 k-point   179 :       0.5000    0.3333    0.2222
  band No.  band energies     occupation 
      1      -0.4869      1.00000
      2       0.5605      1.00000
      3       1.6058      1.00000
      4       2.6086      1.00000
      5       2.8527      1.00000
      6       3.0044      1.00000
      7       3.3259      1.00000
      8       3.4221      1.00000
      9       3.6496      1.00000
     10       3.6963      1.00000
     11       4.1217      1.00000
     12       4.3203      1.00000
     13       4.4631      1.00000
     14       4.5876      1.00002
     15       4.6970      1.00048
     16       4.8369      1.00826
     17       5.2302      0.51953
     18       6.4760     -0.00000
     19       6.6557     -0.00000
     20       9.0291     -0.00000
     21       9.7053     -0.00000
     22      11.9097      0.00000
     23      13.1200      0.00000
     24      16.4454      0.00000

 k-point   180 :       0.3889    0.3889    0.2222
  band No.  band energies     occupation 
      1      -0.6544      1.00000
      2       1.1115      1.00000
      3       1.3838      1.00000
      4       2.4415      1.00000
      5       2.8639      1.00000
      6       3.0823      1.00000
      7       3.2257      1.00000
      8       3.4848      1.00000
      9       3.6679      1.00000
     10       3.6971      1.00000
     11       4.1056      1.00000
     12       4.3627      1.00000
     13       4.3809      1.00000
     14       4.5698      1.00001
     15       4.6746      1.00027
     16       5.0802      0.98290
     17       5.2179      0.57125
     18       6.0530     -0.00000
     19       6.6956     -0.00000
     20       8.9807     -0.00000
     21      10.7389      0.00000
     22      10.7446      0.00000
     23      13.2464      0.00000
     24      16.4257      0.00000

 k-point   181 :       0.4444    0.3889    0.2222
  band No.  band energies     occupation 
      1      -0.3792      1.00000
      2       0.9539      1.00000
      3       1.3938      1.00000
      4       2.4168      1.00000
      5       2.8591      1.00000
      6       3.1100      1.00000
      7       3.2496      1.00000
      8       3.5173      1.00000
      9       3.7016      1.00000
     10       3.7178      1.00000
     11       4.0568      1.00000
     12       4.3569      1.00000
     13       4.3985      1.00000
     14       4.5711      1.00001
     15       4.6874      1.00038
     16       4.9188      1.02397
     17       5.1784      0.72883
     18       6.0794     -0.00000
     19       6.4362     -0.00000
     20       9.1436     -0.00000
     21      10.2565     -0.00000
     22      11.1050      0.00000
     23      12.7161      0.00000
     24      16.6333      0.00000

 k-point   182 :       0.5000    0.3889    0.2222
  band No.  band energies     occupation 
      1      -0.2505      1.00000
      2       0.8405      1.00000
      3       1.4227      1.00000
      4       2.4098      1.00000
      5       2.8564      1.00000
      6       3.1103      1.00000
      7       3.2720      1.00000
      8       3.5271      1.00000
      9       3.7132      1.00000
     10       3.7266      1.00000
     11       4.0399      1.00000
     12       4.3618      1.00000
     13       4.4103      1.00000
     14       4.5719      1.00001
     15       4.7068      1.00060
     16       4.8204      1.00628
     17       5.1648      0.77739
     18       6.1870     -0.00000
     19       6.2543     -0.00000
     20       9.2712     -0.00000
     21      10.0267     -0.00000
     22      11.2978      0.00000
     23      12.4676      0.00000
     24      16.7167      0.00000

 k-point   183 :       0.4444    0.4444    0.2222
  band No.  band energies     occupation 
      1      -0.1522      1.00000
      2       1.1101      1.00000
      3       1.2397      1.00000
      4       2.2838      1.00000
      5       2.8560      1.00000
      6       3.1844      1.00000
      7       3.2286      1.00000
      8       3.5839      1.00000
      9       3.7403      1.00000
     10       3.7478      1.00000
     11       4.0008      1.00000
     12       4.3843      1.00000
     13       4.3974      1.00000
     14       4.5554      1.00001
     15       4.6700      1.00024
     16       4.8395      1.00861
     17       5.1188      0.91096
     18       5.9788     -0.00000
     19       6.1729     -0.00000
     20       9.3949     -0.00000
     21      10.5968     -0.00000
     22      10.6164     -0.00000
     23      12.1850      0.00000
     24      16.8454      0.00000

 k-point   184 :       0.5000    0.4444    0.2222
  band No.  band energies     occupation 
      1      -0.0532      1.00000
      2       1.0820      1.00000
      3       1.2605      1.00000
      4       2.2264      1.00000
      5       2.8542      1.00000
      6       3.1959      1.00000
      7       3.2404      1.00000
      8       3.6077      1.00000
      9       3.7572      1.00000
     10       3.7580      1.00000
     11       3.9802      1.00000
     12       4.4049      1.00000
     13       4.4109      1.00000
     14       4.5457      1.00001
     15       4.6411      1.00011
     16       4.7935      1.00388
     17       5.0996      0.95125
     18       6.0130     -0.00000
     19       6.0253     -0.00000
     20       9.5550     -0.00000
     21      10.3656     -0.00000
     22      10.7953      0.00000
     23      11.9365      0.00000
     24      16.9301      0.00000

 k-point   185 :       0.5000    0.5000    0.2222
  band No.  band energies     occupation 
      1       0.0301      1.00000
      2       1.1893      1.00000
      3       1.1893      1.00000
      4       2.1405      1.00000
      5       2.8526      1.00000
      6       3.2301      1.00000
      7       3.2301      1.00000
      8       3.6367      1.00000
      9       3.7731      1.00000
     10       3.7731      1.00000
     11       3.9571      1.00000
     12       4.4413      1.00000
     13       4.4413      1.00000
     14       4.5253      1.00000
     15       4.5630      1.00001
     16       4.7794      1.00296
     17       5.0764      0.98809
     18       5.9562     -0.00000
     19       5.9562     -0.00000
     20       9.7279     -0.00000
     21      10.5499     -0.00000
     22      10.5499     -0.00000
     23      11.6890      0.00000
     24      17.0149      0.00000

 k-point   186 :       0.2778    0.2778    0.2778
  band No.  band energies     occupation 
      1      -1.6568      1.00000
      2       1.4229      1.00000
      3       2.0415      1.00000
      4       2.0415      1.00000
      5       2.7456      1.00000
      6       3.1085      1.00000
      7       3.1085      1.00000
      8       3.4246      1.00000
      9       3.6317      1.00000
     10       3.6317      1.00000
     11       4.3150      1.00000
     12       4.3997      1.00000
     13       4.3997      1.00000
     14       4.6078      1.00004
     15       4.6078      1.00004
     16       5.3893      0.01740
     17       5.7087     -0.00204
     18       6.4367     -0.00000
     19       6.4367     -0.00000
     20      10.4419     -0.00000
     21      10.6274     -0.00000
     22      10.6274     -0.00000
     23      15.1825      0.00000
     24      16.4215      0.00000

 k-point   187 :       0.3333    0.2778    0.2778
  band No.  band energies     occupation 
      1      -1.3476      1.00000
      2       1.2754      1.00000
      3       1.8438      1.00000
      4       2.2470      1.00000
      5       2.8270      1.00000
      6       3.0658      1.00000
      7       3.1574      1.00000
      8       3.4505      1.00000
      9       3.6200      1.00000
     10       3.6254      1.00000
     11       4.2344      1.00000
     12       4.3677      1.00000
     13       4.4124      1.00000
     14       4.5915      1.00003
     15       4.6266      1.00007
     16       5.3705      0.04795
     17       5.5197     -0.03085
     18       6.4097     -0.00000
     19       6.4889     -0.00000
     20       9.8253     -0.00000
     21      10.0491     -0.00000
     22      10.9222      0.00000
     23      14.4747      0.00000
     24      16.6620      0.00000

 k-point   188 :       0.3889    0.2778    0.2778
  band No.  band energies     occupation 
      1      -1.0117      1.00000
      2       0.9968      1.00000
      3       1.7412      1.00000
      4       2.4493      1.00000
      5       2.8793      1.00000
      6       3.0122      1.00000
      7       3.2179      1.00000
      8       3.4722      1.00000
      9       3.6088      1.00000
     10       3.6450      1.00000
     11       4.1726      1.00000
     12       4.3339      1.00000
     13       4.4369      1.00000
     14       4.6030      1.00004
     15       4.6308      1.00008
     16       5.2253      0.54036
     17       5.3356      0.12795
     18       6.5359     -0.00000
     19       6.5916     -0.00000
     20       9.2622     -0.00000
     21       9.6140     -0.00000
     22      11.3018      0.00000
     23      13.8294      0.00000
     24      16.8918      0.00000

 k-point   189 :       0.4444    0.2778    0.2778
  band No.  band energies     occupation 
      1      -0.6944      1.00000
      2       0.6814      1.00000
      3       1.7029      1.00000
      4       2.6238      1.00000
      5       2.8986      1.00000
      6       2.9441      1.00000
      7       3.2994      1.00000
      8       3.4600      1.00000
      9       3.6007      1.00000
     10       3.6699      1.00000
     11       4.1332      1.00000
     12       4.3165      1.00000
     13       4.4677      1.00000
     14       4.6202      1.00006
     15       4.6541      1.00016
     16       4.9714      1.03430
     17       5.3021      0.23264
     18       6.5692     -0.00000
     19       6.7881     -0.00000
     20       8.8524     -0.00000
     21       9.3429     -0.00000
     22      11.6749      0.00000
     23      13.2969      0.00000
     24      17.0660      0.00000

 k-point   190 :       0.5000    0.2778    0.2778
  band No.  band energies     occupation 
      1      -0.5363      1.00000
      2       0.5192      1.00000
      3       1.6931      1.00000
      4       2.7145      1.00000
      5       2.8924      1.00000
      6       2.9022      1.00000
      7       3.3565      1.00000
      8       3.4300      1.00000
      9       3.5978      1.00000
     10       3.6799      1.00000
     11       4.1197      1.00000
     12       4.3137      1.00000
     13       4.4848      1.00000
     14       4.6104      1.00005
     15       4.7331      1.00111
     16       4.8192      1.00616
     17       5.2883      0.28274
     18       6.5813     -0.00000
     19       6.8776     -0.00000
     20       8.6930     -0.00000
     21       9.2506     -0.00000
     22      11.8726      0.00000
     23      13.0460      0.00000
     24      17.1327      0.00000

 k-point   191 :       0.3333    0.3333    0.2778
  band No.  band energies     occupation 
      1      -1.0573      1.00000
      2       1.2435      1.00000
      3       1.7973      1.00000
      4       2.2301      1.00000
      5       2.9088      1.00000
      6       3.0661      1.00000
      7       3.1546      1.00000
      8       3.4925      1.00000
      9       3.6311      1.00000
     10       3.6360      1.00000
     11       4.1514      1.00000
     12       4.3656      1.00000
     13       4.3889      1.00000
     14       4.5978      1.00003
     15       4.6346      1.00009
     16       5.3602      0.06831
     17       5.4919     -0.03494
     18       6.1482     -0.00000
     19       6.4767     -0.00000
     20       9.3761     -0.00000
     21      10.2396     -0.00000
     22      10.3314     -0.00000
     23      13.7541      0.00000
     24      17.0603      0.00000

 k-point   192 :       0.3889    0.3333    0.2778
  band No.  band energies     occupation 
      1      -0.7484      1.00000
      2       1.1056      1.00000
      3       1.6781      1.00000
      4       2.3532      1.00000
      5       2.9457      1.00000
      6       3.0418      1.00000
      7       3.1977      1.00000
      8       3.5376      1.00000
      9       3.6433      1.00000
     10       3.6614      1.00000
     11       4.0864      1.00000
     12       4.3441      1.00000
     13       4.3978      1.00000
     14       4.6045      1.00004
     15       4.6495      1.00014
     16       5.2594      0.39688
     17       5.3316      0.13909
     18       6.1440     -0.00000
     19       6.4882     -0.00000
     20       8.9916     -0.00000
     21       9.7715     -0.00000
     22      10.6499     -0.00000
     23      13.1033      0.00000
     24      17.3194      0.00000

 k-point   193 :       0.4444    0.3333    0.2778
  band No.  band energies     occupation 
      1      -0.4685      1.00000
      2       0.8942      1.00000
      3       1.6155      1.00000
      4       2.4813      1.00000
      5       2.9438      1.00000
      6       3.0103      1.00000
      7       3.2650      1.00000
      8       3.5593      1.00000
      9       3.6497      1.00000
     10       3.6874      1.00000
     11       4.0445      1.00000
     12       4.3364      1.00000
     13       4.4187      1.00000
     14       4.6141      1.00005
     15       4.6873      1.00038
     16       5.0016      1.03489
     17       5.2973      0.24948
     18       6.2299     -0.00000
     19       6.4838     -0.00000
     20       8.7698     -0.00000
     21       9.4237     -0.00000
     22      11.0152      0.00000
     23      12.5657      0.00000
     24      17.5135      0.00000

 k-point   194 :       0.5000    0.3333    0.2778
  band No.  band energies     occupation 
      1      -0.3377      1.00000
      2       0.7786      1.00000
      3       1.5994      1.00000
      4       2.5370      1.00000
      5       2.9351      1.00000
      6       2.9970      1.00000
      7       3.2978      1.00000
      8       3.5622      1.00000
      9       3.6515      1.00000
     10       3.6966      1.00000
     11       4.0300      1.00000
     12       4.3389      1.00000
     13       4.4301      1.00000
     14       4.6124      1.00005
     15       4.7977      1.00419
     16       4.8075      1.00501
     17       5.2831      0.30235
     18       6.2758     -0.00000
     19       6.4746     -0.00000
     20       8.7014     -0.00000
     21       9.2960     -0.00000
     22      11.2148      0.00000
     23      12.3089      0.00000
     24      17.5888      0.00000

 k-point   195 :       0.3889    0.3889    0.2778
  band No.  band energies     occupation 
      1      -0.4777      1.00000
      2       1.1472      1.00000
      3       1.5828      1.00000
      4       2.3189      1.00000
      5       2.9600      1.00000
      6       3.1024      1.00000
      7       3.1831      1.00000
      8       3.6199      1.00000
      9       3.6810      1.00000
     10       3.6828      1.00000
     11       4.0166      1.00000
     12       4.3575      1.00000
     13       4.3707      1.00000
     14       4.5962      1.00003
     15       4.6712      1.00025
     16       5.1842      0.70688
     17       5.2921      0.26828
     18       5.9411     -0.00000
     19       6.3607     -0.00000
     20       8.8161     -0.00000
     21      10.0623     -0.00000
     22      10.1323     -0.00000
     23      12.4520      0.00000
     24      17.5949      0.00000

 k-point   196 :       0.4444    0.3889    0.2778
  band No.  band energies     occupation 
      1      -0.2472      1.00000
      2       1.0952      1.00000
      3       1.5178      1.00000
      4       2.3332      1.00000
      5       2.9611      1.00000
      6       3.1058      1.00000
      7       3.2244      1.00000
      8       3.6768      1.00000
      9       3.7005      1.00000
     10       3.7108      1.00000
     11       3.9701      1.00000
     12       4.3641      1.00000
     13       4.3834      1.00000
     14       4.5931      1.00003
     15       4.7012      1.00053
     16       4.9890      1.03545
     17       5.2575      0.40500
     18       5.9477     -0.00000
     19       6.2101     -0.00000
     20       8.8016     -0.00000
     21       9.6836     -0.00000
     22      10.4460     -0.00000
     23      11.9142      0.00000
     24      17.7999      0.00000

 k-point   197 :       0.5000    0.3889    0.2778
  band No.  band energies     occupation 
      1      -0.1479      1.00000
      2       1.0450      1.00000
      3       1.5024      1.00000
      4       2.3461      1.00000
      5       2.9612      1.00000
      6       3.0979      1.00000
      7       3.2509      1.00000
      8       3.6968      1.00000
      9       3.7062      1.00000
     10       3.7205      1.00000
     11       3.9536      1.00000
     12       4.3753      1.00000
     13       4.3927      1.00000
     14       4.5914      1.00003
     15       4.7695      1.00242
     16       4.8345      1.00794
     17       5.2440      0.46144
     18       6.0177     -0.00000
     19       6.1011     -0.00000
     20       8.8370     -0.00000
     21       9.5093     -0.00000
     22      10.6423     -0.00000
     23      11.6545      0.00000
     24      17.8797      0.00000

 k-point   198 :       0.4444    0.4444    0.2778
  band No.  band energies     occupation 
      1      -0.0723      1.00000
      2       1.2397      1.00000
      3       1.4388      1.00000
      4       2.2159      1.00000
      5       2.9697      1.00000
      6       3.1763      1.00000
      7       3.2051      1.00000
      8       3.7326      1.00000
      9       3.7359      1.00000
     10       3.7654      1.00000
     11       3.9176      1.00000
     12       4.3889      1.00000
     13       4.4026      1.00000
     14       4.5662      1.00001
     15       4.7063      1.00060
     16       4.8904      1.01758
     17       5.2066      0.61829
     18       5.8327     -0.00010
     19       5.9943     -0.00000
     20       8.9363     -0.00000
     21       9.9815     -0.00000
     22      10.0182     -0.00000
     23      11.3777      0.00000
     24      18.0099      0.00000

 k-point   199 :       0.5000    0.4444    0.2778
  band No.  band energies     occupation 
      1      -0.0026      1.00000
      2       1.2793      1.00000
      3       1.4215      1.00000
      4       2.1684      1.00000
      5       2.9719      1.00000
      6       3.1807      1.00000
      7       3.2233      1.00000
      8       3.7461      1.00000
      9       3.7467      1.00000
     10       3.7920      1.00000
     11       3.8977      1.00000
     12       4.4140      1.00000
     13       4.4254      1.00000
     14       4.5508      1.00001
     15       4.7388      1.00126
     16       4.7779      1.00287
     17       5.1889      0.68876
     18       5.8556     -0.00005
     19       5.8710     -0.00003
     20       9.0361     -0.00000
     21       9.7986     -0.00000
     22      10.1890     -0.00000
     23      11.1167      0.00000
     24      18.0912      0.00000

 k-point   200 :       0.5000    0.5000    0.2778
  band No.  band energies     occupation 
      1       0.0536      1.00000
      2       1.3883      1.00000
      3       1.3883      1.00000
      4       2.0806      1.00000
      5       2.9741      1.00000
      6       3.2146      1.00000
      7       3.2146      1.00000
      8       3.7608      1.00000
      9       3.7608      1.00000
     10       3.8204      1.00000
     11       3.8751      1.00000
     12       4.4698      1.00000
     13       4.4698      1.00000
     14       4.5101      1.00000
     15       4.6975      1.00048
     16       4.7246      1.00092
     17       5.1670      0.76961
     18       5.8018     -0.00023
     19       5.8018     -0.00023
     20       9.1601     -0.00000
     21       9.9811     -0.00000
     22       9.9811     -0.00000
     23      10.8534      0.00000
     24      18.1729      0.00000

 k-point   201 :       0.3333    0.3333    0.3333
  band No.  band energies     occupation 
      1      -0.7917      1.00000
      2       1.2146      1.00000
      3       2.0077      1.00000
      4       2.0077      1.00000
      5       2.9967      1.00000
      6       3.1044      1.00000
      7       3.1044      1.00000
      8       3.5743      1.00000
      9       3.6497      1.00000
     10       3.6497      1.00000
     11       4.0694      1.00000
     12       4.3629      1.00000
     13       4.3629      1.00000
     14       4.6226      1.00007
     15       4.6226      1.00007
     16       5.3715      0.04610
     17       5.5356     -0.02749
     18       6.1037     -0.00000
     19       6.1037     -0.00000
     20       9.4508     -0.00000
     21       9.8102     -0.00000
     22       9.8102     -0.00000
     23      13.0284      0.00000
     24      18.0963      0.00000

 k-point   202 :       0.3889    0.3333    0.3333
  band No.  band energies     occupation 
      1      -0.5184      1.00000
      2       1.1593      1.00000
      3       1.7926      1.00000
      4       2.2061      1.00000
      5       3.0371      1.00000
      6       3.0602      1.00000
      7       3.1681      1.00000
      8       3.6566      1.00000
      9       3.6644      1.00000
     10       3.6782      1.00000
     11       4.0049      1.00000
     12       4.3428      1.00000
     13       4.3681      1.00000
     14       4.6288      1.00008
     15       4.6322      1.00009
     16       5.3343      0.13131
     17       5.3531      0.08407
     18       6.0595     -0.00000
     19       6.0664     -0.00000
     20       9.0232     -0.00000
     21       9.4332     -0.00000
     22      10.0594     -0.00000
     23      12.3772      0.00000
     24      18.3313      0.00000

 k-point   203 :       0.4444    0.3333    0.3333
  band No.  band energies     occupation 
      1      -0.2858      1.00000
      2       1.0730      1.00000
      3       1.6441      1.00000
      4       2.3559      1.00000
      5       3.0254      1.00000
      6       3.0436      1.00000
      7       3.2367      1.00000
      8       3.6745      1.00000
      9       3.6937      1.00000
     10       3.7160      1.00000
     11       3.9626      1.00000
     12       4.3449      1.00000
     13       4.3794      1.00000
     14       4.6272      1.00008
     15       4.6760      1.00028
     16       5.0610      1.00574
     17       5.3236      0.16250
     18       6.0435     -0.00000
     19       6.1492     -0.00000
     20       8.6830     -0.00000
     21       9.2074     -0.00000
     22      10.4012     -0.00000
     23      11.8377      0.00000
     24      18.5061      0.00000

 k-point   204 :       0.5000    0.3333    0.3333
  band No.  band energies     occupation 
      1      -0.1858      1.00000
      2       1.0203      1.00000
      3       1.5952      1.00000
      4       2.4138      1.00000
      5       3.0107      1.00000
      6       3.0438      1.00000
      7       3.2656      1.00000
      8       3.6783      1.00000
      9       3.7016      1.00000
     10       3.7305      1.00000
     11       3.9476      1.00000
     12       4.3524      1.00000
     13       4.3861      1.00000
     14       4.6216      1.00006
     15       4.7514      1.00166
     16       4.8973      1.01909
     17       5.3096      0.20692
     18       6.0361     -0.00000
     19       6.1948     -0.00000
     20       8.5576     -0.00000
     21       9.1325     -0.00000
     22      10.5999     -0.00000
     23      11.5747      0.00000
     24      18.5722      0.00000

 k-point   205 :       0.3889    0.3889    0.3333
  band No.  band energies     occupation 
      1      -0.2945      1.00000
      2       1.2010      1.00000
      3       1.7922      1.00000
      4       2.1619      1.00000
      5       3.0580      1.00000
      6       3.1278      1.00000
      7       3.1554      1.00000
      8       3.6907      1.00000
      9       3.6971      1.00000
     10       3.7796      1.00000
     11       3.9396      1.00000
     12       4.3452      1.00000
     13       4.3476      1.00000
     14       4.6139      1.00005
     15       4.6435      1.00012
     16       5.2840      0.29895
     17       5.3425      0.10964
     18       5.8153     -0.00016
     19       5.9856     -0.00000
     20       8.8029     -0.00000
     21       9.5251     -0.00000
     22       9.6563     -0.00000
     23      11.7304      0.00000
     24      18.7574      0.00000

 k-point   206 :       0.4444    0.3889    0.3333
  band No.  band energies     occupation 
      1      -0.1201      1.00000
      2       1.2417      1.00000
      3       1.6662      1.00000
      4       2.2288      1.00000
      5       3.0647      1.00000
      6       3.1247      1.00000
      7       3.2133      1.00000
      8       3.7069      1.00000
      9       3.7152      1.00000
     10       3.8620      1.00000
     11       3.8953      1.00000
     12       4.3505      1.00000
     13       4.3594      1.00000
     14       4.6059      1.00004
     15       4.6635      1.00020
     16       5.0792      0.98430
     17       5.3152      0.18864
     18       5.7940     -0.00028
     19       5.9242     -0.00001
     20       8.6197     -0.00000
     21       9.2854     -0.00000
     22       9.8962     -0.00000
     23      11.1954      0.00000
     24      18.9684      0.00000

 k-point   207 :       0.5000    0.3889    0.3333
  band No.  band energies     occupation 
      1      -0.0518      1.00000
      2       1.2666      1.00000
      3       1.5939      1.00000
      4       2.2647      1.00000
      5       3.0682      1.00000
      6       3.1190      1.00000
      7       3.2408      1.00000
      8       3.7135      1.00000
      9       3.7202      1.00000
     10       3.8792      1.00000
     11       3.8870      1.00000
     12       4.3553      1.00000
     13       4.3740      1.00000
     14       4.6013      1.00004
     15       4.7037      1.00056
     16       4.9452      1.02989
     17       5.3017      0.23404
     18       5.8192     -0.00014
     19       5.8922     -0.00002
     20       8.5574     -0.00000
     21       9.1837     -0.00000
     22      10.0838     -0.00000
     23      10.9302      0.00000
     24      19.0449      0.00000

 k-point   208 :       0.4444    0.4444    0.3333
  band No.  band energies     occupation 
      1      -0.0018      1.00000
      2       1.3918      1.00000
      3       1.6463      1.00000
      4       2.1404      1.00000
      5       3.0913      1.00000
      6       3.1914      1.00000
      7       3.2043      1.00000
      8       3.7303      1.00000
      9       3.7338      1.00000
     10       3.8477      1.00000
     11       3.9568      1.00000
     12       4.3704      1.00000
     13       4.3858      1.00000
     14       4.5678      1.00001
     15       4.6581      1.00018
     16       5.0021      1.03484
     17       5.2789      0.31844
     18       5.6672     -0.00458
     19       5.7744     -0.00046
     20       8.6186     -0.00000
     21       9.4801     -0.00000
     22       9.5708     -0.00000
     23      10.6671     -0.00000
     24      19.1992      0.00000

 k-point   209 :       0.5000    0.4444    0.3333
  band No.  band energies     occupation 
      1       0.0415      1.00000
      2       1.4859      1.00000
      3       1.5946      1.00000
      4       2.1127      1.00000
      5       3.1010      1.00000
      6       3.1929      1.00000
      7       3.2285      1.00000
      8       3.7397      1.00000
      9       3.7412      1.00000
     10       3.8289      1.00000
     11       3.9791      1.00000
     12       4.3942      1.00000
     13       4.4135      1.00000
     14       4.5489      1.00001
     15       4.6674      1.00023
     16       4.9157      1.02327
     17       5.2629      0.38268
     18       5.6775     -0.00378
     19       5.6891     -0.00303
     20       8.6398     -0.00000
     21       9.3780     -0.00000
     22       9.7013     -0.00000
     23      10.4007     -0.00000
     24      19.2817      0.00000

 k-point   210 :       0.5000    0.5000    0.3333
  band No.  band energies     occupation 
      1       0.0751      1.00000
      2       1.5952      1.00000
      3       1.5952      1.00000
      4       2.0280      1.00000
      5       3.1110      1.00000
      6       3.2256      1.00000
      7       3.2256      1.00000
      8       3.7514      1.00000
      9       3.7514      1.00000
     10       3.8075      1.00000
     11       3.9943      1.00000
     12       4.4582      1.00000
     13       4.4582      1.00000
     14       4.4957      1.00000
     15       4.6539      1.00016
     16       4.8552      1.01095
     17       5.2428      0.46628
     18       5.6300     -0.00865
     19       5.6300     -0.00865
     20       8.6992     -0.00000
     21       9.5434     -0.00000
     22       9.5434     -0.00000
     23      10.1269     -0.00000
     24      19.3657      0.00000

 k-point   211 :       0.3889    0.3889    0.3889
  band No.  band energies     occupation 
      1      -0.1306      1.00000
      2       1.2823      1.00000
      3       1.9829      1.00000
      4       1.9829      1.00000
      5       3.1469      1.00000
      6       3.1469      1.00000
      7       3.1532      1.00000
      8       3.7108      1.00000
      9       3.7108      1.00000
     10       3.8780      1.00000
     11       3.9365      1.00000
     12       4.3300      1.00000
     13       4.3300      1.00000
     14       4.6135      1.00005
     15       4.6135      1.00005
     16       5.2979      0.24748
     17       5.3582      0.07272
     18       5.7082     -0.00206
     19       5.7082     -0.00206
     20       8.7175     -0.00000
     21       9.3211     -0.00000
     22       9.3211     -0.00000
     23      11.0949      0.00000
     24      19.7961      0.00000

 k-point   212 :       0.4444    0.3889    0.3889
  band No.  band energies     occupation 
      1      -0.0158      1.00000
      2       1.3950      1.00000
      3       1.8002      1.00000
      4       2.1187      1.00000
      5       3.1543      1.00000
      6       3.1674      1.00000
      7       3.2194      1.00000
      8       3.7225      1.00000
      9       3.7234      1.00000
     10       3.8357      1.00000
     11       4.0391      1.00000
     12       4.3162      1.00000
     13       4.3483      1.00000
     14       4.5986      1.00003
     15       4.6080      1.00004
     16       5.1354      0.86859
     17       5.3421      0.11066
     18       5.6514     -0.00606
     19       5.6558     -0.00561
     20       8.5056     -0.00000
     21       9.1247     -0.00000
     22       9.4823     -0.00000
     23      10.5729     -0.00000
     24      19.9759      0.00000

 k-point   213 :       0.5000    0.3889    0.3889
  band No.  band energies     occupation 
      1       0.0255      1.00000
      2       1.4852      1.00000
      3       1.6845      1.00000
      4       2.1679      1.00000
      5       3.1609      1.00000
      6       3.1734      1.00000
      7       3.2473      1.00000
      8       3.7255      1.00000
      9       3.7279      1.00000
     10       3.8195      1.00000
     11       4.0669      1.00000
     12       4.3100      1.00000
     13       4.3706      1.00000
     14       4.5891      1.00002
     15       4.6275      1.00008
     16       5.0230      1.03024
     17       5.3293      0.14543
     18       5.6371     -0.00771
     19       5.6663     -0.00466
     20       8.4133     -0.00000
     21       9.0605     -0.00000
     22       9.6431     -0.00000
     23      10.3088     -0.00000
     24      20.0431      0.00000

 k-point   214 :       0.4444    0.4444    0.3889
  band No.  band energies     occupation 
      1       0.0518      1.00000
      2       1.5537      1.00000
      3       1.8325      1.00000
      4       2.0570      1.00000
      5       3.2033      1.00000
      6       3.2339      1.00000
      7       3.2345      1.00000
      8       3.7328      1.00000
      9       3.7329      1.00000
     10       3.7938      1.00000
     11       4.1360      1.00000
     12       4.3285      1.00000
     13       4.3477      1.00000
     14       4.5502      1.00001
     15       4.5882      1.00002
     16       5.1003      0.94996
     17       5.3303      0.14272
     18       5.5173     -0.03131
     19       5.5612     -0.02161
     20       8.4059     -0.00000
     21       9.1662     -0.00000
     22       9.2602     -0.00000
     23      10.0700     -0.00000
     24      20.3763      0.00000

 k-point   215 :       0.5000    0.4444    0.3889
  band No.  band energies     occupation 
      1       0.0751      1.00000
      2       1.6766      1.00000
      3       1.7536      1.00000
      4       2.0605      1.00000
      5       3.2241      1.00000
      6       3.2407      1.00000
      7       3.2647      1.00000
      8       3.7340      1.00000
      9       3.7388      1.00000
     10       3.7767      1.00000
     11       4.1429      1.00000
     12       4.3372      1.00000
     13       4.3783      1.00000
     14       4.5299      1.00000
     15       4.5845      1.00002
     16       5.0427      1.02055
     17       5.3167      0.18381
     18       5.5143     -0.03188
     19       5.5172     -0.03134
     20       8.3645     -0.00000
     21       9.1175     -0.00000
     22       9.3482     -0.00000
     23       9.8114     -0.00000
     24      20.4709      0.00000

 k-point   216 :       0.5000    0.5000    0.3889
  band No.  band energies     occupation 
      1       0.0921      1.00000
      2       1.7798      1.00000
      3       1.7798      1.00000
      4       1.9873      1.00000
      5       3.2473      1.00000
      6       3.2741      1.00000
      7       3.2741      1.00000
      8       3.7414      1.00000
      9       3.7414      1.00000
     10       3.7572      1.00000
     11       4.1317      1.00000
     12       4.3936      1.00000
     13       4.3936      1.00000
     14       4.4841      1.00000
     15       4.5738      1.00002
     16       5.0242      1.02982
     17       5.2998      0.24073
     18       5.4770     -0.03543
     19       5.4770     -0.03543
     20       8.3584     -0.00000
     21       9.2410     -0.00000
     22       9.2410     -0.00000
     23       9.5424     -0.00000
     24      20.5760      0.00000

 k-point   217 :       0.4444    0.4444    0.4444
  band No.  band energies     occupation 
      1       0.0848      1.00000
      2       1.7085      1.00000
      3       1.9620      1.00000
      4       1.9620      1.00000
      5       3.2868      1.00000
      6       3.2868      1.00000
      7       3.2879      1.00000
      8       3.7323      1.00000
      9       3.7323      1.00000
     10       3.7571      1.00000
     11       4.2572      1.00000
     12       4.2925      1.00000
     13       4.2925      1.00000
     14       4.5264      1.00000
     15       4.5264      1.00000
     16       5.1412      0.85231
     17       5.3498      0.09165
     18       5.4291     -0.02186
     19       5.4291     -0.02186
     20       8.2599     -0.00000
     21       9.0805     -0.00000
     22       9.0805     -0.00000
     23       9.6098     -0.00000
     24      21.4214      0.00000

 k-point   218 :       0.5000    0.4444    0.4444
  band No.  band energies     occupation 
      1       0.0959      1.00000
      2       1.8263      1.00000
      3       1.8667      1.00000
      4       2.0082      1.00000
      5       3.3120      1.00000
      6       3.3167      1.00000
      7       3.3224      1.00000
      8       3.7283      1.00000
      9       3.7331      1.00000
     10       3.7418      1.00000
     11       4.2524      1.00000
     12       4.2615      1.00000
     13       4.3254      1.00000
     14       4.5027      1.00000
     15       4.5164      1.00000
     16       5.1349      0.87004
     17       5.3424      0.10980
     18       5.3998      0.00392
     19       5.4133     -0.01002
     20       8.2026     -0.00000
     21       9.0220     -0.00000
     22       9.1367     -0.00000
     23       9.3763     -0.00000
     24      21.4958      0.00000

 k-point   219 :       0.5000    0.5000    0.4444
  band No.  band energies     occupation 
      1       0.1029      1.00000
      2       1.9076      1.00000
      3       1.9076      1.00000
      4       1.9617      1.00000
      5       3.3518      1.00000
      6       3.3518      1.00000
      7       3.3554      1.00000
      8       3.7263      1.00000
      9       3.7269      1.00000
     10       3.7269      1.00000
     11       4.2166      1.00000
     12       4.2964      1.00000
     13       4.2964      1.00000
     14       4.4766      1.00000
     15       4.5035      1.00000
     16       5.1661      0.77291
     17       5.3350      0.12941
     18       5.3790      0.03305
     19       5.3790      0.03305
     20       8.1490     -0.00000
     21       9.0666     -0.00000
     22       9.0666     -0.00000
     23       9.1504     -0.00000
     24      21.7528      0.00000

 k-point   220 :       0.5000    0.5000    0.5000
  band No.  band energies     occupation 
      1       0.1067      1.00000
      2       1.9530      1.00000
      3       1.9530      1.00000
      4       1.9530      1.00000
      5       3.3981      1.00000
      6       3.3981      1.00000
      7       3.3981      1.00000
      8       3.7158      1.00000
      9       3.7158      1.00000
     10       3.7158      1.00000
     11       4.2449      1.00000
     12       4.2449      1.00000
     13       4.2449      1.00000
     14       4.4740      1.00000
     15       4.4740      1.00000
     16       5.2234      0.54827
     17       5.3470      0.09849
     18       5.3470      0.09849
     19       5.3470      0.09849
     20       8.0784     -0.00000
     21       9.0099     -0.00000
     22       9.0099     -0.00000
     23       9.0099     -0.00000
     24      22.5130      0.00000


--------------------------------------------------------------------------------------------------------


 soft charge-density along one line, spin component           1
         0         1         2         3         4         5         6         7         8         9
 total charge-density along one line
 
 soft charge-density along one line, spin component           2
         0         1         2         3         4         5         6         7         8         9
 total charge-density along one line
 
 pseudopotential strength for first ion, spin component:           1
  8.508  -0.003   0.000  -0.000   0.000   0.000  -0.000  -0.000
 -0.003   0.000   0.000  -0.000  -0.000  -0.000   0.000   0.000
  0.000   0.000   1.983   0.000   0.000  -0.021  -0.000  -0.000
 -0.000  -0.000   0.000   1.983   0.000  -0.000  -0.021  -0.000
  0.000  -0.000   0.000   0.000   1.983  -0.000  -0.000  -0.021
  0.000  -0.000  -0.021  -0.000  -0.000  -0.013  -0.000  -0.000
 -0.000   0.000  -0.000  -0.021  -0.000  -0.000  -0.013  -0.000
 -0.000   0.000  -0.000  -0.000  -0.021  -0.000  -0.000  -0.013
 pseudopotential strength for first ion, spin component:           2
  8.510  -0.003   0.000  -0.000   0.000   0.000  -0.000  -0.000
 -0.003   0.000   0.000   0.000  -0.000  -0.000   0.000   0.000
  0.000   0.000   1.984   0.000   0.000  -0.021  -0.000  -0.000
 -0.000   0.000   0.000   1.984   0.000  -0.000  -0.021  -0.000
  0.000  -0.000   0.000   0.000   1.984  -0.000  -0.000  -0.021
  0.000  -0.000  -0.021  -0.000  -0.000  -0.013  -0.000  -0.000
 -0.000   0.000  -0.000  -0.021  -0.000  -0.000  -0.013  -0.000
 -0.000   0.000  -0.000  -0.000  -0.021  -0.000  -0.000  -0.013
 total augmentation occupancy for first ion, spin component:           1
  1.207  -0.691   0.000   0.000   0.000   0.000   0.000   0.000
 -0.691   0.523   0.000   0.000   0.000   0.000   0.000   0.000
  0.000   0.000   0.758   0.000   0.000  -0.172  -0.000  -0.000
  0.000   0.000  -0.000   0.758  -0.000  -0.000  -0.172  -0.000
  0.000   0.000   0.000   0.000   0.758  -0.000  -0.000  -0.172
  0.000   0.000  -0.172  -0.000  -0.000   0.041  -0.000  -0.000
  0.000   0.000   0.000  -0.172   0.000   0.000   0.041   0.000
  0.000   0.000  -0.000  -0.000  -0.172  -0.000  -0.000   0.041
 total augmentation occupancy for first ion, spin component:           2
  0.000   0.012   0.000   0.000   0.000   0.000   0.000   0.000
  0.012  -0.011   0.000   0.000   0.000   0.000   0.000   0.000
  0.000   0.000  -0.019   0.000   0.000   0.004   0.000   0.000
  0.000   0.000  -0.000  -0.019  -0.000   0.000   0.004   0.000
  0.000   0.000  -0.000   0.000  -0.019   0.000   0.000   0.004
  0.000   0.000   0.004  -0.000   0.000  -0.001   0.000   0.000
  0.000   0.000  -0.000   0.004   0.000   0.000  -0.001   0.000
  0.000   0.000   0.000   0.000   0.004   0.000   0.000  -0.001


------------------------ aborting loop because EDIFF is reached ----------------------------------------


    CHARGE:  cpu time      0.2090: real time      0.2093
    FORLOC:  cpu time      0.0010: real time      0.0007
    FORNL :  cpu time      0.5929: real time      0.5927
    STRESS:  cpu time      1.4088: real time      1.4078
    FORCOR:  cpu time      0.0140: real time      0.0145
    FORHAR:  cpu time      0.0020: real time      0.0020
    MIXING:  cpu time      0.0010: real time      0.0009
    OFIELD:  cpu time      0.0000: real time      0.0002

  FORCE on cell =-STRESS in cart. coord.  units (eV):
  Direction    XX          YY          ZZ          XY          YZ          ZX
  --------------------------------------------------------------------------------------
  Alpha Z   199.53276   199.53276   199.53276
  Ewald    -868.09081  -868.09081  -868.09081    -0.00000    -0.00000     0.00000
  Hartree   300.85551   300.85551   300.85551    -0.00000    -0.00000    -0.00000
  E(xc)    -173.53543  -173.53543  -173.53543     0.00000    -0.00000    -0.00000
  Local     219.56712   219.56712   219.56712    -0.00000     0.00000    -0.00000
  n-local   -83.93828   -87.41010   -87.62569     0.38784     1.18958     0.61193
  augment   154.59103   154.59103   154.59103     0.00000     0.00000     0.00000
  Kinetic   256.09246   248.78000   243.10215    -1.35583    -0.45822    -0.96104
  Fock        0.00000     0.00000     0.00000     0.00000     0.00000     0.00000
  -------------------------------------------------------------------------------------
  Total      -4.07963    -4.07963    -4.07963     0.00000    -0.00000    -0.00000
  in kB    -131.15599  -131.15599  -131.15599     0.00000    -0.00000    -0.00000
  external pressure =     -131.16 kB  Pullay stress =        0.00 kB


 VOLUME and BASIS-vectors are now :
 -----------------------------------------------------------------------------
  energy-cutoff  :      600.00
  volume of cell :       49.84
      direct lattice vectors                 reciprocal lattice vectors
     3.680000000  0.000000000  0.000000000     0.271739130  0.000000000  0.000000000
     0.000000000  3.680000000  0.000000000     0.000000000  0.271739130  0.000000000
     0.000000000  0.000000000  3.680000000     0.000000000  0.000000000  0.271739130

  length of vectors
     3.680000000  3.680000000  3.680000000     0.271739130  0.271739130  0.271739130


 FORCES acting on ions
    electron-ion (+dipol)            ewald-force                    non-local-force                 convergence-correction
 -----------------------------------------------------------------------------------------------
   0.407E-15 -.390E-14 -.974E-14   0.107E-14 -.488E-14 0.509E-15   0.000E+00 0.000E+00 0.000E+00   -.118E-14 -.316E-15 -.368E-14
   0.205E-12 0.108E-13 -.517E-12   0.747E-14 -.635E-14 0.230E-14   0.000E+00 0.000E+00 0.000E+00   0.145E-13 0.293E-13 0.531E-13
   0.215E-12 0.324E-11 -.241E-11   0.930E-14 0.774E-14 -.503E-14   0.000E+00 0.000E+00 0.000E+00   0.208E-13 0.241E-13 -.628E-13
   -.231E-13 0.251E-12 0.195E-12   -.173E-13 0.456E-14 0.561E-15   0.000E+00 0.000E+00 0.000E+00   -.996E-14 0.182E-13 0.485E-13
 -----------------------------------------------------------------------------------------------
   0.397E-12 0.350E-11 -.274E-11   0.574E-15 0.107E-14 -.166E-14   0.000E+00 0.000E+00 0.000E+00   0.241E-13 0.713E-13 0.351E-13
 
 
 POSITION                                       TOTAL-FORCE (eV/Angst)
 -----------------------------------------------------------------------------------
      0.00000      0.00000      0.00000         0.000000      0.000000      0.000000
      1.84000      0.00000      1.84000         0.000000      0.000000      0.000000
      1.84000      1.84000      0.00000         0.000000      0.000000      0.000000
      0.00000      1.84000      1.84000         0.000000      0.000000      0.000000
 -----------------------------------------------------------------------------------
    total drift:                                0.000000      0.000000     -0.000000


--------------------------------------------------------------------------------------------------------



  FREE ENERGIE OF THE ION-ELECTRON SYSTEM (eV)
  ---------------------------------------------------
  free  energy   TOTEN  =       -22.02422128 eV

  energy  without entropy=      -22.02917096  energy(sigma->0) =      -22.02587117
 


--------------------------------------------------------------------------------------------------------


    POTLOK:  cpu time      0.5729: real time      0.5722


--------------------------------------------------------------------------------------------------------




--------------------------------------------------------------------------------------------------------


  
 reached required accuracy - stopping structural energy minimisation
     LOOP+:  cpu time     78.5811: real time     80.2165
    4ORBIT:  cpu time      0.0000: real time      0.0000

 total amount of memory used by VASP MPI-rank0    72606. kBytes
=======================================================================

   base      :      30000. kBytes
   nonl-proj :      27018. kBytes
   fftplans  :       1584. kBytes
   grid      :       1470. kBytes
   one-center:         31. kBytes
   wavefun   :      12503. kBytes
 
  
  
 General timing and accounting informations for this job:
 ========================================================
  
                  Total CPU time used (sec):       82.544
                            User time (sec):       74.146
                          System time (sec):        8.399
                         Elapsed time (sec):       84.254
  
                   Maximum memory used (kb):      134788.
                   Average memory used (kb):          N/A
  
                          Minor page faults:       139969
                          Major page faults:            0
                 Voluntary context switches:         1094
