       N       E                     dE             d eps       ncg     rms          rms(c)
DAV:   1     0.158736643063E+03    0.15874E+03   -0.16619E+04 21264   0.198E+03
DAV:   2    -0.217638904595E+02   -0.18050E+03   -0.17439E+03 21144   0.296E+02
DAV:   3    -0.262364215867E+02   -0.44725E+01   -0.44202E+01 27996   0.659E+01
DAV:   4    -0.262767511783E+02   -0.40330E-01   -0.40323E-01 24732   0.499E+00
DAV:   5    -0.262777183052E+02   -0.96713E-03   -0.96712E-03 28848   0.768E-01    0.175E+01
DAV:   6    -0.270943946043E+02   -0.81668E+00   -0.51042E+01 23712   0.117E+02    0.169E+01
DAV:   7    -0.222580704960E+02    0.48363E+01   -0.21853E+01 24264   0.628E+01    0.214E+00
DAV:   8    -0.222009191300E+02    0.57151E-01   -0.21496E-01 23028   0.365E+00    0.114E+00
DAV:   9    -0.221796887483E+02    0.21230E-01   -0.29168E-02 29040   0.216E+00    0.690E-01
DAV:  10    -0.221811845080E+02   -0.14958E-02   -0.18989E-03 26664   0.555E-01    0.467E-01
DAV:  11    -0.221831132380E+02   -0.19287E-02   -0.97475E-03 25572   0.134E+00    0.119E-01
DAV:  12    -0.221837366990E+02   -0.62346E-03   -0.72067E-04 25236   0.388E-01    0.351E-02
DAV:  13    -0.221837415137E+02   -0.48147E-05   -0.18035E-05 27072   0.436E-02    0.297E-02
DAV:  14    -0.221837496525E+02   -0.81388E-05   -0.22240E-05 25932   0.647E-02    0.568E-03
DAV:  15    -0.221837502855E+02   -0.63300E-06   -0.14715E-06 13560   0.153E-02
   1 F= -.22183750E+02 E0= -.22184863E+02  d E =-.221838E+02  mag=     0.7287
