<?xml version="1.0" encoding="ISO-8859-1"?>
<modeling>
 <generator>
  <i name="program" type="string">vasp </i>
  <i name="version" type="string">6.3.0  </i>
  <i name="subversion" type="string">20Jan22 (build Jun 30 2026 15:27:26) complex                          parallel </i>
  <i name="platform" type="string">LinuxIFC </i>
  <i name="date" type="string">2026 07 21 </i>
  <i name="time" type="string">05:29:26 </i>
 </generator>
 <incar>
  <i type="string" name="SYSTEM">Ni3Al EOS</i>
  <i type="int" name="ISTART">     0</i>
  <i type="string" name="PREC">Accurate</i>
  <i type="logical" name="ADDGRID"> T  </i>
  <i type="int" name="ISPIN">     2</i>
  <i type="int" name="ICHARG">     2</i>
  <i type="int" name="IBRION">     2</i>
  <i name="EDIFF">      0.00000100</i>
  <i name="EDIFFG">     -0.01000000</i>
  <i type="int" name="NSW">   100</i>
  <i type="int" name="ISIF">     2</i>
  <i type="int" name="ISYM">     2</i>
  <i name="SYMPREC">      0.00001000</i>
  <i name="ENCUT">    600.00000000</i>
  <i type="int" name="NEDOS">  2000</i>
  <v name="MAGMOM">      0.00000000      0.60000000      0.60000000      0.60000000</v>
  <i type="logical" name="LREAL"> F  </i>
  <i type="int" name="ISMEAR">     1</i>
  <i name="SIGMA">      0.20000000</i>
  <i type="logical" name="LWAVE"> F  </i>
  <i type="logical" name="LASPH"> T  </i>
 </incar>
 <primitive_cell>
  <structure name="primitive_cell" >
   <crystal>
    <varray name="basis" >
     <v>       3.53000000       0.00000000       0.00000000 </v>
     <v>       0.00000000       3.53000000       0.00000000 </v>
     <v>       0.00000000       0.00000000       3.53000000 </v>
    </varray>
    <i name="volume">     43.98697700 </i>
    <varray name="rec_basis" >
     <v>       0.28328612       0.00000000       0.00000000 </v>
     <v>       0.00000000       0.28328612       0.00000000 </v>
     <v>       0.00000000       0.00000000       0.28328612 </v>
    </varray>
   </crystal>
   <varray name="positions" >
    <v>       0.00000000       0.00000000       0.00000000 </v>
    <v>       0.50000000       0.00000000       0.50000000 </v>
    <v>       0.50000000       0.50000000       0.00000000 </v>
    <v>       0.00000000       0.50000000       0.50000000 </v>
   </varray>
  </structure>
  <varray name="primitive_index" >
   <v type="int" >        1 </v>
   <v type="int" >        2 </v>
   <v type="int" >        3 </v>
   <v type="int" >        4 </v>
  </varray>
 </primitive_cell>
 <kpoints>
  <generation param="Gamma">
   <v type="int" name="divisions">      18       18       18 </v>
   <v name="usershift">      0.00000000       0.00000000       0.00000000 </v>
   <v name="genvec1">      0.05555556       0.00000000       0.00000000 </v>
   <v name="genvec2">      0.00000000       0.05555556       0.00000000 </v>
   <v name="genvec3">      0.00000000       0.00000000       0.05555556 </v>
   <v name="shift">      0.00000000       0.00000000       0.00000000 </v>
  </generation>
  <varray name="kpointlist" >
   <v>       0.00000000       0.00000000       0.00000000 </v>
   <v>       0.05555556       0.00000000       0.00000000 </v>
   <v>       0.11111111       0.00000000       0.00000000 </v>
   <v>       0.16666667       0.00000000       0.00000000 </v>
   <v>       0.22222222       0.00000000       0.00000000 </v>
   <v>       0.27777778       0.00000000       0.00000000 </v>
   <v>       0.33333333       0.00000000       0.00000000 </v>
   <v>       0.38888889       0.00000000       0.00000000 </v>
   <v>       0.44444444       0.00000000       0.00000000 </v>
   <v>       0.50000000       0.00000000       0.00000000 </v>
   <v>       0.05555556       0.05555556       0.00000000 </v>
   <v>       0.11111111       0.05555556       0.00000000 </v>
   <v>       0.16666667       0.05555556       0.00000000 </v>
   <v>       0.22222222       0.05555556       0.00000000 </v>
   <v>       0.27777778       0.05555556       0.00000000 </v>
   <v>       0.33333333       0.05555556       0.00000000 </v>
   <v>       0.38888889       0.05555556       0.00000000 </v>
   <v>       0.44444444       0.05555556       0.00000000 </v>
   <v>       0.50000000       0.05555556       0.00000000 </v>
   <v>       0.11111111       0.11111111       0.00000000 </v>
   <v>       0.16666667       0.11111111       0.00000000 </v>
   <v>       0.22222222       0.11111111       0.00000000 </v>
   <v>       0.27777778       0.11111111       0.00000000 </v>
   <v>       0.33333333       0.11111111       0.00000000 </v>
   <v>       0.38888889       0.11111111       0.00000000 </v>
   <v>       0.44444444       0.11111111       0.00000000 </v>
   <v>       0.50000000       0.11111111       0.00000000 </v>
   <v>       0.16666667       0.16666667       0.00000000 </v>
   <v>       0.22222222       0.16666667       0.00000000 </v>
   <v>       0.27777778       0.16666667       0.00000000 </v>
   <v>       0.33333333       0.16666667       0.00000000 </v>
   <v>       0.38888889       0.16666667       0.00000000 </v>
   <v>       0.44444444       0.16666667       0.00000000 </v>
   <v>       0.50000000       0.16666667       0.00000000 </v>
   <v>       0.22222222       0.22222222       0.00000000 </v>
   <v>       0.27777778       0.22222222       0.00000000 </v>
   <v>       0.33333333       0.22222222       0.00000000 </v>
   <v>       0.38888889       0.22222222       0.00000000 </v>
   <v>       0.44444444       0.22222222       0.00000000 </v>
   <v>       0.50000000       0.22222222       0.00000000 </v>
   <v>       0.27777778       0.27777778       0.00000000 </v>
   <v>       0.33333333       0.27777778       0.00000000 </v>
   <v>       0.38888889       0.27777778       0.00000000 </v>
   <v>       0.44444444       0.27777778       0.00000000 </v>
   <v>       0.50000000       0.27777778       0.00000000 </v>
   <v>       0.33333333       0.33333333       0.00000000 </v>
   <v>       0.38888889       0.33333333       0.00000000 </v>
   <v>       0.44444444       0.33333333       0.00000000 </v>
   <v>       0.50000000       0.33333333       0.00000000 </v>
   <v>       0.38888889       0.38888889       0.00000000 </v>
   <v>       0.44444444       0.38888889       0.00000000 </v>
   <v>       0.50000000       0.38888889       0.00000000 </v>
   <v>       0.44444444       0.44444444       0.00000000 </v>
   <v>       0.50000000       0.44444444       0.00000000 </v>
   <v>       0.50000000       0.50000000       0.00000000 </v>
   <v>       0.05555556       0.05555556       0.05555556 </v>
   <v>       0.11111111       0.05555556       0.05555556 </v>
   <v>       0.16666667       0.05555556       0.05555556 </v>
   <v>       0.22222222       0.05555556       0.05555556 </v>
   <v>       0.27777778       0.05555556       0.05555556 </v>
   <v>       0.33333333       0.05555556       0.05555556 </v>
   <v>       0.38888889       0.05555556       0.05555556 </v>
   <v>       0.44444444       0.05555556       0.05555556 </v>
   <v>       0.50000000       0.05555556       0.05555556 </v>
   <v>       0.11111111       0.11111111       0.05555556 </v>
   <v>       0.16666667       0.11111111       0.05555556 </v>
   <v>       0.22222222       0.11111111       0.05555556 </v>
   <v>       0.27777778       0.11111111       0.05555556 </v>
   <v>       0.33333333       0.11111111       0.05555556 </v>
   <v>       0.38888889       0.11111111       0.05555556 </v>
   <v>       0.44444444       0.11111111       0.05555556 </v>
   <v>       0.50000000       0.11111111       0.05555556 </v>
   <v>       0.16666667       0.16666667       0.05555556 </v>
   <v>       0.22222222       0.16666667       0.05555556 </v>
   <v>       0.27777778       0.16666667       0.05555556 </v>
   <v>       0.33333333       0.16666667       0.05555556 </v>
   <v>       0.38888889       0.16666667       0.05555556 </v>
   <v>       0.44444444       0.16666667       0.05555556 </v>
   <v>       0.50000000       0.16666667       0.05555556 </v>
   <v>       0.22222222       0.22222222       0.05555556 </v>
   <v>       0.27777778       0.22222222       0.05555556 </v>
   <v>       0.33333333       0.22222222       0.05555556 </v>
   <v>       0.38888889       0.22222222       0.05555556 </v>
   <v>       0.44444444       0.22222222       0.05555556 </v>
   <v>       0.50000000       0.22222222       0.05555556 </v>
   <v>       0.27777778       0.27777778       0.05555556 </v>
   <v>       0.33333333       0.27777778       0.05555556 </v>
   <v>       0.38888889       0.27777778       0.05555556 </v>
   <v>       0.44444444       0.27777778       0.05555556 </v>
   <v>       0.50000000       0.27777778       0.05555556 </v>
   <v>       0.33333333       0.33333333       0.05555556 </v>
   <v>       0.38888889       0.33333333       0.05555556 </v>
   <v>       0.44444444       0.33333333       0.05555556 </v>
   <v>       0.50000000       0.33333333       0.05555556 </v>
   <v>       0.38888889       0.38888889       0.05555556 </v>
   <v>       0.44444444       0.38888889       0.05555556 </v>
   <v>       0.50000000       0.38888889       0.05555556 </v>
   <v>       0.44444444       0.44444444       0.05555556 </v>
   <v>       0.50000000       0.44444444       0.05555556 </v>
   <v>       0.50000000       0.50000000       0.05555556 </v>
   <v>       0.11111111       0.11111111       0.11111111 </v>
   <v>       0.16666667       0.11111111       0.11111111 </v>
   <v>       0.22222222       0.11111111       0.11111111 </v>
   <v>       0.27777778       0.11111111       0.11111111 </v>
   <v>       0.33333333       0.11111111       0.11111111 </v>
   <v>       0.38888889       0.11111111       0.11111111 </v>
   <v>       0.44444444       0.11111111       0.11111111 </v>
   <v>       0.50000000       0.11111111       0.11111111 </v>
   <v>       0.16666667       0.16666667       0.11111111 </v>
   <v>       0.22222222       0.16666667       0.11111111 </v>
   <v>       0.27777778       0.16666667       0.11111111 </v>
   <v>       0.33333333       0.16666667       0.11111111 </v>
   <v>       0.38888889       0.16666667       0.11111111 </v>
   <v>       0.44444444       0.16666667       0.11111111 </v>
   <v>       0.50000000       0.16666667       0.11111111 </v>
   <v>       0.22222222       0.22222222       0.11111111 </v>
   <v>       0.27777778       0.22222222       0.11111111 </v>
   <v>       0.33333333       0.22222222       0.11111111 </v>
   <v>       0.38888889       0.22222222       0.11111111 </v>
   <v>       0.44444444       0.22222222       0.11111111 </v>
   <v>       0.50000000       0.22222222       0.11111111 </v>
   <v>       0.27777778       0.27777778       0.11111111 </v>
   <v>       0.33333333       0.27777778       0.11111111 </v>
   <v>       0.38888889       0.27777778       0.11111111 </v>
   <v>       0.44444444       0.27777778       0.11111111 </v>
   <v>       0.50000000       0.27777778       0.11111111 </v>
   <v>       0.33333333       0.33333333       0.11111111 </v>
   <v>       0.38888889       0.33333333       0.11111111 </v>
   <v>       0.44444444       0.33333333       0.11111111 </v>
   <v>       0.50000000       0.33333333       0.11111111 </v>
   <v>       0.38888889       0.38888889       0.11111111 </v>
   <v>       0.44444444       0.38888889       0.11111111 </v>
   <v>       0.50000000       0.38888889       0.11111111 </v>
   <v>       0.44444444       0.44444444       0.11111111 </v>
   <v>       0.50000000       0.44444444       0.11111111 </v>
   <v>       0.50000000       0.50000000       0.11111111 </v>
   <v>       0.16666667       0.16666667       0.16666667 </v>
   <v>       0.22222222       0.16666667       0.16666667 </v>
   <v>       0.27777778       0.16666667       0.16666667 </v>
   <v>       0.33333333       0.16666667       0.16666667 </v>
   <v>       0.38888889       0.16666667       0.16666667 </v>
   <v>       0.44444444       0.16666667       0.16666667 </v>
   <v>       0.50000000       0.16666667       0.16666667 </v>
   <v>       0.22222222       0.22222222       0.16666667 </v>
   <v>       0.27777778       0.22222222       0.16666667 </v>
   <v>       0.33333333       0.22222222       0.16666667 </v>
   <v>       0.38888889       0.22222222       0.16666667 </v>
   <v>       0.44444444       0.22222222       0.16666667 </v>
   <v>       0.50000000       0.22222222       0.16666667 </v>
   <v>       0.27777778       0.27777778       0.16666667 </v>
   <v>       0.33333333       0.27777778       0.16666667 </v>
   <v>       0.38888889       0.27777778       0.16666667 </v>
   <v>       0.44444444       0.27777778       0.16666667 </v>
   <v>       0.50000000       0.27777778       0.16666667 </v>
   <v>       0.33333333       0.33333333       0.16666667 </v>
   <v>       0.38888889       0.33333333       0.16666667 </v>
   <v>       0.44444444       0.33333333       0.16666667 </v>
   <v>       0.50000000       0.33333333       0.16666667 </v>
   <v>       0.38888889       0.38888889       0.16666667 </v>
   <v>       0.44444444       0.38888889       0.16666667 </v>
   <v>       0.50000000       0.38888889       0.16666667 </v>
   <v>       0.44444444       0.44444444       0.16666667 </v>
   <v>       0.50000000       0.44444444       0.16666667 </v>
   <v>       0.50000000       0.50000000       0.16666667 </v>
   <v>       0.22222222       0.22222222       0.22222222 </v>
   <v>       0.27777778       0.22222222       0.22222222 </v>
   <v>       0.33333333       0.22222222       0.22222222 </v>
   <v>       0.38888889       0.22222222       0.22222222 </v>
   <v>       0.44444444       0.22222222       0.22222222 </v>
   <v>       0.50000000       0.22222222       0.22222222 </v>
   <v>       0.27777778       0.27777778       0.22222222 </v>
   <v>       0.33333333       0.27777778       0.22222222 </v>
   <v>       0.38888889       0.27777778       0.22222222 </v>
   <v>       0.44444444       0.27777778       0.22222222 </v>
   <v>       0.50000000       0.27777778       0.22222222 </v>
   <v>       0.33333333       0.33333333       0.22222222 </v>
   <v>       0.38888889       0.33333333       0.22222222 </v>
   <v>       0.44444444       0.33333333       0.22222222 </v>
   <v>       0.50000000       0.33333333       0.22222222 </v>
   <v>       0.38888889       0.38888889       0.22222222 </v>
   <v>       0.44444444       0.38888889       0.22222222 </v>
   <v>       0.50000000       0.38888889       0.22222222 </v>
   <v>       0.44444444       0.44444444       0.22222222 </v>
   <v>       0.50000000       0.44444444       0.22222222 </v>
   <v>       0.50000000       0.50000000       0.22222222 </v>
   <v>       0.27777778       0.27777778       0.27777778 </v>
   <v>       0.33333333       0.27777778       0.27777778 </v>
   <v>       0.38888889       0.27777778       0.27777778 </v>
   <v>       0.44444444       0.27777778       0.27777778 </v>
   <v>       0.50000000       0.27777778       0.27777778 </v>
   <v>       0.33333333       0.33333333       0.27777778 </v>
   <v>       0.38888889       0.33333333       0.27777778 </v>
   <v>       0.44444444       0.33333333       0.27777778 </v>
   <v>       0.50000000       0.33333333       0.27777778 </v>
   <v>       0.38888889       0.38888889       0.27777778 </v>
   <v>       0.44444444       0.38888889       0.27777778 </v>
   <v>       0.50000000       0.38888889       0.27777778 </v>
   <v>       0.44444444       0.44444444       0.27777778 </v>
   <v>       0.50000000       0.44444444       0.27777778 </v>
   <v>       0.50000000       0.50000000       0.27777778 </v>
   <v>       0.33333333       0.33333333       0.33333333 </v>
   <v>       0.38888889       0.33333333       0.33333333 </v>
   <v>       0.44444444       0.33333333       0.33333333 </v>
   <v>       0.50000000       0.33333333       0.33333333 </v>
   <v>       0.38888889       0.38888889       0.33333333 </v>
   <v>       0.44444444       0.38888889       0.33333333 </v>
   <v>       0.50000000       0.38888889       0.33333333 </v>
   <v>       0.44444444       0.44444444       0.33333333 </v>
   <v>       0.50000000       0.44444444       0.33333333 </v>
   <v>       0.50000000       0.50000000       0.33333333 </v>
   <v>       0.38888889       0.38888889       0.38888889 </v>
   <v>       0.44444444       0.38888889       0.38888889 </v>
   <v>       0.50000000       0.38888889       0.38888889 </v>
   <v>       0.44444444       0.44444444       0.38888889 </v>
   <v>       0.50000000       0.44444444       0.38888889 </v>
   <v>       0.50000000       0.50000000       0.38888889 </v>
   <v>       0.44444444       0.44444444       0.44444444 </v>
   <v>       0.50000000       0.44444444       0.44444444 </v>
   <v>       0.50000000       0.50000000       0.44444444 </v>
   <v>       0.50000000       0.50000000       0.50000000 </v>
  </varray>
  <varray name="weights" >
   <v>       0.00017147 </v>
   <v>       0.00102881 </v>
   <v>       0.00102881 </v>
   <v>       0.00102881 </v>
   <v>       0.00102881 </v>
   <v>       0.00102881 </v>
   <v>       0.00102881 </v>
   <v>       0.00102881 </v>
   <v>       0.00102881 </v>
   <v>       0.00051440 </v>
   <v>       0.00205761 </v>
   <v>       0.00411523 </v>
   <v>       0.00411523 </v>
   <v>       0.00411523 </v>
   <v>       0.00411523 </v>
   <v>       0.00411523 </v>
   <v>       0.00411523 </v>
   <v>       0.00411523 </v>
   <v>       0.00205761 </v>
   <v>       0.00205761 </v>
   <v>       0.00411523 </v>
   <v>       0.00411523 </v>
   <v>       0.00411523 </v>
   <v>       0.00411523 </v>
   <v>       0.00411523 </v>
   <v>       0.00411523 </v>
   <v>       0.00205761 </v>
   <v>       0.00205761 </v>
   <v>       0.00411523 </v>
   <v>       0.00411523 </v>
   <v>       0.00411523 </v>
   <v>       0.00411523 </v>
   <v>       0.00411523 </v>
   <v>       0.00205761 </v>
   <v>       0.00205761 </v>
   <v>       0.00411523 </v>
   <v>       0.00411523 </v>
   <v>       0.00411523 </v>
   <v>       0.00411523 </v>
   <v>       0.00205761 </v>
   <v>       0.00205761 </v>
   <v>       0.00411523 </v>
   <v>       0.00411523 </v>
   <v>       0.00411523 </v>
   <v>       0.00205761 </v>
   <v>       0.00205761 </v>
   <v>       0.00411523 </v>
   <v>       0.00411523 </v>
   <v>       0.00205761 </v>
   <v>       0.00205761 </v>
   <v>       0.00411523 </v>
   <v>       0.00205761 </v>
   <v>       0.00205761 </v>
   <v>       0.00205761 </v>
   <v>       0.00051440 </v>
   <v>       0.00137174 </v>
   <v>       0.00411523 </v>
   <v>       0.00411523 </v>
   <v>       0.00411523 </v>
   <v>       0.00411523 </v>
   <v>       0.00411523 </v>
   <v>       0.00411523 </v>
   <v>       0.00411523 </v>
   <v>       0.00205761 </v>
   <v>       0.00411523 </v>
   <v>       0.00823045 </v>
   <v>       0.00823045 </v>
   <v>       0.00823045 </v>
   <v>       0.00823045 </v>
   <v>       0.00823045 </v>
   <v>       0.00823045 </v>
   <v>       0.00411523 </v>
   <v>       0.00411523 </v>
   <v>       0.00823045 </v>
   <v>       0.00823045 </v>
   <v>       0.00823045 </v>
   <v>       0.00823045 </v>
   <v>       0.00823045 </v>
   <v>       0.00411523 </v>
   <v>       0.00411523 </v>
   <v>       0.00823045 </v>
   <v>       0.00823045 </v>
   <v>       0.00823045 </v>
   <v>       0.00823045 </v>
   <v>       0.00411523 </v>
   <v>       0.00411523 </v>
   <v>       0.00823045 </v>
   <v>       0.00823045 </v>
   <v>       0.00823045 </v>
   <v>       0.00411523 </v>
   <v>       0.00411523 </v>
   <v>       0.00823045 </v>
   <v>       0.00823045 </v>
   <v>       0.00411523 </v>
   <v>       0.00411523 </v>
   <v>       0.00823045 </v>
   <v>       0.00411523 </v>
   <v>       0.00411523 </v>
   <v>       0.00411523 </v>
   <v>       0.00102881 </v>
   <v>       0.00137174 </v>
   <v>       0.00411523 </v>
   <v>       0.00411523 </v>
   <v>       0.00411523 </v>
   <v>       0.00411523 </v>
   <v>       0.00411523 </v>
   <v>       0.00411523 </v>
   <v>       0.00205761 </v>
   <v>       0.00411523 </v>
   <v>       0.00823045 </v>
   <v>       0.00823045 </v>
   <v>       0.00823045 </v>
   <v>       0.00823045 </v>
   <v>       0.00823045 </v>
   <v>       0.00411523 </v>
   <v>       0.00411523 </v>
   <v>       0.00823045 </v>
   <v>       0.00823045 </v>
   <v>       0.00823045 </v>
   <v>       0.00823045 </v>
   <v>       0.00411523 </v>
   <v>       0.00411523 </v>
   <v>       0.00823045 </v>
   <v>       0.00823045 </v>
   <v>       0.00823045 </v>
   <v>       0.00411523 </v>
   <v>       0.00411523 </v>
   <v>       0.00823045 </v>
   <v>       0.00823045 </v>
   <v>       0.00411523 </v>
   <v>       0.00411523 </v>
   <v>       0.00823045 </v>
   <v>       0.00411523 </v>
   <v>       0.00411523 </v>
   <v>       0.00411523 </v>
   <v>       0.00102881 </v>
   <v>       0.00137174 </v>
   <v>       0.00411523 </v>
   <v>       0.00411523 </v>
   <v>       0.00411523 </v>
   <v>       0.00411523 </v>
   <v>       0.00411523 </v>
   <v>       0.00205761 </v>
   <v>       0.00411523 </v>
   <v>       0.00823045 </v>
   <v>       0.00823045 </v>
   <v>       0.00823045 </v>
   <v>       0.00823045 </v>
   <v>       0.00411523 </v>
   <v>       0.00411523 </v>
   <v>       0.00823045 </v>
   <v>       0.00823045 </v>
   <v>       0.00823045 </v>
   <v>       0.00411523 </v>
   <v>       0.00411523 </v>
   <v>       0.00823045 </v>
   <v>       0.00823045 </v>
   <v>       0.00411523 </v>
   <v>       0.00411523 </v>
   <v>       0.00823045 </v>
   <v>       0.00411523 </v>
   <v>       0.00411523 </v>
   <v>       0.00411523 </v>
   <v>       0.00102881 </v>
   <v>       0.00137174 </v>
   <v>       0.00411523 </v>
   <v>       0.00411523 </v>
   <v>       0.00411523 </v>
   <v>       0.00411523 </v>
   <v>       0.00205761 </v>
   <v>       0.00411523 </v>
   <v>       0.00823045 </v>
   <v>       0.00823045 </v>
   <v>       0.00823045 </v>
   <v>       0.00411523 </v>
   <v>       0.00411523 </v>
   <v>       0.00823045 </v>
   <v>       0.00823045 </v>
   <v>       0.00411523 </v>
   <v>       0.00411523 </v>
   <v>       0.00823045 </v>
   <v>       0.00411523 </v>
   <v>       0.00411523 </v>
   <v>       0.00411523 </v>
   <v>       0.00102881 </v>
   <v>       0.00137174 </v>
   <v>       0.00411523 </v>
   <v>       0.00411523 </v>
   <v>       0.00411523 </v>
   <v>       0.00205761 </v>
   <v>       0.00411523 </v>
   <v>       0.00823045 </v>
   <v>       0.00823045 </v>
   <v>       0.00411523 </v>
   <v>       0.00411523 </v>
   <v>       0.00823045 </v>
   <v>       0.00411523 </v>
   <v>       0.00411523 </v>
   <v>       0.00411523 </v>
   <v>       0.00102881 </v>
   <v>       0.00137174 </v>
   <v>       0.00411523 </v>
   <v>       0.00411523 </v>
   <v>       0.00205761 </v>
   <v>       0.00411523 </v>
   <v>       0.00823045 </v>
   <v>       0.00411523 </v>
   <v>       0.00411523 </v>
   <v>       0.00411523 </v>
   <v>       0.00102881 </v>
   <v>       0.00137174 </v>
   <v>       0.00411523 </v>
   <v>       0.00205761 </v>
   <v>       0.00411523 </v>
   <v>       0.00411523 </v>
   <v>       0.00102881 </v>
   <v>       0.00137174 </v>
   <v>       0.00205761 </v>
   <v>       0.00102881 </v>
   <v>       0.00017147 </v>
  </varray>
 </kpoints>
 <parameters>
  <separator name="general" >
   <i type="string" name="SYSTEM">Ni3Al EOS</i>
   <i type="logical" name="LCOMPAT"> F  </i>
  </separator>
  <separator name="electronic" >
   <i type="string" name="PREC">accura</i>
   <i name="ENMAX">    600.00000000</i>
   <i name="ENAUG">    544.56500000</i>
   <i name="EDIFF">      0.00000100</i>
   <i type="int" name="IALGO">    38</i>
   <i type="int" name="IWAVPR">    11</i>
   <i type="int" name="NBANDS">    24</i>
   <i type="int" name="NBANDSLOW">    -1</i>
   <i type="int" name="NBANDSHIGH">    -1</i>
   <i name="NELECT">     33.00000000</i>
   <i type="int" name="TURBO">     0</i>
   <i type="int" name="IRESTART">     0</i>
   <i type="int" name="NREBOOT">     0</i>
   <i type="int" name="NMIN">     0</i>
   <i name="EREF">      0.00000000</i>
   <separator name="electronic smearing" >
    <i type="int" name="ISMEAR">     1</i>
    <i name="SIGMA">      0.20000000</i>
    <i name="KSPACING">      0.50000000</i>
    <i type="logical" name="KGAMMA"> T  </i>
    <i type="logical" name="KBLOWUP"> T  </i>
   </separator>
   <separator name="electronic projectors" >
    <i type="logical" name="LREAL"> F  </i>
    <v name="ROPT">      0.00000000      0.00000000</v>
    <i type="int" name="LMAXPAW">  -100</i>
    <i type="int" name="LMAXMIX">     2</i>
    <i type="logical" name="NLSPLINE"> F  </i>
   </separator>
   <separator name="electronic startup" >
    <i type="int" name="ISTART">     0</i>
    <i type="int" name="ICHARG">     2</i>
    <i type="int" name="INIWAV">     1</i>
   </separator>
   <separator name="electronic spin" >
    <i type="int" name="ISPIN">     2</i>
    <i type="logical" name="LNONCOLLINEAR"> F  </i>
    <v name="MAGMOM">      0.00000000      0.60000000      0.60000000      0.60000000</v>
    <i name="NUPDOWN">     -1.00000000</i>
    <i type="logical" name="LSORBIT"> F  </i>
    <v name="SAXIS">      0.00000000      0.00000000      1.00000000</v>
    <i type="logical" name="LSPIRAL"> F  </i>
    <v name="QSPIRAL">      0.00000000      0.00000000      0.00000000</v>
    <i type="logical" name="LZEROZ"> F  </i>
   </separator>
   <separator name="electronic exchange-correlation" >
    <i type="logical" name="LASPH"> T  </i>
    <i type="logical" name="LMETAGGA"> F  </i>
   </separator>
   <separator name="electronic convergence" >
    <i type="int" name="NELM">    60</i>
    <i type="int" name="NELMDL">    -5</i>
    <i type="int" name="NELMIN">     2</i>
    <i name="ENINI">    600.00000000</i>
    <separator name="electronic convergence detail" >
     <i type="logical" name="LDIAG"> T  </i>
     <i type="logical" name="LSUBROT"> F  </i>
     <i name="WEIMIN">      0.00100000</i>
     <i name="EBREAK">      0.00000001</i>
     <i name="DEPER">      0.30000000</i>
     <i type="int" name="NRMM">     4</i>
     <i name="TIME">      0.40000000</i>
    </separator>
   </separator>
   <separator name="electronic mixer" >
    <i name="AMIX">      0.40000000</i>
    <i name="BMIX">      1.00000000</i>
    <i name="AMIN">      0.10000000</i>
    <i name="AMIX_MAG">      1.60000000</i>
    <i name="BMIX_MAG">      1.00000000</i>
    <separator name="electronic mixer details" >
     <i type="int" name="IMIX">     4</i>
     <i type="logical" name="MIXFIRST"> F  </i>
     <i type="int" name="MAXMIX">   -45</i>
     <i name="WC">    100.00000000</i>
     <i type="int" name="INIMIX">     1</i>
     <i type="int" name="MIXPRE">     1</i>
     <i type="int" name="MREMOVE">     5</i>
    </separator>
   </separator>
   <separator name="electronic dipolcorrection" >
    <i type="logical" name="LDIPOL"> F  </i>
    <i type="logical" name="LMONO"> F  </i>
    <i type="int" name="IDIPOL">     0</i>
    <i name="EPSILON">      1.00000000</i>
    <v name="DIPOL">   -100.00000000   -100.00000000   -100.00000000</v>
    <i name="EFIELD">      0.00000000</i>
   </separator>
  </separator>
  <separator name="grids" >
   <i type="int" name="NGX">    28</i>
   <i type="int" name="NGY">    28</i>
   <i type="int" name="NGZ">    28</i>
   <i type="int" name="NGXF">    56</i>
   <i type="int" name="NGYF">    56</i>
   <i type="int" name="NGZF">    56</i>
   <i type="logical" name="ADDGRID"> T  </i>
  </separator>
  <separator name="ionic" >
   <i type="int" name="NSW">   100</i>
   <i type="int" name="IBRION">     2</i>
   <i type="int" name="MDALGO">     0</i>
   <i type="int" name="ISIF">     2</i>
   <i name="PSTRESS">      0.00000000</i>
   <i name="EDIFFG">     -0.01000000</i>
   <i type="int" name="NFREE">     1</i>
   <i name="POTIM">      0.50000000</i>
   <i name="SMASS">     -3.00000000</i>
   <i name="SCALEE">      1.00000000</i>
  </separator>
  <separator name="ionic md" >
   <i name="TEBEG">      0.00010000</i>
   <i name="TEEND">      0.00010000</i>
   <i type="int" name="NBLOCK">     1</i>
   <i type="int" name="KBLOCK">   100</i>
   <i type="int" name="NPACO">   256</i>
   <i name="APACO">     10.00000000</i>
  </separator>
  <separator name="symmetry" >
   <i type="int" name="ISYM">     2</i>
   <i name="SYMPREC">      0.00001000</i>
  </separator>
  <separator name="dos" >
   <i type="int" name="LORBIT">     0</i>
   <v name="RWIGS">     -1.00000000     -1.00000000</v>
   <i type="int" name="NEDOS">  2000</i>
   <i name="EMIN">     10.00000000</i>
   <i name="EMAX">    -10.00000000</i>
   <i name="EFERMI">      0.00000000</i>
  </separator>
  <separator name="writing" >
   <i type="int" name="NWRITE">     2</i>
   <i type="logical" name="LWAVE"> F  </i>
   <i type="logical" name="LDOWNSAMPLE"> F  </i>
   <i type="logical" name="LCHARG"> T  </i>
   <i type="logical" name="LPARD"> F  </i>
   <i type="logical" name="LVTOT"> F  </i>
   <i type="logical" name="LVHAR"> F  </i>
   <i type="logical" name="LELF"> F  </i>
   <i type="logical" name="LOPTICS"> F  </i>
   <v name="STM">      0.00000000      0.00000000      0.00000000      0.00000000      0.00000000      0.00000000      0.00000000</v>
  </separator>
  <separator name="performance" >
   <i type="int" name="NPAR">     6</i>
   <i type="int" name="NSIM">     4</i>
   <i type="int" name="NBLK">    -1</i>
   <i type="logical" name="LPLANE"> T  </i>
   <i type="logical" name="LSCALAPACK"> T  </i>
   <i type="logical" name="LSCAAWARE"> F  </i>
   <i type="logical" name="LSCALU"> F  </i>
   <i type="logical" name="LASYNC"> F  </i>
   <i type="logical" name="LORBITALREAL"> F  </i>
  </separator>
  <separator name="miscellaneous" >
   <i type="int" name="IDIOT">     3</i>
   <i type="int" name="PHON_NSTRUCT">    -1</i>
   <i type="logical" name="LMUSIC"> F  </i>
   <v name="POMASS">     26.98200000     58.69000000</v>
   <v name="DARWINR">      0.00000000      0.00000000</v>
   <v name="DARWINV">      1.00000000      1.00000000</v>
   <i type="logical" name="LCORR"> T  </i>
  </separator>
  <i type="logical" name="GGA_COMPAT"> T  </i>
  <i type="logical" name="LBERRY"> F  </i>
  <i type="int" name="ICORELEVEL">     0</i>
  <i type="logical" name="LDAU"> F  </i>
  <i type="int" name="I_CONSTRAINED_M">     0</i>
  <separator name="electronic exchange-correlation" >
   <i type="string" name="GGA">--</i>
   <i type="int" name="VOSKOWN">     0</i>
   <i type="logical" name="LHFCALC"> F  </i>
   <i type="string" name="PRECFOCK"></i>
   <i type="logical" name="LSYMGRAD"> F  </i>
   <i type="logical" name="LHFONE"> F  </i>
   <i type="logical" name="LRHFCALC"> F  </i>
   <i type="logical" name="LTHOMAS"> F  </i>
   <i type="logical" name="LMODELHF"> F  </i>
   <i type="logical" name="LFOCKACE"> F  </i>
   <i name="ENCUT4O">     -1.00000000</i>
   <i type="int" name="EXXOEP">     0</i>
   <i type="int" name="FOURORBIT">     0</i>
   <i name="AEXX">      0.00000000</i>
   <i name="HFALPHA">      0.00000000</i>
   <i name="MCALPHA">      0.00000000</i>
   <i name="ALDAX">      1.00000000</i>
   <i name="AGGAX">      1.00000000</i>
   <i name="ALDAC">      1.00000000</i>
   <i name="AGGAC">      1.00000000</i>
   <i type="int" name="NKREDX">     1</i>
   <i type="int" name="NKREDY">     1</i>
   <i type="int" name="NKREDZ">     1</i>
   <i type="logical" name="SHIFTRED"> F  </i>
   <i type="logical" name="ODDONLY"> F  </i>
   <i type="logical" name="EVENONLY"> F  </i>
   <i type="int" name="LMAXFOCK">     0</i>
   <i type="int" name="NMAXFOCKAE">     0</i>
   <i type="logical" name="LFOCKAEDFT"> F  </i>
   <i name="HFSCREEN">      0.00000000</i>
   <i name="HFSCREENC">      0.00000000</i>
   <i type="int" name="NBANDSGWLOW">     0</i>
  </separator>
  <separator name="vdW DFT" >
   <i type="logical" name="LUSE_VDW"> F  </i>
   <i name="Zab_VDW">     -0.84910000</i>
   <i name="PARAM1">      0.12340000</i>
   <i name="PARAM2">      1.00000000</i>
   <i name="PARAM3">      0.00000000</i>
  </separator>
  <separator name="model GW" >
   <i type="int" name="MODEL_GW">     0</i>
   <i name="MODEL_EPS0">      6.59804655</i>
   <i name="MODEL_ALPHA">      1.00000000</i>
  </separator>
  <separator name="linear response parameters" >
   <i type="logical" name="LEPSILON"> F  </i>
   <i type="logical" name="LRPA"> F  </i>
   <i type="logical" name="LNABLA"> F  </i>
   <i type="logical" name="LVEL"> F  </i>
   <i name="CSHIFT">      0.10000000</i>
   <i name="OMEGAMAX">     -1.00000000</i>
   <i name="DEG_THRESHOLD">      0.00200000</i>
   <i name="RTIME">     -0.10000000</i>
   <i name="WPLASMAI">      0.00000000</i>
   <v name="DFIELD">      0.00000000      0.00000000      0.00000000</v>
   <v name="WPLASMA">      0.00000000      0.00000000      0.00000000      0.00000000      0.00000000      0.00000000      0.00000000      0.00000000      0.00000000</v>
  </separator>
  <separator name="orbital magnetization" >
   <i type="logical" name="NUCIND"> F  </i>
   <v name="MAGPOS">      0.00000000      0.00000000      0.00000000</v>
   <i type="logical" name="LNICSALL"> T  </i>
   <i type="logical" name="ORBITALMAG"> F  </i>
   <i type="logical" name="LMAGBLOCH"> F  </i>
   <i type="logical" name="LCHIMAG"> F  </i>
   <i type="logical" name="LGAUGE"> T  </i>
   <i type="int" name="MAGATOM">     0</i>
   <v name="MAGDIPOL">      0.00000000      0.00000000      0.00000000</v>
   <v name="AVECCONST">      0.00000000      0.00000000      0.00000000</v>
  </separator>
  <separator name="response functions" >
   <i type="logical" name="LFINITE_TEMPERATURE"> F  </i>
   <i type="logical" name="LADDER"> F  </i>
   <i type="logical" name="LRPAFORCE"> F  </i>
   <i type="logical" name="LFXC"> F  </i>
   <i type="logical" name="LHARTREE"> T  </i>
   <i type="int" name="IBSE">     0</i>
   <v type="int" name="KPOINT">    -1     0     0     0</v>
   <i type="logical" name="LTCTC"> F  </i>
   <i type="logical" name="LTCTE"> F  </i>
   <i type="logical" name="LTETE"> F  </i>
   <i type="logical" name="LTRIPLET"> F  </i>
   <i type="logical" name="LFXCEPS"> F  </i>
   <i type="logical" name="LFXHEG"> F  </i>
   <i type="int" name="NATURALO">     2</i>
   <i type="logical" name="LHOLEGF"> F  </i>
   <i type="logical" name="L2ORDER"> F  </i>
   <i type="logical" name="LDMP1"> F  </i>
   <i type="logical" name="LMP2LT"> F  </i>
   <i type="logical" name="LSMP2LT"> F  </i>
   <i type="logical" name="LGWLF"> F  </i>
   <i name="ENCUTGW">     -2.00000000</i>
   <i name="ENCUTGWSOFT">     -2.00000000</i>
   <i name="ENCUTLF">     -1.00000000</i>
   <i type="logical" name="LESF_SPLINES"> F  </i>
   <i type="int" name="LMAXMP2">    -1</i>
   <i name="SCISSOR">      0.00000000</i>
   <i type="int" name="NOMEGA">     0</i>
   <i type="int" name="NOMEGAR">     0</i>
   <i type="int" name="NBANDSGW">    -1</i>
   <i type="int" name="NBANDSO">    -1</i>
   <i type="int" name="NBANDSV">    -1</i>
   <i type="int" name="NELMGW">     1</i>
   <i type="int" name="NELMHF">     1</i>
   <i type="int" name="DIM">     3</i>
   <i type="int" name="IESPILON">     4</i>
   <i type="int" name="ANTIRES">     0</i>
   <i name="OMEGAMAX">    -30.00000000</i>
   <i name="OMEGAMIN">    -30.00000000</i>
   <i name="OMEGATL">   -200.00000000</i>
   <i type="int" name="OMEGAGRID">     0</i>
   <i name="CSHIFT">     -0.10000000</i>
   <i type="logical" name="LSELFENERGY"> F  </i>
   <i type="logical" name="LSPECTRAL"> F  </i>
   <i type="logical" name="LSPECTRALGW"> F  </i>
   <i type="logical" name="LSINGLES"> F  </i>
   <i type="logical" name="LFERMIGW"> F  </i>
   <i type="logical" name="ODDONLYGW"> F  </i>
   <i type="logical" name="EVENONLYGW"> F  </i>
   <i type="int" name="NKREDLFX">     1</i>
   <i type="int" name="NKREDLFY">     1</i>
   <i type="int" name="NKREDLFZ">     1</i>
   <i type="int" name="MAXMEM">  2800</i>
   <i type="int" name="TELESCOPE">     0</i>
   <i type="int" name="NTAUPAR">    -1</i>
   <i type="int" name="NOMEGAPAR">    -1</i>
   <i name="DAMP_NEWTON">      0.80000001</i>
   <i name="LAMBDA">      1.00000000</i>
  </separator>
  <separator name="External order field" >
   <i name="OFIELD_KAPPA">      0.00000000</i>
   <v name="OFIELD_K">      0.00000000      0.00000000      0.00000000</v>
   <i name="OFIELD_Q6_NEAR">      0.00000000</i>
   <i name="OFIELD_Q6_FAR">      0.00000000</i>
   <i name="OFIELD_A">      0.00000000</i>
  </separator>
  <separator name="optional k-points parameters" >
   <i type="int" name="KPOINTS_OPT_MODE">     1</i>
   <i type="logical" name="LKPOINTS_OPT"> F  </i>
  </separator>
 </parameters>
 <atominfo>
  <atoms>       4 </atoms>
  <types>       2 </types>
  <array name="atoms" >
   <dimension dim="1">ion</dimension>
   <field type="string">element</field>
   <field type="int">atomtype</field>
   <set>
    <rc><c>Al</c><c>   1</c></rc>
    <rc><c>Ni</c><c>   2</c></rc>
    <rc><c>Ni</c><c>   2</c></rc>
    <rc><c>Ni</c><c>   2</c></rc>
   </set>
  </array>
  <array name="atomtypes" >
   <dimension dim="1">type</dimension>
   <field type="int">atomspertype</field>
   <field type="string">element</field>
   <field>mass</field>
   <field>valence</field>
   <field type="string">pseudopotential</field>
   <set>
    <rc><c>   1</c><c>Al</c><c>     26.98200000</c><c>      3.00000000</c><c> PAW_PBE Al 04Jan2001                   </c></rc>
    <rc><c>   3</c><c>Ni</c><c>     58.69000000</c><c>     10.00000000</c><c> PAW_PBE Ni 06Sep2000                   </c></rc>
   </set>
  </array>
 </atominfo>
 <structure name="initialpos" >
  <crystal>
   <varray name="basis" >
    <v>       3.53000000       0.00000000       0.00000000 </v>
    <v>       0.00000000       3.53000000       0.00000000 </v>
    <v>       0.00000000       0.00000000       3.53000000 </v>
   </varray>
   <i name="volume">     43.98697700 </i>
   <varray name="rec_basis" >
    <v>       0.28328612       0.00000000       0.00000000 </v>
    <v>       0.00000000       0.28328612       0.00000000 </v>
    <v>       0.00000000       0.00000000       0.28328612 </v>
   </varray>
  </crystal>
  <varray name="positions" >
   <v>       0.00000000       0.00000000       0.00000000 </v>
   <v>       0.50000000       0.00000000       0.50000000 </v>
   <v>       0.50000000       0.50000000       0.00000000 </v>
   <v>       0.00000000       0.50000000       0.50000000 </v>
  </varray>
 </structure>
 <calculation>
  <scstep>
   <time name="dav">    3.51    3.72</time>
   <time name="total">    4.12    4.34</time>
   <energy>
    <i name="alphaZ">    226.06511964 </i>
    <i name="ewald">  -2714.93450388 </i>
    <i name="hartreedc">   -909.92304567 </i>
    <i name="XCdc">     69.66873831 </i>
    <i name="pawpsdc">   2647.30747865 </i>
    <i name="pawaedc">  -2815.80221064 </i>
    <i name="eentropy">      0.00113234 </i>
    <i name="bandstr">    369.11357373 </i>
    <i name="atom">   3287.24036057 </i>
    <i name="e_fr_energy">    158.73664306 </i>
    <i name="e_wo_entrp">    158.73551072 </i>
    <i name="e_0_energy">    158.73626562 </i>
   </energy>
  </scstep>
  <scstep>
   <time name="dav">    3.48    3.56</time>
   <time name="total">    3.51    3.59</time>
   <energy>
    <i name="e_fr_energy">    -21.76389046 </i>
    <i name="e_wo_entrp">    -21.76913123 </i>
    <i name="e_0_energy">    -21.76563738 </i>
   </energy>
  </scstep>
  <scstep>
   <time name="dav">    4.38    4.45</time>
   <time name="total">    4.41    4.49</time>
   <energy>
    <i name="e_fr_energy">    -26.23642159 </i>
    <i name="e_wo_entrp">    -26.24236808 </i>
    <i name="e_0_energy">    -26.23840375 </i>
   </energy>
  </scstep>
  <scstep>
   <time name="dav">    3.94    4.03</time>
   <time name="total">    3.97    4.06</time>
   <energy>
    <i name="e_fr_energy">    -26.27675118 </i>
    <i name="e_wo_entrp">    -26.28267816 </i>
    <i name="e_0_energy">    -26.27872684 </i>
   </energy>
  </scstep>
  <scstep>
   <time name="dav">    4.51    4.58</time>
   <time name="total">    4.71    4.79</time>
   <energy>
    <i name="e_fr_energy">    -26.27771831 </i>
    <i name="e_wo_entrp">    -26.28364514 </i>
    <i name="e_0_energy">    -26.27969392 </i>
   </energy>
  </scstep>
  <scstep>
   <time name="dav">    3.70    3.86</time>
   <time name="total">    4.45    4.62</time>
   <energy>
    <i name="e_fr_energy">    -27.09439460 </i>
    <i name="e_wo_entrp">    -27.09591567 </i>
    <i name="e_0_energy">    -27.09490163 </i>
   </energy>
  </scstep>
  <scstep>
   <time name="dav">    3.84    3.92</time>
   <time name="total">    4.59    4.67</time>
   <energy>
    <i name="e_fr_energy">    -22.25807050 </i>
    <i name="e_wo_entrp">    -22.24847117 </i>
    <i name="e_0_energy">    -22.25487072 </i>
   </energy>
  </scstep>
  <scstep>
   <time name="dav">    3.63    3.79</time>
   <time name="total">    4.39    4.55</time>
   <energy>
    <i name="e_fr_energy">    -22.20091913 </i>
    <i name="e_wo_entrp">    -22.19323709 </i>
    <i name="e_0_energy">    -22.19835845 </i>
   </energy>
  </scstep>
  <scstep>
   <time name="dav">    4.37    4.53</time>
   <time name="total">    5.13    5.29</time>
   <energy>
    <i name="e_fr_energy">    -22.17968875 </i>
    <i name="e_wo_entrp">    -22.17641770 </i>
    <i name="e_0_energy">    -22.17859840 </i>
   </energy>
  </scstep>
  <scstep>
   <time name="dav">    4.16    4.23</time>
   <time name="total">    4.91    4.99</time>
   <energy>
    <i name="e_fr_energy">    -22.18118451 </i>
    <i name="e_wo_entrp">    -22.17997682 </i>
    <i name="e_0_energy">    -22.18078194 </i>
   </energy>
  </scstep>
  <scstep>
   <time name="dav">    3.93    4.09</time>
   <time name="total">    4.69    4.85</time>
   <energy>
    <i name="e_fr_energy">    -22.18311324 </i>
    <i name="e_wo_entrp">    -22.18670999 </i>
    <i name="e_0_energy">    -22.18431216 </i>
   </energy>
  </scstep>
  <scstep>
   <time name="dav">    3.90    4.06</time>
   <time name="total">    4.65    4.81</time>
   <energy>
    <i name="e_fr_energy">    -22.18373670 </i>
    <i name="e_wo_entrp">    -22.18698239 </i>
    <i name="e_0_energy">    -22.18481860 </i>
   </energy>
  </scstep>
  <scstep>
   <time name="dav">    4.14    4.30</time>
   <time name="total">    4.90    5.06</time>
   <energy>
    <i name="e_fr_energy">    -22.18374151 </i>
    <i name="e_wo_entrp">    -22.18695727 </i>
    <i name="e_0_energy">    -22.18481343 </i>
   </energy>
  </scstep>
  <scstep>
   <time name="dav">    4.00    4.15</time>
   <time name="total">    4.76    4.91</time>
   <energy>
    <i name="e_fr_energy">    -22.18374965 </i>
    <i name="e_wo_entrp">    -22.18706856 </i>
    <i name="e_0_energy">    -22.18485596 </i>
   </energy>
  </scstep>
  <scstep>
   <time name="dav">    2.72    2.88</time>
   <time name="total">    3.31    3.47</time>
   <energy>
    <i name="alphaZ">    226.06511964 </i>
    <i name="ewald">  -2714.93450388 </i>
    <i name="hartreedc">   -847.54115088 </i>
    <i name="XCdc">     66.74865222 </i>
    <i name="pawpsdc">   2834.20217439 </i>
    <i name="pawaedc">  -3007.18756265 </i>
    <i name="eentropy">      0.00333700 </i>
    <i name="bandstr">    133.21982329 </i>
    <i name="atom">   3287.24036057 </i>
    <i name="e_fr_energy">    -22.18375029 </i>
    <i name="e_wo_entrp">    -22.18708729 </i>
    <i name="e_0_energy">    -22.18486262 </i>
   </energy>
  </scstep>
  <structure>
   <crystal>
    <varray name="basis" >
     <v>       3.53000000       0.00000000       0.00000000 </v>
     <v>       0.00000000       3.53000000       0.00000000 </v>
     <v>       0.00000000       0.00000000       3.53000000 </v>
    </varray>
    <i name="volume">     43.98697700 </i>
    <varray name="rec_basis" >
     <v>       0.28328612       0.00000000       0.00000000 </v>
     <v>       0.00000000       0.28328612       0.00000000 </v>
     <v>       0.00000000       0.00000000       0.28328612 </v>
    </varray>
   </crystal>
   <varray name="positions" >
    <v>       0.00000000       0.00000000       0.00000000 </v>
    <v>       0.50000000       0.00000000       0.50000000 </v>
    <v>       0.50000000       0.50000000       0.00000000 </v>
    <v>       0.00000000       0.50000000       0.50000000 </v>
   </varray>
  </structure>
  <varray name="forces" >
   <v>       0.00000000       0.00000000       0.00000000 </v>
   <v>       0.00000000       0.00000000       0.00000000 </v>
   <v>       0.00000000       0.00000000       0.00000000 </v>
   <v>       0.00000000       0.00000000       0.00000000 </v>
  </varray>
  <varray name="stress" >
   <v>      66.47889954       0.00000000      -0.00000000 </v>
   <v>       0.00000000      66.47889954       0.00000000 </v>
   <v>      -0.00000000       0.00000000      66.47889954 </v>
  </varray>
  <energy>
   <i name="e_fr_energy">    -22.18375029 </i>
   <i name="e_wo_entrp">    -22.18708729 </i>
   <i name="e_0_energy">    -22.18486262 </i>
  </energy>
  <time name="totalsc">   70.13   72.13</time>
  <eigenvalues>
   <array>
    <dimension dim="1">band</dimension>
    <dimension dim="2">kpoint</dimension>
    <dimension dim="3">spin</dimension>
    <field>eigene</field>
    <field>occ</field>
    <set>
     <set comment="spin 1">
      <set comment="kpoint 1">
       <r>   -3.6602    1.0000 </r>
       <r>    2.0079    1.0000 </r>
       <r>    2.6879    1.0000 </r>
       <r>    2.6879    1.0000 </r>
       <r>    3.0431    1.0000 </r>
       <r>    3.0431    1.0000 </r>
       <r>    3.0431    1.0000 </r>
       <r>    5.0249    1.0000 </r>
       <r>    5.0249    1.0000 </r>
       <r>    5.0249    1.0000 </r>
       <r>    5.8735    1.0002 </r>
       <r>    5.8735    1.0002 </r>
       <r>    6.1806    1.0335 </r>
       <r>    6.3644    0.8283 </r>
       <r>    6.3644    0.8283 </r>
       <r>    6.3644    0.8283 </r>
       <r>    7.3429   -0.0000 </r>
       <r>    7.3429   -0.0000 </r>
       <r>    7.3429   -0.0000 </r>
       <r>   13.1522    0.0000 </r>
       <r>   13.1522    0.0000 </r>
       <r>   13.9718    0.0000 </r>
       <r>   18.9559    0.0000 </r>
       <r>   18.9559    0.0000 </r>
      </set>
      <set comment="kpoint 2">
       <r>   -3.6218    1.0000 </r>
       <r>    2.0211    1.0000 </r>
       <r>    2.6660    1.0000 </r>
       <r>    2.7124    1.0000 </r>
       <r>    3.0496    1.0000 </r>
       <r>    3.0496    1.0000 </r>
       <r>    3.0522    1.0000 </r>
       <r>    5.0033    1.0000 </r>
       <r>    5.0033    1.0000 </r>
       <r>    5.0149    1.0000 </r>
       <r>    5.8516    1.0001 </r>
       <r>    5.8741    1.0002 </r>
       <r>    6.1664    1.0311 </r>
       <r>    6.2580    1.0206 </r>
       <r>    6.2580    1.0206 </r>
       <r>    6.3644    0.8282 </r>
       <r>    7.1730   -0.0000 </r>
       <r>    7.4986   -0.0000 </r>
       <r>    7.4986   -0.0000 </r>
       <r>   13.1484    0.0000 </r>
       <r>   13.3037    0.0000 </r>
       <r>   14.0864    0.0000 </r>
       <r>   18.7805    0.0000 </r>
       <r>   18.7991    0.0000 </r>
      </set>
      <set comment="kpoint 3">
       <r>   -3.5069    1.0000 </r>
       <r>    2.0536    1.0000 </r>
       <r>    2.5993    1.0000 </r>
       <r>    2.7848    1.0000 </r>
       <r>    3.0692    1.0000 </r>
       <r>    3.0692    1.0000 </r>
       <r>    3.0790    1.0000 </r>
       <r>    4.9408    1.0000 </r>
       <r>    4.9408    1.0000 </r>
       <r>    4.9857    1.0000 </r>
       <r>    5.7823    1.0000 </r>
       <r>    5.8752    1.0002 </r>
       <r>    6.0469    1.0076 </r>
       <r>    6.0469    1.0076 </r>
       <r>    6.1245    1.0218 </r>
       <r>    6.3646    0.8279 </r>
       <r>    6.7552   -0.0265 </r>
       <r>    7.8563   -0.0000 </r>
       <r>    7.8563   -0.0000 </r>
       <r>   13.1372    0.0000 </r>
       <r>   13.5409    0.0000 </r>
       <r>   14.5626    0.0000 </r>
       <r>   18.1611    0.0000 </r>
       <r>   18.1611    0.0000 </r>
      </set>
      <set comment="kpoint 4">
       <r>   -3.3167    1.0000 </r>
       <r>    2.0670    1.0000 </r>
       <r>    2.5027    1.0000 </r>
       <r>    2.9013    1.0000 </r>
       <r>    3.1006    1.0000 </r>
       <r>    3.1006    1.0000 </r>
       <r>    3.1218    1.0000 </r>
       <r>    4.8446    1.0000 </r>
       <r>    4.8446    1.0000 </r>
       <r>    4.9391    1.0000 </r>
       <r>    5.6481    1.0000 </r>
       <r>    5.8328    1.0001 </r>
       <r>    5.8328    1.0001 </r>
       <r>    5.8741    1.0002 </r>
       <r>    6.0576    1.0090 </r>
       <r>    6.2755    1.0064 </r>
       <r>    6.3647    0.8274 </r>
       <r>    8.3114   -0.0000 </r>
       <r>    8.3114   -0.0000 </r>
       <r>   13.1188    0.0000 </r>
       <r>   13.6830    0.0000 </r>
       <r>   15.4127    0.0000 </r>
       <r>   17.2847    0.0000 </r>
       <r>   17.2847    0.0000 </r>
      </set>
      <set comment="kpoint 5">
       <r>   -3.0533    1.0000 </r>
       <r>    1.9376    1.0000 </r>
       <r>    2.4669    1.0000 </r>
       <r>    3.0554    1.0000 </r>
       <r>    3.1421    1.0000 </r>
       <r>    3.1421    1.0000 </r>
       <r>    3.1775    1.0000 </r>
       <r>    4.7269    1.0000 </r>
       <r>    4.7269    1.0000 </r>
       <r>    4.8788    1.0000 </r>
       <r>    5.4135    1.0000 </r>
       <r>    5.6446    1.0000 </r>
       <r>    5.6446    1.0000 </r>
       <r>    5.8582    1.0001 </r>
       <r>    5.9075    1.0004 </r>
       <r>    5.9796    1.0022 </r>
       <r>    6.3649    0.8268 </r>
       <r>    8.8290   -0.0000 </r>
       <r>    8.8290   -0.0000 </r>
       <r>   13.0941    0.0000 </r>
       <r>   13.7954    0.0000 </r>
       <r>   16.3318    0.0000 </r>
       <r>   16.3569    0.0000 </r>
       <r>   16.3569    0.0000 </r>
      </set>
      <set comment="kpoint 6">
       <r>   -2.7202    1.0000 </r>
       <r>    1.5951    1.0000 </r>
       <r>    2.5385    1.0000 </r>
       <r>    3.1905    1.0000 </r>
       <r>    3.1905    1.0000 </r>
       <r>    3.2369    1.0000 </r>
       <r>    3.2416    1.0000 </r>
       <r>    4.6026    1.0000 </r>
       <r>    4.6026    1.0000 </r>
       <r>    4.8098    1.0000 </r>
       <r>    5.1300    1.0000 </r>
       <r>    5.4877    1.0000 </r>
       <r>    5.4877    1.0000 </r>
       <r>    5.6826    1.0000 </r>
       <r>    5.7849    1.0000 </r>
       <r>    5.9359    1.0008 </r>
       <r>    6.3651    0.8262 </r>
       <r>    9.3973   -0.0000 </r>
       <r>    9.3973   -0.0000 </r>
       <r>   13.0648    0.0000 </r>
       <r>   13.9173    0.0000 </r>
       <r>   15.4393    0.0000 </r>
       <r>   15.4393    0.0000 </r>
       <r>   16.5595    0.0000 </r>
      </set>
      <set comment="kpoint 7">
       <r>   -2.3230    1.0000 </r>
       <r>    1.1106    1.0000 </r>
       <r>    2.6495    1.0000 </r>
       <r>    3.2412    1.0000 </r>
       <r>    3.2412    1.0000 </r>
       <r>    3.3075    1.0000 </r>
       <r>    3.4303    1.0000 </r>
       <r>    4.4865    1.0000 </r>
       <r>    4.4865    1.0000 </r>
       <r>    4.7393    1.0000 </r>
       <r>    4.9106    1.0000 </r>
       <r>    5.3623    1.0000 </r>
       <r>    5.3623    1.0000 </r>
       <r>    5.5173    1.0000 </r>
       <r>    5.6598    1.0000 </r>
       <r>    5.9285    1.0007 </r>
       <r>    6.3653    0.8256 </r>
       <r>   10.0109   -0.0000 </r>
       <r>   10.0109   -0.0000 </r>
       <r>   13.0339    0.0000 </r>
       <r>   14.0610    0.0000 </r>
       <r>   14.5504    0.0000 </r>
       <r>   14.5504    0.0000 </r>
       <r>   16.2021    0.0000 </r>
      </set>
      <set comment="kpoint 8">
       <r>   -1.8725    1.0000 </r>
       <r>    0.5550    1.0000 </r>
       <r>    2.7574    1.0000 </r>
       <r>    3.2875    1.0000 </r>
       <r>    3.2875    1.0000 </r>
       <r>    3.3665    1.0000 </r>
       <r>    3.6128    1.0000 </r>
       <r>    4.3914    1.0000 </r>
       <r>    4.3914    1.0000 </r>
       <r>    4.6765    1.0000 </r>
       <r>    4.7790    1.0000 </r>
       <r>    5.2697    1.0000 </r>
       <r>    5.2697    1.0000 </r>
       <r>    5.3833    1.0000 </r>
       <r>    5.5265    1.0000 </r>
       <r>    5.9293    1.0007 </r>
       <r>    6.3654    0.8251 </r>
       <r>   10.6672   -0.0000 </r>
       <r>   10.6672   -0.0000 </r>
       <r>   13.0061    0.0000 </r>
       <r>   13.6966    0.0000 </r>
       <r>   13.6966    0.0000 </r>
       <r>   14.2265    0.0000 </r>
       <r>   15.8021    0.0000 </r>
      </set>
      <set comment="kpoint 9">
       <r>   -1.3999    1.0000 </r>
       <r>    0.0024    1.0000 </r>
       <r>    2.8353    1.0000 </r>
       <r>    3.3210    1.0000 </r>
       <r>    3.3210    1.0000 </r>
       <r>    3.4082    1.0000 </r>
       <r>    3.7503    1.0000 </r>
       <r>    4.3284    1.0000 </r>
       <r>    4.3284    1.0000 </r>
       <r>    4.6322    1.0000 </r>
       <r>    4.7152    1.0000 </r>
       <r>    5.2125    1.0000 </r>
       <r>    5.2125    1.0000 </r>
       <r>    5.2900    1.0000 </r>
       <r>    5.4200    1.0000 </r>
       <r>    5.9311    1.0007 </r>
       <r>    6.3655    0.8248 </r>
       <r>   11.3645   -0.0000 </r>
       <r>   11.3645   -0.0000 </r>
       <r>   12.8807    0.0000 </r>
       <r>   12.8807    0.0000 </r>
       <r>   12.9865    0.0000 </r>
       <r>   14.3923    0.0000 </r>
       <r>   15.4797    0.0000 </r>
      </set>
      <set comment="kpoint 10">
       <r>   -1.0995    1.0000 </r>
       <r>   -0.3275    1.0000 </r>
       <r>    2.8638    1.0000 </r>
       <r>    3.3333    1.0000 </r>
       <r>    3.3333    1.0000 </r>
       <r>    3.4235    1.0000 </r>
       <r>    3.8030    1.0000 </r>
       <r>    4.3062    1.0000 </r>
       <r>    4.3062    1.0000 </r>
       <r>    4.6161    1.0000 </r>
       <r>    4.6972    1.0000 </r>
       <r>    5.1931    1.0000 </r>
       <r>    5.1931    1.0000 </r>
       <r>    5.2557    1.0000 </r>
       <r>    5.3781    1.0000 </r>
       <r>    5.9319    1.0008 </r>
       <r>    6.3656    0.8247 </r>
       <r>   12.0738    0.0000 </r>
       <r>   12.0738    0.0000 </r>
       <r>   12.1318    0.0000 </r>
       <r>   12.1318    0.0000 </r>
       <r>   12.9794    0.0000 </r>
       <r>   14.4766    0.0000 </r>
       <r>   15.3412    0.0000 </r>
      </set>
      <set comment="kpoint 11">
       <r>   -3.5834    1.0000 </r>
       <r>    2.0346    1.0000 </r>
       <r>    2.6675    1.0000 </r>
       <r>    2.7136    1.0000 </r>
       <r>    3.0459    1.0000 </r>
       <r>    3.0559    1.0000 </r>
       <r>    3.0718    1.0000 </r>
       <r>    4.9513    1.0000 </r>
       <r>    4.9824    1.0000 </r>
       <r>    5.0364    1.0000 </r>
       <r>    5.8400    1.0001 </r>
       <r>    5.8636    1.0001 </r>
       <r>    6.1318    1.0235 </r>
       <r>    6.1674    1.0313 </r>
       <r>    6.1887    1.0345 </r>
       <r>    6.3474    0.8774 </r>
       <r>    7.2518   -0.0000 </r>
       <r>    7.4056   -0.0000 </r>
       <r>    7.6327   -0.0000 </r>
       <r>   13.2171    0.0000 </r>
       <r>   13.4077    0.0000 </r>
       <r>   14.1807    0.0000 </r>
       <r>   18.3140    0.0000 </r>
       <r>   18.6914    0.0000 </r>
      </set>
      <set comment="kpoint 12">
       <r>   -3.4687    1.0000 </r>
       <r>    2.0682    1.0000 </r>
       <r>    2.6098    1.0000 </r>
       <r>    2.7764    1.0000 </r>
       <r>    3.0563    1.0000 </r>
       <r>    3.0744    1.0000 </r>
       <r>    3.1080    1.0000 </r>
       <r>    4.8659    1.0000 </r>
       <r>    4.9223    1.0000 </r>
       <r>    5.0337    1.0000 </r>
       <r>    5.7658    1.0000 </r>
       <r>    5.8592    1.0001 </r>
       <r>    5.9288    1.0007 </r>
       <r>    6.0116    1.0041 </r>
       <r>    6.1158    1.0198 </r>
       <r>    6.3382    0.9010 </r>
       <r>    6.8946   -0.0037 </r>
       <r>    7.7017   -0.0000 </r>
       <r>    7.9615   -0.0000 </r>
       <r>   13.2322    0.0000 </r>
       <r>   13.6790    0.0000 </r>
       <r>   14.6076    0.0000 </r>
       <r>   17.5596    0.0000 </r>
       <r>   18.1861    0.0000 </r>
      </set>
      <set comment="kpoint 13">
       <r>   -3.2789    1.0000 </r>
       <r>    2.0847    1.0000 </r>
       <r>    2.5131    1.0000 </r>
       <r>    2.8904    1.0000 </r>
       <r>    3.0811    1.0000 </r>
       <r>    3.1047    1.0000 </r>
       <r>    3.1581    1.0000 </r>
       <r>    4.7587    1.0000 </r>
       <r>    4.8306    1.0000 </r>
       <r>    5.0040    1.0000 </r>
       <r>    5.5811    1.0000 </r>
       <r>    5.7471    1.0000 </r>
       <r>    5.8124    1.0000 </r>
       <r>    5.8625    1.0001 </r>
       <r>    6.0482    1.0078 </r>
       <r>    6.3360    0.9064 </r>
       <r>    6.4305    0.5825 </r>
       <r>    8.1364   -0.0000 </r>
       <r>    8.3972   -0.0000 </r>
       <r>   13.2224    0.0000 </r>
       <r>   13.8456    0.0000 </r>
       <r>   15.4386    0.0000 </r>
       <r>   16.7022    0.0000 </r>
       <r>   17.3253    0.0000 </r>
      </set>
      <set comment="kpoint 14">
       <r>   -3.0160    1.0000 </r>
       <r>    1.9598    1.0000 </r>
       <r>    2.4755    1.0000 </r>
       <r>    3.0394    1.0000 </r>
       <r>    3.1182    1.0000 </r>
       <r>    3.1477    1.0000 </r>
       <r>    3.2186    1.0000 </r>
       <r>    4.6404    1.0000 </r>
       <r>    4.7185    1.0000 </r>
       <r>    4.9505    1.0000 </r>
       <r>    5.3157    1.0000 </r>
       <r>    5.6012    1.0000 </r>
       <r>    5.6300    1.0000 </r>
       <r>    5.8476    1.0001 </r>
       <r>    5.9640    1.0016 </r>
       <r>    6.0564    1.0088 </r>
       <r>    6.3355    0.9075 </r>
       <r>    8.6292   -0.0000 </r>
       <r>    8.9022   -0.0000 </r>
       <r>   13.2009    0.0000 </r>
       <r>   13.9701    0.0000 </r>
       <r>   15.7991    0.0000 </r>
       <r>   16.3975    0.0000 </r>
       <r>   16.4292    0.0000 </r>
      </set>
      <set comment="kpoint 15">
       <r>   -2.6836    1.0000 </r>
       <r>    1.6197    1.0000 </r>
       <r>    2.5477    1.0000 </r>
       <r>    3.1651    1.0000 </r>
       <r>    3.1673    1.0000 </r>
       <r>    3.2457    1.0000 </r>
       <r>    3.2843    1.0000 </r>
       <r>    4.5247    1.0000 </r>
       <r>    4.5970    1.0000 </r>
       <r>    4.8770    1.0000 </r>
       <r>    5.0602    1.0000 </r>
       <r>    5.4515    1.0000 </r>
       <r>    5.4769    1.0000 </r>
       <r>    5.7555    1.0000 </r>
       <r>    5.8140    1.0000 </r>
       <r>    5.9253    1.0007 </r>
       <r>    6.3356    0.9073 </r>
       <r>    9.1661   -0.0000 </r>
       <r>    9.4617   -0.0000 </r>
       <r>   13.1625    0.0000 </r>
       <r>   14.1025    0.0000 </r>
       <r>   14.9767    0.0000 </r>
       <r>   15.4798    0.0000 </r>
       <r>   16.7999    0.0000 </r>
      </set>
      <set comment="kpoint 16">
       <r>   -2.2873    1.0000 </r>
       <r>    1.1376    1.0000 </r>
       <r>    2.6601    1.0000 </r>
       <r>    3.2179    1.0000 </r>
       <r>    3.2221    1.0000 </r>
       <r>    3.3468    1.0000 </r>
       <r>    3.4304    1.0000 </r>
       <r>    4.4254    1.0000 </r>
       <r>    4.4758    1.0000 </r>
       <r>    4.7901    1.0000 </r>
       <r>    4.8785    1.0000 </r>
       <r>    5.3138    1.0000 </r>
       <r>    5.3576    1.0000 </r>
       <r>    5.5927    1.0000 </r>
       <r>    5.6742    1.0000 </r>
       <r>    5.9162    1.0005 </r>
       <r>    6.3359    0.9067 </r>
       <r>    9.7403   -0.0000 </r>
       <r>   10.0689   -0.0000 </r>
       <r>   13.0805    0.0000 </r>
       <r>   14.1832    0.0000 </r>
       <r>   14.2954    0.0000 </r>
       <r>   14.5915    0.0000 </r>
       <r>   16.4691    0.0000 </r>
      </set>
      <set comment="kpoint 17">
       <r>   -1.8381    1.0000 </r>
       <r>    0.5844    1.0000 </r>
       <r>    2.7702    1.0000 </r>
       <r>    3.2630    1.0000 </r>
       <r>    3.2706    1.0000 </r>
       <r>    3.3956    1.0000 </r>
       <r>    3.6143    1.0000 </r>
       <r>    4.3546    1.0000 </r>
       <r>    4.3694    1.0000 </r>
       <r>    4.7019    1.0000 </r>
       <r>    4.7798    1.0000 </r>
       <r>    5.2020    1.0000 </r>
       <r>    5.2731    1.0000 </r>
       <r>    5.4622    1.0000 </r>
       <r>    5.5395    1.0000 </r>
       <r>    5.9172    1.0005 </r>
       <r>    6.3361    0.9061 </r>
       <r>   10.3467   -0.0000 </r>
       <r>   10.7202   -0.0000 </r>
       <r>   12.8415    0.0000 </r>
       <r>   13.6527    0.0000 </r>
       <r>   13.7390    0.0000 </r>
       <r>   14.4490    0.0000 </r>
       <r>   16.0583    0.0000 </r>
      </set>
      <set comment="kpoint 18">
       <r>   -1.3672    1.0000 </r>
       <r>    0.0344    1.0000 </r>
       <r>    2.8507    1.0000 </r>
       <r>    3.2898    1.0000 </r>
       <r>    3.3134    1.0000 </r>
       <r>    3.4227    1.0000 </r>
       <r>    3.7571    1.0000 </r>
       <r>    4.2944    1.0000 </r>
       <r>    4.3176    1.0000 </r>
       <r>    4.6316    1.0000 </r>
       <r>    4.7383    1.0000 </r>
       <r>    5.1263    1.0000 </r>
       <r>    5.2229    1.0000 </r>
       <r>    5.3813    1.0000 </r>
       <r>    5.4292    1.0000 </r>
       <r>    5.9192    1.0006 </r>
       <r>    6.3363    0.9057 </r>
       <r>   10.9773   -0.0000 </r>
       <r>   11.4133   -0.0000 </r>
       <r>   12.3171    0.0000 </r>
       <r>   12.9252    0.0000 </r>
       <r>   13.4320    0.0000 </r>
       <r>   14.6335    0.0000 </r>
       <r>   15.7179    0.0000 </r>
      </set>
      <set comment="kpoint 19">
       <r>   -1.0688    1.0000 </r>
       <r>   -0.2931    1.0000 </r>
       <r>    2.8804    1.0000 </r>
       <r>    3.2991    1.0000 </r>
       <r>    3.3312    1.0000 </r>
       <r>    3.4298    1.0000 </r>
       <r>    3.8138    1.0000 </r>
       <r>    4.2660    1.0000 </r>
       <r>    4.3077    1.0000 </r>
       <r>    4.6037    1.0000 </r>
       <r>    4.7280    1.0000 </r>
       <r>    5.0989    1.0000 </r>
       <r>    5.2063    1.0000 </r>
       <r>    5.3590    1.0000 </r>
       <r>    5.3799    1.0000 </r>
       <r>    5.9201    1.0006 </r>
       <r>    6.3363    0.9055 </r>
       <r>   11.5102   -0.0000 </r>
       <r>   11.7908   -0.0000 </r>
       <r>   12.1079    0.0000 </r>
       <r>   12.1904    0.0000 </r>
       <r>   13.3870    0.0000 </r>
       <r>   14.7305    0.0000 </r>
       <r>   15.5671    0.0000 </r>
      </set>
      <set comment="kpoint 20">
       <r>   -3.3547    1.0000 </r>
       <r>    2.1062    1.0000 </r>
       <r>    2.6036    1.0000 </r>
       <r>    2.7850    1.0000 </r>
       <r>    3.0555    1.0000 </r>
       <r>    3.0903    1.0000 </r>
       <r>    3.1566    1.0000 </r>
       <r>    4.7522    1.0000 </r>
       <r>    4.8702    1.0000 </r>
       <r>    5.0701    1.0000 </r>
       <r>    5.6152    1.0000 </r>
       <r>    5.7993    1.0000 </r>
       <r>    5.8346    1.0001 </r>
       <r>    5.9037    1.0004 </r>
       <r>    6.0774    1.0121 </r>
       <r>    6.2968    0.9810 </r>
       <r>    7.0360   -0.0001 </r>
       <r>    7.4762   -0.0000 </r>
       <r>    8.2406   -0.0000 </r>
       <r>   13.3047    0.0000 </r>
       <r>   14.1165    0.0000 </r>
       <r>   14.8357    0.0000 </r>
       <r>   16.6868    0.0000 </r>
       <r>   18.1454    0.0000 </r>
      </set>
      <set comment="kpoint 21">
       <r>   -3.1659    1.0000 </r>
       <r>    2.1341    1.0000 </r>
       <r>    2.5269    1.0000 </r>
       <r>    2.8684    1.0000 </r>
       <r>    3.0700    1.0000 </r>
       <r>    3.1178    1.0000 </r>
       <r>    3.2185    1.0000 </r>
       <r>    4.6254    1.0000 </r>
       <r>    4.7929    1.0000 </r>
       <r>    5.0767    1.0000 </r>
       <r>    5.3553    1.0000 </r>
       <r>    5.7062    1.0000 </r>
       <r>    5.7472    1.0000 </r>
       <r>    5.8259    1.0000 </r>
       <r>    6.0118    1.0041 </r>
       <r>    6.2728    1.0090 </r>
       <r>    6.6909   -0.0354 </r>
       <r>    7.7436   -0.0000 </r>
       <r>    8.6355   -0.0000 </r>
       <r>   13.3132    0.0000 </r>
       <r>   14.4237    0.0000 </r>
       <r>   15.5303    0.0000 </r>
       <r>   15.8035    0.0000 </r>
       <r>   17.4439    0.0000 </r>
      </set>
      <set comment="kpoint 22">
       <r>   -2.9046    1.0000 </r>
       <r>    2.0245    1.0000 </r>
       <r>    2.4889    1.0000 </r>
       <r>    2.9978    1.0000 </r>
       <r>    3.0987    1.0000 </r>
       <r>    3.1631    1.0000 </r>
       <r>    3.2893    1.0000 </r>
       <r>    4.4984    1.0000 </r>
       <r>    4.6980    1.0000 </r>
       <r>    5.0499    1.0000 </r>
       <r>    5.0989    1.0000 </r>
       <r>    5.5808    1.0000 </r>
       <r>    5.5832    1.0000 </r>
       <r>    5.8145    1.0000 </r>
       <r>    5.9282    1.0007 </r>
       <r>    6.2618    1.0180 </r>
       <r>    6.2990    0.9778 </r>
       <r>    8.1681   -0.0000 </r>
       <r>    9.1106   -0.0000 </r>
       <r>   13.2760    0.0000 </r>
       <r>   14.5700    0.0000 </r>
       <r>   14.9855    0.0000 </r>
       <r>   16.4963    0.0000 </r>
       <r>   16.5174    0.0000 </r>
      </set>
      <set comment="kpoint 23">
       <r>   -2.5743    1.0000 </r>
       <r>    1.6919    1.0000 </r>
       <r>    2.5656    1.0000 </r>
       <r>    3.1115    1.0000 </r>
       <r>    3.1397    1.0000 </r>
       <r>    3.2611    1.0000 </r>
       <r>    3.3612    1.0000 </r>
       <r>    4.3860    1.0000 </r>
       <r>    4.5803    1.0000 </r>
       <r>    4.9021    1.0000 </r>
       <r>    4.9842    1.0000 </r>
       <r>    5.4309    1.0000 </r>
       <r>    5.4429    1.0000 </r>
       <r>    5.7430    1.0000 </r>
       <r>    5.8759    1.0002 </r>
       <r>    6.0108    1.0040 </r>
       <r>    6.2569    1.0213 </r>
       <r>    8.6390   -0.0000 </r>
       <r>    9.6476   -0.0000 </r>
       <r>   13.1279    0.0000 </r>
       <r>   14.2578    0.0000 </r>
       <r>   14.7801    0.0000 </r>
       <r>   15.5991    0.0000 </r>
       <r>   17.0491    0.0000 </r>
      </set>
      <set comment="kpoint 24">
       <r>   -2.1808    1.0000 </r>
       <r>    1.2170    1.0000 </r>
       <r>    2.6837    1.0000 </r>
       <r>    3.1671    1.0000 </r>
       <r>    3.1905    1.0000 </r>
       <r>    3.4218    1.0000 </r>
       <r>    3.4313    1.0000 </r>
       <r>    4.3053    1.0000 </r>
       <r>    4.4391    1.0000 </r>
       <r>    4.8039    1.0000 </r>
       <r>    4.8785    1.0000 </r>
       <r>    5.2762    1.0000 </r>
       <r>    5.3435    1.0000 </r>
       <r>    5.6138    1.0000 </r>
       <r>    5.7950    1.0000 </r>
       <r>    5.8829    1.0002 </r>
       <r>    6.2547    1.0226 </r>
       <r>    9.1425   -0.0000 </r>
       <r>   10.2375   -0.0000 </r>
       <r>   12.7275    0.0000 </r>
       <r>   13.8996    0.0000 </r>
       <r>   14.7128    0.0000 </r>
       <r>   14.9484    0.0000 </r>
       <r>   16.8140    0.0000 </r>
      </set>
      <set comment="kpoint 25">
       <r>   -1.7353    1.0000 </r>
       <r>    0.6716    1.0000 </r>
       <r>    2.8018    1.0000 </r>
       <r>    3.1939    1.0000 </r>
       <r>    3.2466    1.0000 </r>
       <r>    3.4555    1.0000 </r>
       <r>    3.6163    1.0000 </r>
       <r>    4.2728    1.0000 </r>
       <r>    4.3097    1.0000 </r>
       <r>    4.7497    1.0000 </r>
       <r>    4.7776    1.0000 </r>
       <r>    5.1382    1.0000 </r>
       <r>    5.2830    1.0000 </r>
       <r>    5.4922    1.0000 </r>
       <r>    5.6444    1.0000 </r>
       <r>    5.8815    1.0002 </r>
       <r>    6.2537    1.0231 </r>
       <r>    9.6737   -0.0000 </r>
       <r>   10.8749   -0.0000 </r>
       <r>   12.1305    0.0000 </r>
       <r>   13.7840    0.0000 </r>
       <r>   13.8646    0.0000 </r>
       <r>   15.1516    0.0000 </r>
       <r>   16.4411    0.0000 </r>
      </set>
      <set comment="kpoint 26">
       <r>   -1.2698    1.0000 </r>
       <r>    0.1296    1.0000 </r>
       <r>    2.8929    1.0000 </r>
       <r>    3.2016    1.0000 </r>
       <r>    3.2991    1.0000 </r>
       <r>    3.4570    1.0000 </r>
       <r>    3.7715    1.0000 </r>
       <r>    4.2145    1.0000 </r>
       <r>    4.2892    1.0000 </r>
       <r>    4.6293    1.0000 </r>
       <r>    4.7847    1.0000 </r>
       <r>    5.0368    1.0000 </r>
       <r>    5.2510    1.0000 </r>
       <r>    5.4108    1.0000 </r>
       <r>    5.5330    1.0000 </r>
       <r>    5.8840    1.0002 </r>
       <r>    6.2534    1.0234 </r>
       <r>   10.2260   -0.0000 </r>
       <r>   11.5023   -0.0000 </r>
       <r>   11.5559   -0.0000 </r>
       <r>   13.0575    0.0000 </r>
       <r>   13.7546    0.0000 </r>
       <r>   15.3694    0.0000 </r>
       <r>   16.1112    0.0000 </r>
      </set>
      <set comment="kpoint 27">
       <r>   -0.9776    1.0000 </r>
       <r>   -0.1908    1.0000 </r>
       <r>    2.9289    1.0000 </r>
       <r>    3.2007    1.0000 </r>
       <r>    3.3248    1.0000 </r>
       <r>    3.4484    1.0000 </r>
       <r>    3.8398    1.0000 </r>
       <r>    4.1730    1.0000 </r>
       <r>    4.3122    1.0000 </r>
       <r>    4.5716    1.0000 </r>
       <r>    4.7932    1.0000 </r>
       <r>    4.9972    1.0000 </r>
       <r>    5.2409    1.0000 </r>
       <r>    5.3837    1.0000 </r>
       <r>    5.4889    1.0000 </r>
       <r>    5.8851    1.0002 </r>
       <r>    6.2533    1.0234 </r>
       <r>   10.6647   -0.0000 </r>
       <r>   11.0345   -0.0000 </r>
       <r>   12.2101    0.0000 </r>
       <r>   12.3614    0.0000 </r>
       <r>   13.7494    0.0000 </r>
       <r>   15.5066    0.0000 </r>
       <r>   15.9369    0.0000 </r>
      </set>
      <set comment="kpoint 28">
       <r>   -2.9790    1.0000 </r>
       <r>    2.1923    1.0000 </r>
       <r>    2.4893    1.0000 </r>
       <r>    2.8818    1.0000 </r>
       <r>    3.0748    1.0000 </r>
       <r>    3.1430    1.0000 </r>
       <r>    3.2929    1.0000 </r>
       <r>    4.4843    1.0000 </r>
       <r>    4.7417    1.0000 </r>
       <r>    5.0942    1.0000 </r>
       <r>    5.1230    1.0000 </r>
       <r>    5.6358    1.0000 </r>
       <r>    5.6616    1.0000 </r>
       <r>    5.7881    1.0000 </r>
       <r>    5.9491    1.0011 </r>
       <r>    6.2138    1.0352 </r>
       <r>    6.7902   -0.0185 </r>
       <r>    7.4875   -0.0000 </r>
       <r>    8.9894   -0.0000 </r>
       <r>   13.2984    0.0000 </r>
       <r>   14.9344    0.0000 </r>
       <r>   15.1589    0.0000 </r>
       <r>   15.8212    0.0000 </r>
       <r>   17.5697    0.0000 </r>
      </set>
      <set comment="kpoint 29">
       <r>   -2.7204    1.0000 </r>
       <r>    2.1257    1.0000 </r>
       <r>    2.4568    1.0000 </r>
       <r>    2.9590    1.0000 </r>
       <r>    3.0949    1.0000 </r>
       <r>    3.1897    1.0000 </r>
       <r>    3.3758    1.0000 </r>
       <r>    4.3495    1.0000 </r>
       <r>    4.6775    1.0000 </r>
       <r>    4.8587    1.0000 </r>
       <r>    5.1332    1.0000 </r>
       <r>    5.4984    1.0000 </r>
       <r>    5.5647    1.0000 </r>
       <r>    5.7673    1.0000 </r>
       <r>    5.8662    1.0001 </r>
       <r>    6.1748    1.0326 </r>
       <r>    6.5173    0.2326 </r>
       <r>    7.6891   -0.0000 </r>
       <r>    9.4295   -0.0000 </r>
       <r>   13.1154    0.0000 </r>
       <r>   14.2631    0.0000 </r>
       <r>   15.5202    0.0000 </r>
       <r>   16.6058    0.0000 </r>
       <r>   16.7100    0.0000 </r>
      </set>
      <set comment="kpoint 30">
       <r>   -2.3937    1.0000 </r>
       <r>    1.8065    1.0000 </r>
       <r>    2.5507    1.0000 </r>
       <r>    3.0469    1.0000 </r>
       <r>    3.1291    1.0000 </r>
       <r>    3.2827    1.0000 </r>
       <r>    3.4567    1.0000 </r>
       <r>    4.2375    1.0000 </r>
       <r>    4.5379    1.0000 </r>
       <r>    4.7480    1.0000 </r>
       <r>    5.0830    1.0000 </r>
       <r>    5.3812    1.0000 </r>
       <r>    5.4271    1.0000 </r>
       <r>    5.7051    1.0000 </r>
       <r>    5.8138    1.0000 </r>
       <r>    6.1523    1.0281 </r>
       <r>    6.2068    1.0354 </r>
       <r>    8.0612   -0.0000 </r>
       <r>    9.9379   -0.0000 </r>
       <r>   12.6154    0.0000 </r>
       <r>   13.9669    0.0000 </r>
       <r>   15.7185    0.0000 </r>
       <r>   15.7902    0.0000 </r>
       <r>   17.2320    0.0000 </r>
      </set>
      <set comment="kpoint 31">
       <r>   -2.0050    1.0000 </r>
       <r>    1.3443    1.0000 </r>
       <r>    2.6820    1.0000 </r>
       <r>    3.0974    1.0000 </r>
       <r>    3.1754    1.0000 </r>
       <r>    3.4353    1.0000 </r>
       <r>    3.5154    1.0000 </r>
       <r>    4.1724    1.0000 </r>
       <r>    4.3650    1.0000 </r>
       <r>    4.7427    1.0000 </r>
       <r>    4.9549    1.0000 </r>
       <r>    5.2705    1.0000 </r>
       <r>    5.3223    1.0000 </r>
       <r>    5.5870    1.0000 </r>
       <r>    5.8096    1.0000 </r>
       <r>    5.9692    1.0018 </r>
       <r>    6.1398    1.0253 </r>
       <r>    8.4867   -0.0000 </r>
       <r>   10.5040   -0.0000 </r>
       <r>   11.9414    0.0000 </r>
       <r>   13.9131    0.0000 </r>
       <r>   14.9081    0.0000 </r>
       <r>   15.9019    0.0000 </r>
       <r>   17.1090    0.0000 </r>
      </set>
      <set comment="kpoint 32">
       <r>   -1.5659    1.0000 </r>
       <r>    0.8126    1.0000 </r>
       <r>    2.8137    1.0000 </r>
       <r>    3.1100    1.0000 </r>
       <r>    3.2304    1.0000 </r>
       <r>    3.5285    1.0000 </r>
       <r>    3.6147    1.0000 </r>
       <r>    4.1797    1.0000 </r>
       <r>    4.2265    1.0000 </r>
       <r>    4.7735    1.0000 </r>
       <r>    4.7880    1.0000 </r>
       <r>    5.1180    1.0000 </r>
       <r>    5.2994    1.0000 </r>
       <r>    5.4765    1.0000 </r>
       <r>    5.7752    1.0000 </r>
       <r>    5.8308    1.0001 </r>
       <r>    6.1330    1.0237 </r>
       <r>    8.9484   -0.0000 </r>
       <r>   11.1210   -0.0000 </r>
       <r>   11.2609   -0.0000 </r>
       <r>   13.9316    0.0000 </r>
       <r>   14.0678    0.0000 </r>
       <r>   16.0696    0.0000 </r>
       <r>   16.8267    0.0000 </r>
      </set>
      <set comment="kpoint 33">
       <r>   -1.1096    1.0000 </r>
       <r>    0.2847    1.0000 </r>
       <r>    2.9298    1.0000 </r>
       <r>    3.0875    1.0000 </r>
       <r>    3.2856    1.0000 </r>
       <r>    3.5010    1.0000 </r>
       <r>    3.7811    1.0000 </r>
       <r>    4.1209    1.0000 </r>
       <r>    4.2534    1.0000 </r>
       <r>    4.6241    1.0000 </r>
       <r>    4.8202    1.0000 </r>
       <r>    4.9914    1.0000 </r>
       <r>    5.2894    1.0000 </r>
       <r>    5.4057    1.0000 </r>
       <r>    5.6602    1.0000 </r>
       <r>    5.8269    1.0000 </r>
       <r>    6.1297    1.0230 </r>
       <r>    9.4413   -0.0000 </r>
       <r>   10.6274   -0.0000 </r>
       <r>   11.7826   -0.0000 </r>
       <r>   13.2732    0.0000 </r>
       <r>   13.9614    0.0000 </r>
       <r>   16.1838    0.0000 </r>
       <r>   16.6370    0.0000 </r>
      </set>
      <set comment="kpoint 34">
       <r>   -0.8275    1.0000 </r>
       <r>   -0.0239    1.0000 </r>
       <r>    3.0045    1.0000 </r>
       <r>    3.0452    1.0000 </r>
       <r>    3.3145    1.0000 </r>
       <r>    3.4781    1.0000 </r>
       <r>    3.8691    1.0000 </r>
       <r>    4.0616    1.0000 </r>
       <r>    4.3196    1.0000 </r>
       <r>    4.5302    1.0000 </r>
       <r>    4.8606    1.0000 </r>
       <r>    4.9221    1.0000 </r>
       <r>    5.2865    1.0000 </r>
       <r>    5.3839    1.0000 </r>
       <r>    5.6131    1.0000 </r>
       <r>    5.8280    1.0000 </r>
       <r>    6.1287    1.0227 </r>
       <r>    9.8498   -0.0000 </r>
       <r>   10.1708   -0.0000 </r>
       <r>   12.3800    0.0000 </r>
       <r>   12.6316    0.0000 </r>
       <r>   13.9746    0.0000 </r>
       <r>   16.2165    0.0000 </r>
       <r>   16.5817    0.0000 </r>
      </set>
      <set comment="kpoint 35">
       <r>   -2.4657    1.0000 </r>
       <r>    2.2302    1.0000 </r>
       <r>    2.3169    1.0000 </r>
       <r>    2.9735    1.0000 </r>
       <r>    3.1069    1.0000 </r>
       <r>    3.2361    1.0000 </r>
       <r>    3.4729    1.0000 </r>
       <r>    4.2080    1.0000 </r>
       <r>    4.6229    1.0000 </r>
       <r>    4.6756    1.0000 </r>
       <r>    5.1901    1.0000 </r>
       <r>    5.3780    1.0000 </r>
       <r>    5.5164    1.0000 </r>
       <r>    5.7259    1.0000 </r>
       <r>    5.7808    1.0000 </r>
       <r>    6.1005    1.0165 </r>
       <r>    6.5587    0.1072 </r>
       <r>    7.4588   -0.0000 </r>
       <r>    9.8363   -0.0000 </r>
       <r>   12.5712    0.0000 </r>
       <r>   13.9835    0.0000 </r>
       <r>   16.4270    0.0000 </r>
       <r>   16.8301    0.0000 </r>
       <r>   16.8834    0.0000 </r>
      </set>
      <set comment="kpoint 36">
       <r>   -2.1443    1.0000 </r>
       <r>    1.9542    1.0000 </r>
       <r>    2.4159    1.0000 </r>
       <r>    3.0304    1.0000 </r>
       <r>    3.1336    1.0000 </r>
       <r>    3.3183    1.0000 </r>
       <r>    3.5675    1.0000 </r>
       <r>    4.0922    1.0000 </r>
       <r>    4.4214    1.0000 </r>
       <r>    4.6908    1.0000 </r>
       <r>    5.1586    1.0000 </r>
       <r>    5.2925    1.0000 </r>
       <r>    5.4151    1.0000 </r>
       <r>    5.6570    1.0000 </r>
       <r>    5.7267    1.0000 </r>
       <r>    6.0478    1.0077 </r>
       <r>    6.3508    0.8682 </r>
       <r>    7.6028   -0.0000 </r>
       <r>   10.3147   -0.0000 </r>
       <r>   11.8332   -0.0000 </r>
       <r>   13.9609    0.0000 </r>
       <r>   16.0347    0.0000 </r>
       <r>   16.7452    0.0000 </r>
       <r>   17.2959    0.0000 </r>
      </set>
      <set comment="kpoint 37">
       <r>   -1.7627    1.0000 </r>
       <r>    1.5109    1.0000 </r>
       <r>    2.5640    1.0000 </r>
       <r>    3.0803    1.0000 </r>
       <r>    3.1736    1.0000 </r>
       <r>    3.4477    1.0000 </r>
       <r>    3.6246    1.0000 </r>
       <r>    4.0410    1.0000 </r>
       <r>    4.2585    1.0000 </r>
       <r>    4.7307    1.0000 </r>
       <r>    4.9928    1.0000 </r>
       <r>    5.2759    1.0000 </r>
       <r>    5.3043    1.0000 </r>
       <r>    5.5415    1.0000 </r>
       <r>    5.7277    1.0000 </r>
       <r>    6.0138    1.0043 </r>
       <r>    6.1081    1.0181 </r>
       <r>    7.9140   -0.0000 </r>
       <r>   10.8539   -0.0000 </r>
       <r>   11.0939   -0.0000 </r>
       <r>   14.0169    0.0000 </r>
       <r>   15.1649    0.0000 </r>
       <r>   16.7941    0.0000 </r>
       <r>   17.5699    0.0000 </r>
      </set>
      <set comment="kpoint 38">
       <r>   -1.3330    1.0000 </r>
       <r>    1.0003    1.0000 </r>
       <r>    2.6977    1.0000 </r>
       <r>    3.1035    1.0000 </r>
       <r>    3.2234    1.0000 </r>
       <r>    3.6059    1.0000 </r>
       <r>    3.6096    1.0000 </r>
       <r>    4.0956    1.0000 </r>
       <r>    4.1359    1.0000 </r>
       <r>    4.7834    1.0000 </r>
       <r>    4.8018    1.0000 </r>
       <r>    5.1264    1.0000 </r>
       <r>    5.3209    1.0000 </r>
       <r>    5.4421    1.0000 </r>
       <r>    5.7353    1.0000 </r>
       <r>    5.9138    1.0005 </r>
       <r>    5.9932    1.0029 </r>
       <r>    8.2938   -0.0000 </r>
       <r>   10.4076   -0.0000 </r>
       <r>   11.4462   -0.0000 </r>
       <r>   14.0939    0.0000 </r>
       <r>   14.3387    0.0000 </r>
       <r>   16.6747    0.0000 </r>
       <r>   17.6233    0.0000 </r>
      </set>
      <set comment="kpoint 39">
       <r>   -0.8900    1.0000 </r>
       <r>    0.4936    1.0000 </r>
       <r>    2.7971    1.0000 </r>
       <r>    3.1031    1.0000 </r>
       <r>    3.2746    1.0000 </r>
       <r>    3.5486    1.0000 </r>
       <r>    3.7740    1.0000 </r>
       <r>    4.0361    1.0000 </r>
       <r>    4.2223    1.0000 </r>
       <r>    4.6140    1.0000 </r>
       <r>    4.8370    1.0000 </r>
       <r>    4.9961    1.0000 </r>
       <r>    5.3307    1.0000 </r>
       <r>    5.3854    1.0000 </r>
       <r>    5.7398    1.0000 </r>
       <r>    5.7812    1.0000 </r>
       <r>    5.9823    1.0023 </r>
       <r>    8.7232   -0.0000 </r>
       <r>    9.7916   -0.0000 </r>
       <r>   12.0818    0.0000 </r>
       <r>   13.5638    0.0000 </r>
       <r>   14.1595    0.0000 </r>
       <r>   16.5163    0.0000 </r>
       <r>   17.7233    0.0000 </r>
      </set>
      <set comment="kpoint 40">
       <r>   -0.6218    1.0000 </r>
       <r>    0.2017    1.0000 </r>
       <r>    2.8363    1.0000 </r>
       <r>    3.0974    1.0000 </r>
       <r>    3.3010    1.0000 </r>
       <r>    3.5168    1.0000 </r>
       <r>    3.8913    1.0000 </r>
       <r>    3.9502    1.0000 </r>
       <r>    4.3300    1.0000 </r>
       <r>    4.4887    1.0000 </r>
       <r>    4.8846    1.0000 </r>
       <r>    4.9174    1.0000 </r>
       <r>    5.3338    1.0000 </r>
       <r>    5.3711    1.0000 </r>
       <r>    5.7224    1.0000 </r>
       <r>    5.7494    1.0000 </r>
       <r>    5.9789    1.0021 </r>
       <r>    9.1159   -0.0000 </r>
       <r>    9.3361   -0.0000 </r>
       <r>   12.6168    0.0000 </r>
       <r>   12.9826    0.0000 </r>
       <r>   14.1857    0.0000 </r>
       <r>   16.4501    0.0000 </r>
       <r>   17.7723    0.0000 </r>
      </set>
      <set comment="kpoint 41">
       <r>   -1.8303    1.0000 </r>
       <r>    2.0913    1.0000 </r>
       <r>    2.1514    1.0000 </r>
       <r>    3.0747    1.0000 </r>
       <r>    3.1525    1.0000 </r>
       <r>    3.3798    1.0000 </r>
       <r>    3.6853    1.0000 </r>
       <r>    3.9638    1.0000 </r>
       <r>    4.2734    1.0000 </r>
       <r>    4.7114    1.0000 </r>
       <r>    5.1207    1.0000 </r>
       <r>    5.2646    1.0000 </r>
       <r>    5.3676    1.0000 </r>
       <r>    5.5896    1.0000 </r>
       <r>    5.6494    1.0000 </r>
       <r>    5.9608    1.0015 </r>
       <r>    6.3426    0.8900 </r>
       <r>    7.4160   -0.0000 </r>
       <r>   10.7638   -0.0000 </r>
       <r>   11.0350   -0.0000 </r>
       <r>   14.0431    0.0000 </r>
       <r>   16.1451    0.0000 </r>
       <r>   16.6014    0.0000 </r>
       <r>   17.3292    0.0000 </r>
      </set>
      <set comment="kpoint 42">
       <r>   -1.4584    1.0000 </r>
       <r>    1.7021    1.0000 </r>
       <r>    2.2947    1.0000 </r>
       <r>    3.1302    1.0000 </r>
       <r>    3.1841    1.0000 </r>
       <r>    3.4785    1.0000 </r>
       <r>    3.7440    1.0000 </r>
       <r>    3.9222    1.0000 </r>
       <r>    4.1473    1.0000 </r>
       <r>    4.7624    1.0000 </r>
       <r>    4.9647    1.0000 </r>
       <r>    5.2703    1.0000 </r>
       <r>    5.3091    1.0000 </r>
       <r>    5.4801    1.0000 </r>
       <r>    5.6323    1.0000 </r>
       <r>    5.8968    1.0003 </r>
       <r>    6.1811    1.0336 </r>
       <r>    7.5196   -0.0000 </r>
       <r>   10.2915   -0.0000 </r>
       <r>   11.2748   -0.0000 </r>
       <r>   14.1577    0.0000 </r>
       <r>   15.4509    0.0000 </r>
       <r>   16.7938    0.0000 </r>
       <r>   17.2389    0.0000 </r>
      </set>
      <set comment="kpoint 43">
       <r>   -1.0416    1.0000 </r>
       <r>    1.2226    1.0000 </r>
       <r>    2.4405    1.0000 </r>
       <r>    3.1677    1.0000 </r>
       <r>    3.2248    1.0000 </r>
       <r>    3.6097    1.0000 </r>
       <r>    3.6710    1.0000 </r>
       <r>    4.0439    1.0000 </r>
       <r>    4.0521    1.0000 </r>
       <r>    4.7833    1.0000 </r>
       <r>    4.8196    1.0000 </r>
       <r>    5.1413    1.0000 </r>
       <r>    5.3461    1.0000 </r>
       <r>    5.3882    1.0000 </r>
       <r>    5.6363    1.0000 </r>
       <r>    5.8540    1.0001 </r>
       <r>    5.9984    1.0032 </r>
       <r>    7.7777   -0.0000 </r>
       <r>    9.6254   -0.0000 </r>
       <r>   11.8394   -0.0000 </r>
       <r>   14.2785    0.0000 </r>
       <r>   14.6596    0.0000 </r>
       <r>   16.9906    0.0000 </r>
       <r>   17.1360    0.0000 </r>
      </set>
      <set comment="kpoint 44">
       <r>   -0.6165    1.0000 </r>
       <r>    0.7459    1.0000 </r>
       <r>    2.5410    1.0000 </r>
       <r>    3.1846    1.0000 </r>
       <r>    3.2659    1.0000 </r>
       <r>    3.5939    1.0000 </r>
       <r>    3.7501    1.0000 </r>
       <r>    3.9732    1.0000 </r>
       <r>    4.2074    1.0000 </r>
       <r>    4.5960    1.0000 </r>
       <r>    4.8649    1.0000 </r>
       <r>    5.0209    1.0000 </r>
       <r>    5.3436    1.0000 </r>
       <r>    5.3690    1.0000 </r>
       <r>    5.6442    1.0000 </r>
       <r>    5.8292    1.0001 </r>
       <r>    5.8619    1.0001 </r>
       <r>    8.1208   -0.0000 </r>
       <r>    9.0452   -0.0000 </r>
       <r>   12.4439    0.0000 </r>
       <r>   13.9149    0.0000 </r>
       <r>   14.3756    0.0000 </r>
       <r>   16.7742    0.0000 </r>
       <r>   17.4297    0.0000 </r>
      </set>
      <set comment="kpoint 45">
       <r>   -0.3656    1.0000 </r>
       <r>    0.4754    1.0000 </r>
       <r>    2.5771    1.0000 </r>
       <r>    3.1886    1.0000 </r>
       <r>    3.2858    1.0000 </r>
       <r>    3.5610    1.0000 </r>
       <r>    3.8537    1.0000 </r>
       <r>    3.9000    1.0000 </r>
       <r>    4.3430    1.0000 </r>
       <r>    4.4527    1.0000 </r>
       <r>    4.8906    1.0000 </r>
       <r>    4.9606    1.0000 </r>
       <r>    5.3357    1.0000 </r>
       <r>    5.3768    1.0000 </r>
       <r>    5.6483    1.0000 </r>
       <r>    5.8083    1.0000 </r>
       <r>    5.8211    1.0000 </r>
       <r>    8.4865   -0.0000 </r>
       <r>    8.6010   -0.0000 </r>
       <r>   12.9194    0.0000 </r>
       <r>   13.3925    0.0000 </r>
       <r>   14.4140    0.0000 </r>
       <r>   16.6907    0.0000 </r>
       <r>   17.5533    0.0000 </r>
      </set>
      <set comment="kpoint 46">
       <r>   -1.0994    1.0000 </r>
       <r>    1.8439    1.0000 </r>
       <r>    1.9741    1.0000 </r>
       <r>    3.1897    1.0000 </r>
       <r>    3.2051    1.0000 </r>
       <r>    3.5402    1.0000 </r>
       <r>    3.7792    1.0000 </r>
       <r>    3.9146    1.0000 </r>
       <r>    4.0536    1.0000 </r>
       <r>    4.8197    1.0000 </r>
       <r>    4.8686    1.0000 </r>
       <r>    5.2298    1.0000 </r>
       <r>    5.3378    1.0000 </r>
       <r>    5.3999    1.0000 </r>
       <r>    5.5565    1.0000 </r>
       <r>    5.8016    1.0000 </r>
       <r>    6.1409    1.0256 </r>
       <r>    7.3749   -0.0000 </r>
       <r>    9.5688   -0.0000 </r>
       <r>   11.7570   -0.0000 </r>
       <r>   14.3182    0.0000 </r>
       <r>   15.5499    0.0000 </r>
       <r>   16.2215    0.0000 </r>
       <r>   17.3768    0.0000 </r>
      </set>
      <set comment="kpoint 47">
       <r>   -0.6998    1.0000 </r>
       <r>    1.4590    1.0000 </r>
       <r>    2.0999    1.0000 </r>
       <r>    3.2260    1.0000 </r>
       <r>    3.2327    1.0000 </r>
       <r>    3.6338    1.0000 </r>
       <r>    3.6959    1.0000 </r>
       <r>    3.9842    1.0000 </r>
       <r>    4.0568    1.0000 </r>
       <r>    4.7284    1.0000 </r>
       <r>    4.8801    1.0000 </r>
       <r>    5.1436    1.0000 </r>
       <r>    5.3171    1.0000 </r>
       <r>    5.3729    1.0000 </r>
       <r>    5.5271    1.0000 </r>
       <r>    5.7318    1.0000 </r>
       <r>    6.0211    1.0049 </r>
       <r>    7.4539   -0.0000 </r>
       <r>    8.9423   -0.0000 </r>
       <r>   12.2916    0.0000 </r>
       <r>   14.4787    0.0000 </r>
       <r>   14.9871    0.0000 </r>
       <r>   16.3698    0.0000 </r>
       <r>   17.2476    0.0000 </r>
      </set>
      <set comment="kpoint 48">
       <r>   -0.2976    1.0000 </r>
       <r>    1.0236    1.0000 </r>
       <r>    2.2267    1.0000 </r>
       <r>    3.2392    1.0000 </r>
       <r>    3.2590    1.0000 </r>
       <r>    3.6308    1.0000 </r>
       <r>    3.7365    1.0000 </r>
       <r>    3.9310    1.0000 </r>
       <r>    4.2177    1.0000 </r>
       <r>    4.5664    1.0000 </r>
       <r>    4.9201    1.0000 </r>
       <r>    5.0426    1.0000 </r>
       <r>    5.2785    1.0000 </r>
       <r>    5.4009    1.0000 </r>
       <r>    5.5223    1.0000 </r>
       <r>    5.6876    1.0000 </r>
       <r>    5.9083    1.0004 </r>
       <r>    7.6742   -0.0000 </r>
       <r>    8.4191   -0.0000 </r>
       <r>   12.8617    0.0000 </r>
       <r>   14.3017    0.0000 </r>
       <r>   14.6061    0.0000 </r>
       <r>   16.6463    0.0000 </r>
       <r>   17.0484    0.0000 </r>
      </set>
      <set comment="kpoint 49">
       <r>   -0.0668    1.0000 </r>
       <r>    0.7794    1.0000 </r>
       <r>    2.2736    1.0000 </r>
       <r>    3.2415    1.0000 </r>
       <r>    3.2706    1.0000 </r>
       <r>    3.6060    1.0000 </r>
       <r>    3.7969    1.0000 </r>
       <r>    3.8957    1.0000 </r>
       <r>    4.3581    1.0000 </r>
       <r>    4.4247    1.0000 </r>
       <r>    4.9372    1.0000 </r>
       <r>    4.9909    1.0000 </r>
       <r>    5.2744    1.0000 </r>
       <r>    5.4119    1.0000 </r>
       <r>    5.5226    1.0000 </r>
       <r>    5.6720    1.0000 </r>
       <r>    5.8623    1.0001 </r>
       <r>    7.9795   -0.0000 </r>
       <r>    8.0158   -0.0000 </r>
       <r>   13.2865    0.0000 </r>
       <r>   13.8340    0.0000 </r>
       <r>   14.6564    0.0000 </r>
       <r>   16.7701    0.0000 </r>
       <r>   16.9633    0.0000 </r>
      </set>
      <set comment="kpoint 50">
       <r>   -0.3225    1.0000 </r>
       <r>    1.6237    1.0000 </r>
       <r>    1.7682    1.0000 </r>
       <r>    3.2426    1.0000 </r>
       <r>    3.2437    1.0000 </r>
       <r>    3.6798    1.0000 </r>
       <r>    3.6934    1.0000 </r>
       <r>    3.9357    1.0000 </r>
       <r>    4.1379    1.0000 </r>
       <r>    4.6385    1.0000 </r>
       <r>    4.9480    1.0000 </r>
       <r>    5.1136    1.0000 </r>
       <r>    5.2416    1.0000 </r>
       <r>    5.3999    1.0000 </r>
       <r>    5.4379    1.0000 </r>
       <r>    5.6368    1.0000 </r>
       <r>    5.9775    1.0021 </r>
       <r>    7.3430   -0.0000 </r>
       <r>    8.3753   -0.0000 </r>
       <r>   12.7941    0.0000 </r>
       <r>   14.6750    0.0000 </r>
       <r>   15.1111    0.0000 </r>
       <r>   15.8694    0.0000 </r>
       <r>   17.3925    0.0000 </r>
      </set>
      <set comment="kpoint 51">
       <r>    0.0519    1.0000 </r>
       <r>    1.2953    1.0000 </r>
       <r>    1.8764    1.0000 </r>
       <r>    3.2287    1.0000 </r>
       <r>    3.2537    1.0000 </r>
       <r>    3.6557    1.0000 </r>
       <r>    3.7655    1.0000 </r>
       <r>    3.9025    1.0000 </r>
       <r>    4.2560    1.0000 </r>
       <r>    4.5219    1.0000 </r>
       <r>    4.9929    1.0000 </r>
       <r>    5.0501    1.0000 </r>
       <r>    5.2000    1.0000 </r>
       <r>    5.3949    1.0000 </r>
       <r>    5.4249    1.0000 </r>
       <r>    5.5730    1.0000 </r>
       <r>    5.9108    1.0005 </r>
       <r>    7.4099   -0.0000 </r>
       <r>    7.9321   -0.0000 </r>
       <r>   13.3285    0.0000 </r>
       <r>   14.6715    0.0000 </r>
       <r>   14.8295    0.0000 </r>
       <r>   15.9414    0.0000 </r>
       <r>   17.3386    0.0000 </r>
      </set>
      <set comment="kpoint 52">
       <r>    0.2612    1.0000 </r>
       <r>    1.0815    1.0000 </r>
       <r>    1.9394    1.0000 </r>
       <r>    3.2180    1.0000 </r>
       <r>    3.2577    1.0000 </r>
       <r>    3.6454    1.0000 </r>
       <r>    3.8039    1.0000 </r>
       <r>    3.8845    1.0000 </r>
       <r>    4.3735    1.0000 </r>
       <r>    4.4054    1.0000 </r>
       <r>    5.0086    1.0000 </r>
       <r>    5.0092    1.0000 </r>
       <r>    5.1959    1.0000 </r>
       <r>    5.3845    1.0000 </r>
       <r>    5.4376    1.0000 </r>
       <r>    5.5479    1.0000 </r>
       <r>    5.8796    1.0002 </r>
       <r>    7.6105   -0.0000 </r>
       <r>    7.6118   -0.0000 </r>
       <r>   13.7168    0.0000 </r>
       <r>   14.2651    0.0000 </r>
       <r>   14.8905    0.0000 </r>
       <r>   16.0429    0.0000 </r>
       <r>   17.2793    0.0000 </r>
      </set>
      <set comment="kpoint 53">
       <r>    0.3958    1.0000 </r>
       <r>    1.4742    1.0000 </r>
       <r>    1.5652    1.0000 </r>
       <r>    3.1745    1.0000 </r>
       <r>    3.2502    1.0000 </r>
       <r>    3.6687    1.0000 </r>
       <r>    3.8185    1.0000 </r>
       <r>    3.8838    1.0000 </r>
       <r>    4.3171    1.0000 </r>
       <r>    4.4617    1.0000 </r>
       <r>    5.0295    1.0000 </r>
       <r>    5.0571    1.0000 </r>
       <r>    5.1416    1.0000 </r>
       <r>    5.3040    1.0000 </r>
       <r>    5.4415    1.0000 </r>
       <r>    5.4970    1.0000 </r>
       <r>    5.8850    1.0002 </r>
       <r>    7.3232   -0.0000 </r>
       <r>    7.5901   -0.0000 </r>
       <r>   13.8296    0.0000 </r>
       <r>   14.8413    0.0000 </r>
       <r>   15.0038    0.0000 </r>
       <r>   15.4386    0.0000 </r>
       <r>   17.5756    0.0000 </r>
      </set>
      <set comment="kpoint 54">
       <r>    0.5866    1.0000 </r>
       <r>    1.3238    1.0000 </r>
       <r>    1.6086    1.0000 </r>
       <r>    3.1435    1.0000 </r>
       <r>    3.2490    1.0000 </r>
       <r>    3.6727    1.0000 </r>
       <r>    3.8471    1.0000 </r>
       <r>    3.8741    1.0000 </r>
       <r>    4.3857    1.0000 </r>
       <r>    4.3942    1.0000 </r>
       <r>    5.0080    1.0000 </r>
       <r>    5.0787    1.0000 </r>
       <r>    5.1290    1.0000 </r>
       <r>    5.2751    1.0000 </r>
       <r>    5.4531    1.0000 </r>
       <r>    5.4647    1.0000 </r>
       <r>    5.8687    1.0002 </r>
       <r>    7.3869   -0.0000 </r>
       <r>    7.3894   -0.0000 </r>
       <r>   14.2087    0.0000 </r>
       <r>   14.6103    0.0000 </r>
       <r>   15.0722    0.0000 </r>
       <r>   15.3730    0.0000 </r>
       <r>   17.6390    0.0000 </r>
      </set>
      <set comment="kpoint 55">
       <r>    0.7715    1.0000 </r>
       <r>    1.4216    1.0000 </r>
       <r>    1.4216    1.0000 </r>
       <r>    3.1018    1.0000 </r>
       <r>    3.2460    1.0000 </r>
       <r>    3.6825    1.0000 </r>
       <r>    3.8700    1.0000 </r>
       <r>    3.8700    1.0000 </r>
       <r>    4.3905    1.0000 </r>
       <r>    4.3905    1.0000 </r>
       <r>    4.9972    1.0000 </r>
       <r>    5.1088    1.0000 </r>
       <r>    5.1088    1.0000 </r>
       <r>    5.2340    1.0000 </r>
       <r>    5.4352    1.0000 </r>
       <r>    5.4583    1.0000 </r>
       <r>    5.8583    1.0001 </r>
       <r>    7.3165   -0.0000 </r>
       <r>    7.3165   -0.0000 </r>
       <r>   14.7503    0.0000 </r>
       <r>   14.7503    0.0000 </r>
       <r>   14.7721    0.0000 </r>
       <r>   15.1431    0.0000 </r>
       <r>   17.9310    0.0000 </r>
      </set>
      <set comment="kpoint 56">
       <r>   -3.5451    1.0000 </r>
       <r>    2.0483    1.0000 </r>
       <r>    2.6919    1.0000 </r>
       <r>    2.6919    1.0000 </r>
       <r>    3.0387    1.0000 </r>
       <r>    3.0783    1.0000 </r>
       <r>    3.0783    1.0000 </r>
       <r>    4.8915    1.0000 </r>
       <r>    5.0142    1.0000 </r>
       <r>    5.0142    1.0000 </r>
       <r>    5.8403    1.0001 </r>
       <r>    5.8403    1.0001 </r>
       <r>    6.0867    1.0138 </r>
       <r>    6.0867    1.0138 </r>
       <r>    6.1328    1.0237 </r>
       <r>    6.3369    0.9042 </r>
       <r>    7.3276   -0.0000 </r>
       <r>    7.5293   -0.0000 </r>
       <r>    7.5293   -0.0000 </r>
       <r>   13.4063    0.0000 </r>
       <r>   13.4063    0.0000 </r>
       <r>   14.2644    0.0000 </r>
       <r>   18.1316    0.0000 </r>
       <r>   18.6008    0.0000 </r>
      </set>
      <set comment="kpoint 57">
       <r>   -3.4306    1.0000 </r>
       <r>    2.0828    1.0000 </r>
       <r>    2.6251    1.0000 </r>
       <r>    2.7638    1.0000 </r>
       <r>    3.0426    1.0000 </r>
       <r>    3.0977    1.0000 </r>
       <r>    3.1195    1.0000 </r>
       <r>    4.7957    1.0000 </r>
       <r>    4.9499    1.0000 </r>
       <r>    5.0299    1.0000 </r>
       <r>    5.7508    1.0000 </r>
       <r>    5.8372    1.0001 </r>
       <r>    5.8852    1.0002 </r>
       <r>    5.9344    1.0008 </r>
       <r>    6.0936    1.0151 </r>
       <r>    6.3250    0.9312 </r>
       <r>    7.0113   -0.0003 </r>
       <r>    7.7694   -0.0000 </r>
       <r>    7.8356   -0.0000 </r>
       <r>   13.4015    0.0000 </r>
       <r>   13.7460    0.0000 </r>
       <r>   14.6541    0.0000 </r>
       <r>   17.4774    0.0000 </r>
       <r>   17.7731    0.0000 </r>
      </set>
      <set comment="kpoint 58">
       <r>   -3.2412    1.0000 </r>
       <r>    2.1020    1.0000 </r>
       <r>    2.5256    1.0000 </r>
       <r>    2.8789    1.0000 </r>
       <r>    3.0604    1.0000 </r>
       <r>    3.1296    1.0000 </r>
       <r>    3.1736    1.0000 </r>
       <r>    4.6844    1.0000 </r>
       <r>    4.8510    1.0000 </r>
       <r>    5.0193    1.0000 </r>
       <r>    5.5278    1.0000 </r>
       <r>    5.7362    1.0000 </r>
       <r>    5.7379    1.0000 </r>
       <r>    5.8553    1.0001 </r>
       <r>    6.0333    1.0060 </r>
       <r>    6.3180    0.9454 </r>
       <r>    6.5482    0.1353 </r>
       <r>    8.1929   -0.0000 </r>
       <r>    8.2430   -0.0000 </r>
       <r>   13.3908    0.0000 </r>
       <r>   13.9471    0.0000 </r>
       <r>   15.4641    0.0000 </r>
       <r>   16.6515    0.0000 </r>
       <r>   16.8636    0.0000 </r>
      </set>
      <set comment="kpoint 59">
       <r>   -2.9788    1.0000 </r>
       <r>    1.9814    1.0000 </r>
       <r>    2.4852    1.0000 </r>
       <r>    3.0278    1.0000 </r>
       <r>    3.0906    1.0000 </r>
       <r>    3.1751    1.0000 </r>
       <r>    3.2369    1.0000 </r>
       <r>    4.5700    1.0000 </r>
       <r>    4.7297    1.0000 </r>
       <r>    4.9837    1.0000 </r>
       <r>    5.2484    1.0000 </r>
       <r>    5.5770    1.0000 </r>
       <r>    5.6003    1.0000 </r>
       <r>    5.8427    1.0001 </r>
       <r>    5.9578    1.0014 </r>
       <r>    6.1533    1.0283 </r>
       <r>    6.3139    0.9530 </r>
       <r>    8.6828   -0.0000 </r>
       <r>    8.7132   -0.0000 </r>
       <r>   13.3682    0.0000 </r>
       <r>   14.0882    0.0000 </r>
       <r>   15.7361    0.0000 </r>
       <r>   15.9774    0.0000 </r>
       <r>   16.4984    0.0000 </r>
      </set>
      <set comment="kpoint 60">
       <r>   -2.6471    1.0000 </r>
       <r>    1.6439    1.0000 </r>
       <r>    2.5571    1.0000 </r>
       <r>    3.1302    1.0000 </r>
       <r>    3.1727    1.0000 </r>
       <r>    3.2592    1.0000 </r>
       <r>    3.3032    1.0000 </r>
       <r>    4.4638    1.0000 </r>
       <r>    4.6004    1.0000 </r>
       <r>    4.9153    1.0000 </r>
       <r>    5.0063    1.0000 </r>
       <r>    5.4387    1.0000 </r>
       <r>    5.4509    1.0000 </r>
       <r>    5.7822    1.0000 </r>
       <r>    5.8697    1.0002 </r>
       <r>    5.9097    1.0004 </r>
       <r>    6.3118    0.9570 </r>
       <r>    9.2219   -0.0000 </r>
       <r>    9.2293   -0.0000 </r>
       <r>   13.3168    0.0000 </r>
       <r>   14.2348    0.0000 </r>
       <r>   14.8967    0.0000 </r>
       <r>   15.1598    0.0000 </r>
       <r>   17.0430    0.0000 </r>
      </set>
      <set comment="kpoint 61">
       <r>   -2.2518    1.0000 </r>
       <r>    1.1642    1.0000 </r>
       <r>    2.6705    1.0000 </r>
       <r>    3.1747    1.0000 </r>
       <r>    3.2454    1.0000 </r>
       <r>    3.3634    1.0000 </r>
       <r>    3.4311    1.0000 </r>
       <r>    4.3756    1.0000 </r>
       <r>    4.4761    1.0000 </r>
       <r>    4.7779    1.0000 </r>
       <r>    4.8911    1.0000 </r>
       <r>    5.3060    1.0000 </r>
       <r>    5.3295    1.0000 </r>
       <r>    5.6644    1.0000 </r>
       <r>    5.6707    1.0000 </r>
       <r>    5.9024    1.0004 </r>
       <r>    6.3107    0.9589 </r>
       <r>    9.7812   -0.0000 </r>
       <r>    9.8034   -0.0000 </r>
       <r>   13.1864    0.0000 </r>
       <r>   14.0665    0.0000 </r>
       <r>   14.4072    0.0000 </r>
       <r>   14.4714    0.0000 </r>
       <r>   16.7693    0.0000 </r>
      </set>
      <set comment="kpoint 62">
       <r>   -1.8038    1.0000 </r>
       <r>    0.6136    1.0000 </r>
       <r>    2.7825    1.0000 </r>
       <r>    3.2165    1.0000 </r>
       <r>    3.2938    1.0000 </r>
       <r>    3.4073    1.0000 </r>
       <r>    3.6156    1.0000 </r>
       <r>    4.3158    1.0000 </r>
       <r>    4.3670    1.0000 </r>
       <r>    4.6688    1.0000 </r>
       <r>    4.8222    1.0000 </r>
       <r>    5.1854    1.0000 </r>
       <r>    5.2537    1.0000 </r>
       <r>    5.5298    1.0000 </r>
       <r>    5.5343    1.0000 </r>
       <r>    5.9042    1.0004 </r>
       <r>    6.3102    0.9598 </r>
       <r>   10.3591   -0.0000 </r>
       <r>   10.4237   -0.0000 </r>
       <r>   12.8678    0.0000 </r>
       <r>   13.2693    0.0000 </r>
       <r>   14.0274    0.0000 </r>
       <r>   14.6031    0.0000 </r>
       <r>   16.3429    0.0000 </r>
      </set>
      <set comment="kpoint 63">
       <r>   -1.3347    1.0000 </r>
       <r>    0.0663    1.0000 </r>
       <r>    2.8658    1.0000 </r>
       <r>    3.2463    1.0000 </r>
       <r>    3.3268    1.0000 </r>
       <r>    3.4302    1.0000 </r>
       <r>    3.7639    1.0000 </r>
       <r>    4.2836    1.0000 </r>
       <r>    4.2897    1.0000 </r>
       <r>    4.6073    1.0000 </r>
       <r>    4.7763    1.0000 </r>
       <r>    5.1027    1.0000 </r>
       <r>    5.2148    1.0000 </r>
       <r>    5.4254    1.0000 </r>
       <r>    5.4423    1.0000 </r>
       <r>    5.9066    1.0004 </r>
       <r>    6.3099    0.9602 </r>
       <r>   10.9398   -0.0000 </r>
       <r>   11.0802   -0.0000 </r>
       <r>   12.3596    0.0000 </r>
       <r>   12.5065    0.0000 </r>
       <r>   13.8473    0.0000 </r>
       <r>   14.8015    0.0000 </r>
       <r>   15.9820    0.0000 </r>
      </set>
      <set comment="kpoint 64">
       <r>   -1.0384    1.0000 </r>
       <r>   -0.2588    1.0000 </r>
       <r>    2.8972    1.0000 </r>
       <r>    3.2568    1.0000 </r>
       <r>    3.3388    1.0000 </r>
       <r>    3.4365    1.0000 </r>
       <r>    3.8253    1.0000 </r>
       <r>    4.2484    1.0000 </r>
       <r>    4.2849    1.0000 </r>
       <r>    4.5855    1.0000 </r>
       <r>    4.7611    1.0000 </r>
       <r>    5.0723    1.0000 </r>
       <r>    5.2059    1.0000 </r>
       <r>    5.3796    1.0000 </r>
       <r>    5.4125    1.0000 </r>
       <r>    5.9076    1.0004 </r>
       <r>    6.3099    0.9603 </r>
       <r>   11.3276   -0.0000 </r>
       <r>   11.7215   -0.0000 </r>
       <r>   11.8299   -0.0000 </r>
       <r>   11.9791    0.0000 </r>
       <r>   13.8047    0.0000 </r>
       <r>   14.9044    0.0000 </r>
       <r>   15.8222    0.0000 </r>
      </set>
      <set comment="kpoint 65">
       <r>   -3.3168    1.0000 </r>
       <r>    2.1207    1.0000 </r>
       <r>    2.6280    1.0000 </r>
       <r>    2.7647    1.0000 </r>
       <r>    3.0365    1.0000 </r>
       <r>    3.1230    1.0000 </r>
       <r>    3.1626    1.0000 </r>
       <r>    4.6834    1.0000 </r>
       <r>    4.9160    1.0000 </r>
       <r>    5.0434    1.0000 </r>
       <r>    5.6068    1.0000 </r>
       <r>    5.7780    1.0000 </r>
       <r>    5.7957    1.0000 </r>
       <r>    5.8503    1.0001 </r>
       <r>    6.0383    1.0066 </r>
       <r>    6.3010    0.9748 </r>
       <r>    7.1361   -0.0000 </r>
       <r>    7.5562   -0.0000 </r>
       <r>    8.0733   -0.0000 </r>
       <r>   13.5503    0.0000 </r>
       <r>   14.1189    0.0000 </r>
       <r>   14.8803    0.0000 </r>
       <r>   16.7201    0.0000 </r>
       <r>   17.6730    0.0000 </r>
      </set>
      <set comment="kpoint 66">
       <r>   -3.1284    1.0000 </r>
       <r>    2.1499    1.0000 </r>
       <r>    2.5463    1.0000 </r>
       <r>    2.8542    1.0000 </r>
       <r>    3.0449    1.0000 </r>
       <r>    3.1539    1.0000 </r>
       <r>    3.2248    1.0000 </r>
       <r>    4.5618    1.0000 </r>
       <r>    4.8290    1.0000 </r>
       <r>    5.0502    1.0000 </r>
       <r>    5.3531    1.0000 </r>
       <r>    5.6579    1.0000 </r>
       <r>    5.7097    1.0000 </r>
       <r>    5.8197    1.0000 </r>
       <r>    5.9756    1.0020 </r>
       <r>    6.2788    1.0031 </r>
       <r>    6.7802   -0.0207 </r>
       <r>    7.8101   -0.0000 </r>
       <r>    8.4467   -0.0000 </r>
       <r>   13.5687    0.0000 </r>
       <r>   14.4440    0.0000 </r>
       <r>   15.5528    0.0000 </r>
       <r>   15.8475    0.0000 </r>
       <r>   16.9057    0.0000 </r>
      </set>
      <set comment="kpoint 67">
       <r>   -2.8677    1.0000 </r>
       <r>    2.0444    1.0000 </r>
       <r>    2.5021    1.0000 </r>
       <r>    2.9902    1.0000 </r>
       <r>    3.0691    1.0000 </r>
       <r>    3.1986    1.0000 </r>
       <r>    3.2956    1.0000 </r>
       <r>    4.4449    1.0000 </r>
       <r>    4.7162    1.0000 </r>
       <r>    5.0201    1.0000 </r>
       <r>    5.1060    1.0000 </r>
       <r>    5.5174    1.0000 </r>
       <r>    5.5882    1.0000 </r>
       <r>    5.8102    1.0000 </r>
       <r>    5.9047    1.0004 </r>
       <r>    6.2607    1.0187 </r>
       <r>    6.3697    0.8118 </r>
       <r>    8.2253   -0.0000 </r>
       <r>    8.8941   -0.0000 </r>
       <r>   13.5270    0.0000 </r>
       <r>   14.6121    0.0000 </r>
       <r>   15.0167    0.0000 </r>
       <r>   16.0065    0.0000 </r>
       <r>   16.5682    0.0000 </r>
      </set>
      <set comment="kpoint 68">
       <r>   -2.5382    1.0000 </r>
       <r>    1.7148    1.0000 </r>
       <r>    2.5758    1.0000 </r>
       <r>    3.0872    1.0000 </r>
       <r>    3.1455    1.0000 </r>
       <r>    3.2780    1.0000 </r>
       <r>    3.3661    1.0000 </r>
       <r>    4.3454    1.0000 </r>
       <r>    4.5854    1.0000 </r>
       <r>    4.8612    1.0000 </r>
       <r>    5.0071    1.0000 </r>
       <r>    5.3949    1.0000 </r>
       <r>    5.4431    1.0000 </r>
       <r>    5.7529    1.0000 </r>
       <r>    5.8615    1.0001 </r>
       <r>    6.0496    1.0079 </r>
       <r>    6.2505    1.0249 </r>
       <r>    8.6885   -0.0000 </r>
       <r>    9.3962   -0.0000 </r>
       <r>   13.3381    0.0000 </r>
       <r>   14.3470    0.0000 </r>
       <r>   14.7486    0.0000 </r>
       <r>   15.2470    0.0000 </r>
       <r>   17.2821    0.0000 </r>
      </set>
      <set comment="kpoint 69">
       <r>   -2.1456    1.0000 </r>
       <r>    1.2426    1.0000 </r>
       <r>    2.6926    1.0000 </r>
       <r>    3.1256    1.0000 </r>
       <r>    3.2287    1.0000 </r>
       <r>    3.4180    1.0000 </r>
       <r>    3.4373    1.0000 </r>
       <r>    4.2760    1.0000 </r>
       <r>    4.4442    1.0000 </r>
       <r>    4.7243    1.0000 </r>
       <r>    4.9425    1.0000 </r>
       <r>    5.2798    1.0000 </r>
       <r>    5.3160    1.0000 </r>
       <r>    5.6373    1.0000 </r>
       <r>    5.8168    1.0000 </r>
       <r>    5.8647    1.0001 </r>
       <r>    6.2428    1.0285 </r>
       <r>    9.1842   -0.0000 </r>
       <r>    9.9413   -0.0000 </r>
       <r>   12.8703    0.0000 </r>
       <r>   13.8820    0.0000 </r>
       <r>   14.5044    0.0000 </r>
       <r>   15.0519    0.0000 </r>
       <r>   17.1683    0.0000 </r>
      </set>
      <set comment="kpoint 70">
       <r>   -1.7014    1.0000 </r>
       <r>    0.6999    1.0000 </r>
       <r>    2.8113    1.0000 </r>
       <r>    3.1525    1.0000 </r>
       <r>    3.2822    1.0000 </r>
       <r>    3.4538    1.0000 </r>
       <r>    3.6169    1.0000 </r>
       <r>    4.2494    1.0000 </r>
       <r>    4.3155    1.0000 </r>
       <r>    4.6374    1.0000 </r>
       <r>    4.8805    1.0000 </r>
       <r>    5.1459    1.0000 </r>
       <r>    5.2584    1.0000 </r>
       <r>    5.5153    1.0000 </r>
       <r>    5.6584    1.0000 </r>
       <r>    5.8655    1.0001 </r>
       <r>    6.2385    1.0302 </r>
       <r>    9.7052   -0.0000 </r>
       <r>   10.5157   -0.0000 </r>
       <r>   12.2576    0.0000 </r>
       <r>   13.2853    0.0000 </r>
       <r>   14.2930    0.0000 </r>
       <r>   15.2379    0.0000 </r>
       <r>   16.7795    0.0000 </r>
      </set>
      <set comment="kpoint 71">
       <r>   -1.2378    1.0000 </r>
       <r>    0.1608    1.0000 </r>
       <r>    2.9062    1.0000 </r>
       <r>    3.1597    1.0000 </r>
       <r>    3.3224    1.0000 </r>
       <r>    3.4593    1.0000 </r>
       <r>    3.7778    1.0000 </r>
       <r>    4.2080    1.0000 </r>
       <r>    4.2673    1.0000 </r>
       <r>    4.5716    1.0000 </r>
       <r>    4.8425    1.0000 </r>
       <r>    5.0479    1.0000 </r>
       <r>    5.2366    1.0000 </r>
       <r>    5.4186    1.0000 </r>
       <r>    5.5530    1.0000 </r>
       <r>    5.8689    1.0002 </r>
       <r>    6.2363    1.0309 </r>
       <r>   10.2372   -0.0000 </r>
       <r>   11.0491   -0.0000 </r>
       <r>   11.7161   -0.0000 </r>
       <r>   12.6058    0.0000 </r>
       <r>   14.2532    0.0000 </r>
       <r>   15.4520    0.0000 </r>
       <r>   16.4252    0.0000 </r>
      </set>
      <set comment="kpoint 72">
       <r>   -0.9478    1.0000 </r>
       <r>   -0.1571    1.0000 </r>
       <r>    2.9460    1.0000 </r>
       <r>    3.1563    1.0000 </r>
       <r>    3.3399    1.0000 </r>
       <r>    3.4561    1.0000 </r>
       <r>    3.8533    1.0000 </r>
       <r>    4.1577    1.0000 </r>
       <r>    4.2834    1.0000 </r>
       <r>    4.5402    1.0000 </r>
       <r>    4.8319    1.0000 </r>
       <r>    5.0112    1.0000 </r>
       <r>    5.2354    1.0000 </r>
       <r>    5.3775    1.0000 </r>
       <r>    5.5154    1.0000 </r>
       <r>    5.8702    1.0002 </r>
       <r>    6.2357    1.0311 </r>
       <r>   10.6195   -0.0000 </r>
       <r>   11.0429   -0.0000 </r>
       <r>   11.8162   -0.0000 </r>
       <r>   12.0698    0.0000 </r>
       <r>   14.2496    0.0000 </r>
       <r>   15.5736    0.0000 </r>
       <r>   16.2552    0.0000 </r>
      </set>
      <set comment="kpoint 73">
       <r>   -2.9419    1.0000 </r>
       <r>    2.2058    1.0000 </r>
       <r>    2.5142    1.0000 </r>
       <r>    2.8676    1.0000 </r>
       <r>    3.0463    1.0000 </r>
       <r>    3.1811    1.0000 </r>
       <r>    3.2974    1.0000 </r>
       <r>    4.4318    1.0000 </r>
       <r>    4.7711    1.0000 </r>
       <r>    5.0132    1.0000 </r>
       <r>    5.1837    1.0000 </r>
       <r>    5.5633    1.0000 </r>
       <r>    5.6633    1.0000 </r>
       <r>    5.7804    1.0000 </r>
       <r>    5.8980    1.0003 </r>
       <r>    6.2370    1.0307 </r>
       <r>    6.8715   -0.0056 </r>
       <r>    7.5357   -0.0000 </r>
       <r>    8.7793   -0.0000 </r>
       <r>   13.5689    0.0000 </r>
       <r>   14.9944    0.0000 </r>
       <r>   15.1584    0.0000 </r>
       <r>   15.8338    0.0000 </r>
       <r>   17.0852    0.0000 </r>
      </set>
      <set comment="kpoint 74">
       <r>   -2.6839    1.0000 </r>
       <r>    2.1421    1.0000 </r>
       <r>    2.4754    1.0000 </r>
       <r>    2.9520    1.0000 </r>
       <r>    3.0685    1.0000 </r>
       <r>    3.2225    1.0000 </r>
       <r>    3.3792    1.0000 </r>
       <r>    4.3102    1.0000 </r>
       <r>    4.6883    1.0000 </r>
       <r>    4.8348    1.0000 </r>
       <r>    5.1427    1.0000 </r>
       <r>    5.4454    1.0000 </r>
       <r>    5.5689    1.0000 </r>
       <r>    5.7605    1.0000 </r>
       <r>    5.8201    1.0000 </r>
       <r>    6.1986    1.0353 </r>
       <r>    6.5798    0.0595 </r>
       <r>    7.7311   -0.0000 </r>
       <r>    9.1901   -0.0000 </r>
       <r>   13.3395    0.0000 </r>
       <r>   14.3887    0.0000 </r>
       <r>   15.4893    0.0000 </r>
       <r>   16.2055    0.0000 </r>
       <r>   16.6615    0.0000 </r>
      </set>
      <set comment="kpoint 75">
       <r>   -2.3581    1.0000 </r>
       <r>    1.8272    1.0000 </r>
       <r>    2.5612    1.0000 </r>
       <r>    3.0377    1.0000 </r>
       <r>    3.1273    1.0000 </r>
       <r>    3.2970    1.0000 </r>
       <r>    3.4580    1.0000 </r>
       <r>    4.2124    1.0000 </r>
       <r>    4.5372    1.0000 </r>
       <r>    4.7212    1.0000 </r>
       <r>    5.0923    1.0000 </r>
       <r>    5.3465    1.0000 </r>
       <r>    5.4364    1.0000 </r>
       <r>    5.6974    1.0000 </r>
       <r>    5.7875    1.0000 </r>
       <r>    6.1622    1.0302 </r>
       <r>    6.2516    1.0243 </r>
       <r>    8.0985   -0.0000 </r>
       <r>    9.6582   -0.0000 </r>
       <r>   12.7649    0.0000 </r>
       <r>   14.1719    0.0000 </r>
       <r>   15.2428    0.0000 </r>
       <r>   15.8686    0.0000 </r>
       <r>   17.2933    0.0000 </r>
      </set>
      <set comment="kpoint 76">
       <r>   -1.9705    1.0000 </r>
       <r>    1.3681    1.0000 </r>
       <r>    2.6859    1.0000 </r>
       <r>    3.0792    1.0000 </r>
       <r>    3.2015    1.0000 </r>
       <r>    3.4315    1.0000 </r>
       <r>    3.5156    1.0000 </r>
       <r>    4.1595    1.0000 </r>
       <r>    4.3671    1.0000 </r>
       <r>    4.6753    1.0000 </r>
       <r>    5.0008    1.0000 </r>
       <r>    5.2730    1.0000 </r>
       <r>    5.3076    1.0000 </r>
       <r>    5.5889    1.0000 </r>
       <r>    5.7912    1.0000 </r>
       <r>    5.9816    1.0023 </r>
       <r>    6.1525    1.0282 </r>
       <r>    8.5184   -0.0000 </r>
       <r>   10.1635   -0.0000 </r>
       <r>   12.0798    0.0000 </r>
       <r>   14.0242    0.0000 </r>
       <r>   14.6393    0.0000 </r>
       <r>   16.0144    0.0000 </r>
       <r>   17.4088    0.0000 </r>
      </set>
      <set comment="kpoint 77">
       <r>   -1.5328    1.0000 </r>
       <r>    0.8395    1.0000 </r>
       <r>    2.8115    1.0000 </r>
       <r>    3.0929    1.0000 </r>
       <r>    3.2601    1.0000 </r>
       <r>    3.5212    1.0000 </r>
       <r>    3.6156    1.0000 </r>
       <r>    4.1724    1.0000 </r>
       <r>    4.2281    1.0000 </r>
       <r>    4.6262    1.0000 </r>
       <r>    4.9206    1.0000 </r>
       <r>    5.1314    1.0000 </r>
       <r>    5.2806    1.0000 </r>
       <r>    5.4816    1.0000 </r>
       <r>    5.7825    1.0000 </r>
       <r>    5.8121    1.0000 </r>
       <r>    6.1371    1.0247 </r>
       <r>    8.9726   -0.0000 </r>
       <r>   10.6343   -0.0000 </r>
       <r>   11.4894   -0.0000 </r>
       <r>   13.5040    0.0000 </r>
       <r>   14.4609    0.0000 </r>
       <r>   16.2084    0.0000 </r>
       <r>   17.1230    0.0000 </r>
      </set>
      <set comment="kpoint 78">
       <r>   -1.0785    1.0000 </r>
       <r>    0.3148    1.0000 </r>
       <r>    2.9233    1.0000 </r>
       <r>    3.0722    1.0000 </r>
       <r>    3.3097    1.0000 </r>
       <r>    3.5038    1.0000 </r>
       <r>    3.7844    1.0000 </r>
       <r>    4.1141    1.0000 </r>
       <r>    4.2395    1.0000 </r>
       <r>    4.5448    1.0000 </r>
       <r>    4.8954    1.0000 </r>
       <r>    5.0126    1.0000 </r>
       <r>    5.2773    1.0000 </r>
       <r>    5.4018    1.0000 </r>
       <r>    5.6704    1.0000 </r>
       <r>    5.8066    1.0000 </r>
       <r>    6.1295    1.0229 </r>
       <r>    9.4526   -0.0000 </r>
       <r>   10.5583   -0.0000 </r>
       <r>   11.5354   -0.0000 </r>
       <r>   12.8326    0.0000 </r>
       <r>   14.4805    0.0000 </r>
       <r>   16.4029    0.0000 </r>
       <r>   16.8280    0.0000 </r>
      </set>
      <set comment="kpoint 79">
       <r>   -0.7987    1.0000 </r>
       <r>    0.0089    1.0000 </r>
       <r>    3.0048    1.0000 </r>
       <r>    3.0217    1.0000 </r>
       <r>    3.3339    1.0000 </r>
       <r>    3.4878    1.0000 </r>
       <r>    3.8841    1.0000 </r>
       <r>    4.0409    1.0000 </r>
       <r>    4.2921    1.0000 </r>
       <r>    4.4872    1.0000 </r>
       <r>    4.9048    1.0000 </r>
       <r>    4.9553    1.0000 </r>
       <r>    5.2825    1.0000 </r>
       <r>    5.3692    1.0000 </r>
       <r>    5.6253    1.0000 </r>
       <r>    5.8081    1.0000 </r>
       <r>    6.1271    1.0224 </r>
       <r>    9.8298   -0.0000 </r>
       <r>   10.1863   -0.0000 </r>
       <r>   11.9589    0.0000 </r>
       <r>   12.3228    0.0000 </r>
       <r>   14.4985    0.0000 </r>
       <r>   16.5738    0.0000 </r>
       <r>   16.6218    0.0000 </r>
      </set>
      <set comment="kpoint 80">
       <r>   -2.4299    1.0000 </r>
       <r>    2.2368    1.0000 </r>
       <r>    2.3427    1.0000 </r>
       <r>    2.9710    1.0000 </r>
       <r>    3.0885    1.0000 </r>
       <r>    3.2597    1.0000 </r>
       <r>    3.4747    1.0000 </r>
       <r>    4.1826    1.0000 </r>
       <r>    4.6106    1.0000 </r>
       <r>    4.6724    1.0000 </r>
       <r>    5.1919    1.0000 </r>
       <r>    5.3439    1.0000 </r>
       <r>    5.5199    1.0000 </r>
       <r>    5.7186    1.0000 </r>
       <r>    5.7239    1.0000 </r>
       <r>    6.1383    1.0250 </r>
       <r>    6.6175    0.0011 </r>
       <r>    7.4838   -0.0000 </r>
       <r>    9.5620   -0.0000 </r>
       <r>   12.7208    0.0000 </r>
       <r>   14.2143    0.0000 </r>
       <r>   16.2191    0.0000 </r>
       <r>   16.3151    0.0000 </r>
       <r>   16.6134    0.0000 </r>
      </set>
      <set comment="kpoint 81">
       <r>   -2.1095    1.0000 </r>
       <r>    1.9714    1.0000 </r>
       <r>    2.4254    1.0000 </r>
       <r>    3.0318    1.0000 </r>
       <r>    3.1326    1.0000 </r>
       <r>    3.3259    1.0000 </r>
       <r>    3.5670    1.0000 </r>
       <r>    4.0801    1.0000 </r>
       <r>    4.4171    1.0000 </r>
       <r>    4.6636    1.0000 </r>
       <r>    5.1610    1.0000 </r>
       <r>    5.2789    1.0000 </r>
       <r>    5.4212    1.0000 </r>
       <r>    5.6229    1.0000 </r>
       <r>    5.7048    1.0000 </r>
       <r>    6.0838    1.0132 </r>
       <r>    6.3924    0.7333 </r>
       <r>    7.6242   -0.0000 </r>
       <r>    9.9833   -0.0000 </r>
       <r>   11.9757    0.0000 </r>
       <r>   14.2330    0.0000 </r>
       <r>   15.5272    0.0000 </r>
       <r>   16.6561    0.0000 </r>
       <r>   16.9013    0.0000 </r>
      </set>
      <set comment="kpoint 82">
       <r>   -1.7291    1.0000 </r>
       <r>    1.5321    1.0000 </r>
       <r>    2.5625    1.0000 </r>
       <r>    3.0825    1.0000 </r>
       <r>    3.1914    1.0000 </r>
       <r>    3.4397    1.0000 </r>
       <r>    3.6232    1.0000 </r>
       <r>    4.0392    1.0000 </r>
       <r>    4.2593    1.0000 </r>
       <r>    4.6627    1.0000 </r>
       <r>    5.0350    1.0000 </r>
       <r>    5.2837    1.0000 </r>
       <r>    5.2966    1.0000 </r>
       <r>    5.5203    1.0000 </r>
       <r>    5.7068    1.0000 </r>
       <r>    6.0326    1.0060 </r>
       <r>    6.1400    1.0254 </r>
       <r>    7.9334   -0.0000 </r>
       <r>   10.3798   -0.0000 </r>
       <r>   11.3306   -0.0000 </r>
       <r>   14.2220    0.0000 </r>
       <r>   14.8379    0.0000 </r>
       <r>   16.9175    0.0000 </r>
       <r>   17.1730    0.0000 </r>
      </set>
      <set comment="kpoint 83">
       <r>   -1.3010    1.0000 </r>
       <r>    1.0251    1.0000 </r>
       <r>    2.6839    1.0000 </r>
       <r>    3.1108    1.0000 </r>
       <r>    3.2475    1.0000 </r>
       <r>    3.5720    1.0000 </r>
       <r>    3.6338    1.0000 </r>
       <r>    4.0870    1.0000 </r>
       <r>    4.1450    1.0000 </r>
       <r>    4.6278    1.0000 </r>
       <r>    4.9398    1.0000 </r>
       <r>    5.1444    1.0000 </r>
       <r>    5.3079    1.0000 </r>
       <r>    5.4299    1.0000 </r>
       <r>    5.7131    1.0000 </r>
       <r>    5.9094    1.0004 </r>
       <r>    6.0292    1.0056 </r>
       <r>    8.3092   -0.0000 </r>
       <r>   10.2909   -0.0000 </r>
       <r>   11.2767   -0.0000 </r>
       <r>   13.7823    0.0000 </r>
       <r>   14.6334    0.0000 </r>
       <r>   16.9791    0.0000 </r>
       <r>   17.4999    0.0000 </r>
      </set>
      <set comment="kpoint 84">
       <r>   -0.8604    1.0000 </r>
       <r>    0.5222    1.0000 </r>
       <r>    2.7710    1.0000 </r>
       <r>    3.1165    1.0000 </r>
       <r>    3.2982    1.0000 </r>
       <r>    3.5534    1.0000 </r>
       <r>    3.7707    1.0000 </r>
       <r>    4.0291    1.0000 </r>
       <r>    4.2152    1.0000 </r>
       <r>    4.5297    1.0000 </r>
       <r>    4.9140    1.0000 </r>
       <r>    5.0237    1.0000 </r>
       <r>    5.3191    1.0000 </r>
       <r>    5.3725    1.0000 </r>
       <r>    5.7184    1.0000 </r>
       <r>    5.7780    1.0000 </r>
       <r>    6.0071    1.0038 </r>
       <r>    8.7310   -0.0000 </r>
       <r>    9.7707   -0.0000 </r>
       <r>   11.7593   -0.0000 </r>
       <r>   13.1269    0.0000 </r>
       <r>   14.6853    0.0000 </r>
       <r>   16.8796    0.0000 </r>
       <r>   17.7518    0.0000 </r>
      </set>
      <set comment="kpoint 85">
       <r>   -0.5947    1.0000 </r>
       <r>    0.2332    1.0000 </r>
       <r>    2.8041    1.0000 </r>
       <r>    3.1140    1.0000 </r>
       <r>    3.3230    1.0000 </r>
       <r>    3.5293    1.0000 </r>
       <r>    3.9053    1.0000 </r>
       <r>    3.9239    1.0000 </r>
       <r>    4.3054    1.0000 </r>
       <r>    4.4424    1.0000 </r>
       <r>    4.9241    1.0000 </r>
       <r>    4.9635    1.0000 </r>
       <r>    5.3315    1.0000 </r>
       <r>    5.3482    1.0000 </r>
       <r>    5.7218    1.0000 </r>
       <r>    5.7262    1.0000 </r>
       <r>    6.0010    1.0033 </r>
       <r>    9.1027   -0.0000 </r>
       <r>    9.3502   -0.0000 </r>
       <r>   12.1775    0.0000 </r>
       <r>   12.6592    0.0000 </r>
       <r>   14.7172    0.0000 </r>
       <r>   16.8179    0.0000 </r>
       <r>   17.8060    0.0000 </r>
      </set>
      <set comment="kpoint 86">
       <r>   -1.7965    1.0000 </r>
       <r>    2.1178    1.0000 </r>
       <r>    2.1475    1.0000 </r>
       <r>    3.0822    1.0000 </r>
       <r>    3.1594    1.0000 </r>
       <r>    3.3765    1.0000 </r>
       <r>    3.6818    1.0000 </r>
       <r>    3.9634    1.0000 </r>
       <r>    4.2729    1.0000 </r>
       <r>    4.6658    1.0000 </r>
       <r>    5.1357    1.0000 </r>
       <r>    5.2609    1.0000 </r>
       <r>    5.3739    1.0000 </r>
       <r>    5.5328    1.0000 </r>
       <r>    5.6454    1.0000 </r>
       <r>    6.0073    1.0038 </r>
       <r>    6.3808    0.7746 </r>
       <r>    7.4239   -0.0000 </r>
       <r>   10.2935   -0.0000 </r>
       <r>   11.2747   -0.0000 </r>
       <r>   14.3483    0.0000 </r>
       <r>   15.6981    0.0000 </r>
       <r>   15.9996    0.0000 </r>
       <r>   17.8398    0.0000 </r>
      </set>
      <set comment="kpoint 87">
       <r>   -1.4260    1.0000 </r>
       <r>    1.7202    1.0000 </r>
       <r>    2.2948    1.0000 </r>
       <r>    3.1396    1.0000 </r>
       <r>    3.2015    1.0000 </r>
       <r>    3.4628    1.0000 </r>
       <r>    3.7430    1.0000 </r>
       <r>    3.9256    1.0000 </r>
       <r>    4.1533    1.0000 </r>
       <r>    4.6738    1.0000 </r>
       <r>    5.0283    1.0000 </r>
       <r>    5.2741    1.0000 </r>
       <r>    5.3088    1.0000 </r>
       <r>    5.4371    1.0000 </r>
       <r>    5.6220    1.0000 </r>
       <r>    5.9407    1.0009 </r>
       <r>    6.2066    1.0354 </r>
       <r>    7.5249   -0.0000 </r>
       <r>   10.1507   -0.0000 </r>
       <r>   11.1438   -0.0000 </r>
       <r>   14.4349    0.0000 </r>
       <r>   15.0798    0.0000 </r>
       <r>   16.2420    0.0000 </r>
       <r>   17.7543    0.0000 </r>
      </set>
      <set comment="kpoint 88">
       <r>   -1.0112    1.0000 </r>
       <r>    1.2447    1.0000 </r>
       <r>    2.4311    1.0000 </r>
       <r>    3.1797    1.0000 </r>
       <r>    3.2468    1.0000 </r>
       <r>    3.5761    1.0000 </r>
       <r>    3.6964    1.0000 </r>
       <r>    4.0063    1.0000 </r>
       <r>    4.0917    1.0000 </r>
       <r>    4.6326    1.0000 </r>
       <r>    4.9531    1.0000 </r>
       <r>    5.1577    1.0000 </r>
       <r>    5.3325    1.0000 </r>
       <r>    5.3656    1.0000 </r>
       <r>    5.6164    1.0000 </r>
       <r>    5.8890    1.0003 </r>
       <r>    6.0165    1.0045 </r>
       <r>    7.7823   -0.0000 </r>
       <r>    9.5870   -0.0000 </r>
       <r>   11.5602   -0.0000 </r>
       <r>   14.1094    0.0000 </r>
       <r>   14.8219    0.0000 </r>
       <r>   16.5995    0.0000 </r>
       <r>   17.4939    0.0000 </r>
      </set>
      <set comment="kpoint 89">
       <r>   -0.5889    1.0000 </r>
       <r>    0.7724    1.0000 </r>
       <r>    2.5230    1.0000 </r>
       <r>    3.1973    1.0000 </r>
       <r>    3.2891    1.0000 </r>
       <r>    3.5990    1.0000 </r>
       <r>    3.7433    1.0000 </r>
       <r>    3.9665    1.0000 </r>
       <r>    4.2061    1.0000 </r>
       <r>    4.5219    1.0000 </r>
       <r>    4.9302    1.0000 </r>
       <r>    5.0489    1.0000 </r>
       <r>    5.3129    1.0000 </r>
       <r>    5.3688    1.0000 </r>
       <r>    5.6151    1.0000 </r>
       <r>    5.8435    1.0001 </r>
       <r>    5.8944    1.0003 </r>
       <r>    8.1225   -0.0000 </r>
       <r>    9.0338   -0.0000 </r>
       <r>   12.0807    0.0000 </r>
       <r>   13.4800    0.0000 </r>
       <r>   14.9002    0.0000 </r>
       <r>   16.9103    0.0000 </r>
       <r>   17.2507    0.0000 </r>
      </set>
      <set comment="kpoint 90">
       <r>   -0.3410    1.0000 </r>
       <r>    0.5055    1.0000 </r>
       <r>    2.5554    1.0000 </r>
       <r>    3.2008    1.0000 </r>
       <r>    3.3091    1.0000 </r>
       <r>    3.5774    1.0000 </r>
       <r>    3.8259    1.0000 </r>
       <r>    3.9097    1.0000 </r>
       <r>    4.3225    1.0000 </r>
       <r>    4.4136    1.0000 </r>
       <r>    4.9272    1.0000 </r>
       <r>    5.0014    1.0000 </r>
       <r>    5.3082    1.0000 </r>
       <r>    5.3753    1.0000 </r>
       <r>    5.6148    1.0000 </r>
       <r>    5.8070    1.0000 </r>
       <r>    5.8693    1.0002 </r>
       <r>    8.4743   -0.0000 </r>
       <r>    8.6090   -0.0000 </r>
       <r>   12.4621    0.0000 </r>
       <r>   13.0553    0.0000 </r>
       <r>   14.9447    0.0000 </r>
       <r>   17.0400    0.0000 </r>
       <r>   17.1601    0.0000 </r>
      </set>
      <set comment="kpoint 91">
       <r>   -1.0688    1.0000 </r>
       <r>    1.8708    1.0000 </r>
       <r>    1.9654    1.0000 </r>
       <r>    3.1954    1.0000 </r>
       <r>    3.2286    1.0000 </r>
       <r>    3.5155    1.0000 </r>
       <r>    3.8041    1.0000 </r>
       <r>    3.8907    1.0000 </r>
       <r>    4.0741    1.0000 </r>
       <r>    4.6746    1.0000 </r>
       <r>    4.9955    1.0000 </r>
       <r>    5.2274    1.0000 </r>
       <r>    5.3386    1.0000 </r>
       <r>    5.3511    1.0000 </r>
       <r>    5.5587    1.0000 </r>
       <r>    5.8519    1.0001 </r>
       <r>    6.1608    1.0300 </r>
       <r>    7.3708   -0.0000 </r>
       <r>    9.5246   -0.0000 </r>
       <r>   11.4915   -0.0000 </r>
       <r>   14.6286    0.0000 </r>
       <r>   15.1624    0.0000 </r>
       <r>   15.7396    0.0000 </r>
       <r>   17.8861    0.0000 </r>
      </set>
      <set comment="kpoint 92">
       <r>   -0.6716    1.0000 </r>
       <r>    1.4783    1.0000 </r>
       <r>    2.0979    1.0000 </r>
       <r>    3.2284    1.0000 </r>
       <r>    3.2568    1.0000 </r>
       <r>    3.5954    1.0000 </r>
       <r>    3.7393    1.0000 </r>
       <r>    3.9511    1.0000 </r>
       <r>    4.0877    1.0000 </r>
       <r>    4.6205    1.0000 </r>
       <r>    4.9772    1.0000 </r>
       <r>    5.1455    1.0000 </r>
       <r>    5.2792    1.0000 </r>
       <r>    5.3717    1.0000 </r>
       <r>    5.5238    1.0000 </r>
       <r>    5.7823    1.0000 </r>
       <r>    6.0312    1.0058 </r>
       <r>    7.4478   -0.0000 </r>
       <r>    8.9224   -0.0000 </r>
       <r>   11.9582    0.0000 </r>
       <r>   14.4651    0.0000 </r>
       <r>   14.9740    0.0000 </r>
       <r>   15.9385    0.0000 </r>
       <r>   17.6774    0.0000 </r>
      </set>
      <set comment="kpoint 93">
       <r>   -0.2729    1.0000 </r>
       <r>    1.0478    1.0000 </r>
       <r>    2.2194    1.0000 </r>
       <r>    3.2383    1.0000 </r>
       <r>    3.2822    1.0000 </r>
       <r>    3.6372    1.0000 </r>
       <r>    3.7391    1.0000 </r>
       <r>    3.9233    1.0000 </r>
       <r>    4.2198    1.0000 </r>
       <r>    4.5113    1.0000 </r>
       <r>    4.9710    1.0000 </r>
       <r>    5.0558    1.0000 </r>
       <r>    5.2509    1.0000 </r>
       <r>    5.3985    1.0000 </r>
       <r>    5.5048    1.0000 </r>
       <r>    5.7440    1.0000 </r>
       <r>    5.9094    1.0004 </r>
       <r>    7.6678   -0.0000 </r>
       <r>    8.4084   -0.0000 </r>
       <r>   12.4635    0.0000 </r>
       <r>   13.8727    0.0000 </r>
       <r>   15.0955    0.0000 </r>
       <r>   16.2672    0.0000 </r>
       <r>   17.3733    0.0000 </r>
      </set>
      <set comment="kpoint 94">
       <r>   -0.0458    1.0000 </r>
       <r>    0.8078    1.0000 </r>
       <r>    2.2637    1.0000 </r>
       <r>    3.2381    1.0000 </r>
       <r>    3.2943    1.0000 </r>
       <r>    3.6301    1.0000 </r>
       <r>    3.7772    1.0000 </r>
       <r>    3.8991    1.0000 </r>
       <r>    4.3427    1.0000 </r>
       <r>    4.3987    1.0000 </r>
       <r>    4.9663    1.0000 </r>
       <r>    5.0149    1.0000 </r>
       <r>    5.2501    1.0000 </r>
       <r>    5.4104    1.0000 </r>
       <r>    5.4969    1.0000 </r>
       <r>    5.7350    1.0000 </r>
       <r>    5.8581    1.0001 </r>
       <r>    7.9661   -0.0000 </r>
       <r>    8.0147   -0.0000 </r>
       <r>   12.8087    0.0000 </r>
       <r>   13.4866    0.0000 </r>
       <r>   15.1551    0.0000 </r>
       <r>   16.4437    0.0000 </r>
       <r>   17.2129    0.0000 </r>
      </set>
      <set comment="kpoint 95">
       <r>   -0.2975    1.0000 </r>
       <r>    1.6506    1.0000 </r>
       <r>    1.7625    1.0000 </r>
       <r>    3.2301    1.0000 </r>
       <r>    3.2678    1.0000 </r>
       <r>    3.6481    1.0000 </r>
       <r>    3.7484    1.0000 </r>
       <r>    3.9167    1.0000 </r>
       <r>    4.1517    1.0000 </r>
       <r>    4.5718    1.0000 </r>
       <r>    5.0136    1.0000 </r>
       <r>    5.0977    1.0000 </r>
       <r>    5.2129    1.0000 </r>
       <r>    5.4003    1.0000 </r>
       <r>    5.4488    1.0000 </r>
       <r>    5.6879    1.0000 </r>
       <r>    5.9811    1.0023 </r>
       <r>    7.3310   -0.0000 </r>
       <r>    8.3612   -0.0000 </r>
       <r>   12.4140    0.0000 </r>
       <r>   14.7616    0.0000 </r>
       <r>   14.8455    0.0000 </r>
       <r>   15.6768    0.0000 </r>
       <r>   17.6248    0.0000 </r>
      </set>
      <set comment="kpoint 96">
       <r>    0.0722    1.0000 </r>
       <r>    1.3174    1.0000 </r>
       <r>    1.8796    1.0000 </r>
       <r>    3.2047    1.0000 </r>
       <r>    3.2771    1.0000 </r>
       <r>    3.6845    1.0000 </r>
       <r>    3.7699    1.0000 </r>
       <r>    3.8932    1.0000 </r>
       <r>    4.2586    1.0000 </r>
       <r>    4.4871    1.0000 </r>
       <r>    5.0311    1.0000 </r>
       <r>    5.0349    1.0000 </r>
       <r>    5.1857    1.0000 </r>
       <r>    5.3978    1.0000 </r>
       <r>    5.4262    1.0000 </r>
       <r>    5.6276    1.0000 </r>
       <r>    5.9082    1.0004 </r>
       <r>    7.3967   -0.0000 </r>
       <r>    7.9194   -0.0000 </r>
       <r>   12.8952    0.0000 </r>
       <r>   14.2676    0.0000 </r>
       <r>   15.0846    0.0000 </r>
       <r>   15.8388    0.0000 </r>
       <r>   17.3337    0.0000 </r>
      </set>
      <set comment="kpoint 97">
       <r>    0.2769    1.0000 </r>
       <r>    1.1084    1.0000 </r>
       <r>    1.9418    1.0000 </r>
       <r>    3.1898    1.0000 </r>
       <r>    3.2813    1.0000 </r>
       <r>    3.6883    1.0000 </r>
       <r>    3.7935    1.0000 </r>
       <r>    3.8822    1.0000 </r>
       <r>    4.3636    1.0000 </r>
       <r>    4.3917    1.0000 </r>
       <r>    5.0010    1.0000 </r>
       <r>    5.0312    1.0000 </r>
       <r>    5.1875    1.0000 </r>
       <r>    5.3823    1.0000 </r>
       <r>    5.4356    1.0000 </r>
       <r>    5.6078    1.0000 </r>
       <r>    5.8741    1.0002 </r>
       <r>    7.5950   -0.0000 </r>
       <r>    7.6017   -0.0000 </r>
       <r>   13.2132    0.0000 </r>
       <r>   13.9174    0.0000 </r>
       <r>   15.1870    0.0000 </r>
       <r>   15.9639    0.0000 </r>
       <r>   17.1609    0.0000 </r>
      </set>
      <set comment="kpoint 98">
       <r>    0.4094    1.0000 </r>
       <r>    1.5010    1.0000 </r>
       <r>    1.5730    1.0000 </r>
       <r>    3.1344    1.0000 </r>
       <r>    3.2736    1.0000 </r>
       <r>    3.7226    1.0000 </r>
       <r>    3.8156    1.0000 </r>
       <r>    3.8748    1.0000 </r>
       <r>    4.3176    1.0000 </r>
       <r>    4.4443    1.0000 </r>
       <r>    4.9904    1.0000 </r>
       <r>    5.0873    1.0000 </r>
       <r>    5.1431    1.0000 </r>
       <r>    5.3205    1.0000 </r>
       <r>    5.4418    1.0000 </r>
       <r>    5.5469    1.0000 </r>
       <r>    5.8801    1.0002 </r>
       <r>    7.3068   -0.0000 </r>
       <r>    7.5751   -0.0000 </r>
       <r>   13.3535    0.0000 </r>
       <r>   14.5138    0.0000 </r>
       <r>   14.7532    0.0000 </r>
       <r>   15.8583    0.0000 </r>
       <r>   17.0401    0.0000 </r>
      </set>
      <set comment="kpoint 99">
       <r>    0.5936    1.0000 </r>
       <r>    1.3503    1.0000 </r>
       <r>    1.6243    1.0000 </r>
       <r>    3.0981    1.0000 </r>
       <r>    3.2723    1.0000 </r>
       <r>    3.7346    1.0000 </r>
       <r>    3.8393    1.0000 </r>
       <r>    3.8682    1.0000 </r>
       <r>    4.3806    1.0000 </r>
       <r>    4.3884    1.0000 </r>
       <r>    4.9670    1.0000 </r>
       <r>    5.0965    1.0000 </r>
       <r>    5.1414    1.0000 </r>
       <r>    5.2907    1.0000 </r>
       <r>    5.4503    1.0000 </r>
       <r>    5.5180    1.0000 </r>
       <r>    5.8628    1.0001 </r>
       <r>    7.3710   -0.0000 </r>
       <r>    7.3723   -0.0000 </r>
       <r>   13.6630    0.0000 </r>
       <r>   14.2769    0.0000 </r>
       <r>   14.8011    0.0000 </r>
       <r>   15.9246    0.0000 </r>
       <r>   16.8719    0.0000 </r>
      </set>
      <set comment="kpoint 100">
       <r>    0.7690    1.0000 </r>
       <r>    1.4483    1.0000 </r>
       <r>    1.4483    1.0000 </r>
       <r>    3.0508    1.0000 </r>
       <r>    3.2691    1.0000 </r>
       <r>    3.7514    1.0000 </r>
       <r>    3.8629    1.0000 </r>
       <r>    3.8629    1.0000 </r>
       <r>    4.3874    1.0000 </r>
       <r>    4.3874    1.0000 </r>
       <r>    4.9469    1.0000 </r>
       <r>    5.1253    1.0000 </r>
       <r>    5.1253    1.0000 </r>
       <r>    5.2539    1.0000 </r>
       <r>    5.4550    1.0000 </r>
       <r>    5.4875    1.0000 </r>
       <r>    5.8524    1.0001 </r>
       <r>    7.2988   -0.0000 </r>
       <r>    7.2988   -0.0000 </r>
       <r>   14.0121    0.0000 </r>
       <r>   14.4300    0.0000 </r>
       <r>   14.4300    0.0000 </r>
       <r>   15.9684    0.0000 </r>
       <r>   16.7166    0.0000 </r>
      </set>
      <set comment="kpoint 101">
       <r>   -3.2036    1.0000 </r>
       <r>    2.1592    1.0000 </r>
       <r>    2.6998    1.0000 </r>
       <r>    2.6998    1.0000 </r>
       <r>    3.0201    1.0000 </r>
       <r>    3.1804    1.0000 </r>
       <r>    3.1804    1.0000 </r>
       <r>    4.5663    1.0000 </r>
       <r>    4.9678    1.0000 </r>
       <r>    4.9678    1.0000 </r>
       <r>    5.5738    1.0000 </r>
       <r>    5.5738    1.0000 </r>
       <r>    5.7881    1.0000 </r>
       <r>    5.7881    1.0000 </r>
       <r>    5.9609    1.0015 </r>
       <r>    6.2983    0.9788 </r>
       <r>    7.2809   -0.0000 </r>
       <r>    7.7719   -0.0000 </r>
       <r>    7.7719   -0.0000 </r>
       <r>   14.1210    0.0000 </r>
       <r>   14.1210    0.0000 </r>
       <r>   15.0717    0.0000 </r>
       <r>   16.6540    0.0000 </r>
       <r>   17.0214    0.0000 </r>
      </set>
      <set comment="kpoint 102">
       <r>   -3.0164    1.0000 </r>
       <r>    2.1931    1.0000 </r>
       <r>    2.5929    1.0000 </r>
       <r>    2.8144    1.0000 </r>
       <r>    3.0184    1.0000 </r>
       <r>    3.2102    1.0000 </r>
       <r>    3.2492    1.0000 </r>
       <r>    4.4452    1.0000 </r>
       <r>    4.8554    1.0000 </r>
       <r>    4.9861    1.0000 </r>
       <r>    5.3238    1.0000 </r>
       <r>    5.5078    1.0000 </r>
       <r>    5.7024    1.0000 </r>
       <r>    5.7837    1.0000 </r>
       <r>    5.8879    1.0003 </r>
       <r>    6.2814    1.0003 </r>
       <r>    6.9794   -0.0006 </r>
       <r>    7.9347   -0.0000 </r>
       <r>    8.0794   -0.0000 </r>
       <r>   14.0992    0.0000 </r>
       <r>   14.5827    0.0000 </r>
       <r>   15.6081    0.0000 </r>
       <r>   15.9132    0.0000 </r>
       <r>   16.1353    0.0000 </r>
      </set>
      <set comment="kpoint 103">
       <r>   -2.7574    1.0000 </r>
       <r>    2.1017    1.0000 </r>
       <r>    2.5317    1.0000 </r>
       <r>    2.9624    1.0000 </r>
       <r>    3.0314    1.0000 </r>
       <r>    3.2534    1.0000 </r>
       <r>    3.3230    1.0000 </r>
       <r>    4.3376    1.0000 </r>
       <r>    4.7209    1.0000 </r>
       <r>    4.9251    1.0000 </r>
       <r>    5.1279    1.0000 </r>
       <r>    5.4215    1.0000 </r>
       <r>    5.5871    1.0000 </r>
       <r>    5.7804    1.0000 </r>
       <r>    5.8239    1.0000 </r>
       <r>    6.2566    1.0214 </r>
       <r>    6.5436    0.1484 </r>
       <r>    8.3378   -0.0000 </r>
       <r>    8.4463   -0.0000 </r>
       <r>   13.9771    0.0000 </r>
       <r>   14.7365    0.0000 </r>
       <r>   15.0655    0.0000 </r>
       <r>   15.4165    0.0000 </r>
       <r>   16.5787    0.0000 </r>
      </set>
      <set comment="kpoint 104">
       <r>   -2.4301    1.0000 </r>
       <r>    1.7817    1.0000 </r>
       <r>    2.5966    1.0000 </r>
       <r>    3.0556    1.0000 </r>
       <r>    3.1226    1.0000 </r>
       <r>    3.3192    1.0000 </r>
       <r>    3.3919    1.0000 </r>
       <r>    4.2556    1.0000 </r>
       <r>    4.5778    1.0000 </r>
       <r>    4.7576    1.0000 </r>
       <r>    5.0584    1.0000 </r>
       <r>    5.3365    1.0000 </r>
       <r>    5.4475    1.0000 </r>
       <r>    5.7247    1.0000 </r>
       <r>    5.8051    1.0000 </r>
       <r>    6.1824    1.0338 </r>
       <r>    6.2315    1.0323 </r>
       <r>    8.8075   -0.0000 </r>
       <r>    8.8528   -0.0000 </r>
       <r>   13.6079    0.0000 </r>
       <r>   14.0827    0.0000 </r>
       <r>   15.0264    0.0000 </r>
       <r>   15.0810    0.0000 </r>
       <r>   17.3030    0.0000 </r>
      </set>
      <set comment="kpoint 105">
       <r>   -2.0406    1.0000 </r>
       <r>    1.3178    1.0000 </r>
       <r>    2.7084    1.0000 </r>
       <r>    3.0830    1.0000 </r>
       <r>    3.2456    1.0000 </r>
       <r>    3.4405    1.0000 </r>
       <r>    3.4428    1.0000 </r>
       <r>    4.2095    1.0000 </r>
       <r>    4.4354    1.0000 </r>
       <r>    4.6134    1.0000 </r>
       <r>    5.0179    1.0000 </r>
       <r>    5.2691    1.0000 </r>
       <r>    5.2973    1.0000 </r>
       <r>    5.6268    1.0000 </r>
       <r>    5.8118    1.0000 </r>
       <r>    5.9136    1.0005 </r>
       <r>    6.2113    1.0353 </r>
       <r>    9.2850   -0.0000 </r>
       <r>    9.3207   -0.0000 </r>
       <r>   13.0256    0.0000 </r>
       <r>   13.2918    0.0000 </r>
       <r>   14.9360    0.0000 </r>
       <r>   15.2891    0.0000 </r>
       <r>   17.5849    0.0000 </r>
      </set>
      <set comment="kpoint 106">
       <r>   -1.6004    1.0000 </r>
       <r>    0.7837    1.0000 </r>
       <r>    2.8257    1.0000 </r>
       <r>    3.0985    1.0000 </r>
       <r>    3.3118    1.0000 </r>
       <r>    3.4683    1.0000 </r>
       <r>    3.6149    1.0000 </r>
       <r>    4.2064    1.0000 </r>
       <r>    4.2979    1.0000 </r>
       <r>    4.5276    1.0000 </r>
       <r>    4.9751    1.0000 </r>
       <r>    5.1590    1.0000 </r>
       <r>    5.2310    1.0000 </r>
       <r>    5.5155    1.0000 </r>
       <r>    5.7274    1.0000 </r>
       <r>    5.8192    1.0000 </r>
       <r>    6.1977    1.0353 </r>
       <r>    9.7265   -0.0000 </r>
       <r>    9.8696   -0.0000 </r>
       <r>   12.4131    0.0000 </r>
       <r>   12.5406    0.0000 </r>
       <r>   14.9638    0.0000 </r>
       <r>   15.5291    0.0000 </r>
       <r>   17.3664    0.0000 </r>
      </set>
      <set comment="kpoint 107">
       <r>   -1.1426    1.0000 </r>
       <r>    0.2534    1.0000 </r>
       <r>    2.9311    1.0000 </r>
       <r>    3.0845    1.0000 </r>
       <r>    3.3478    1.0000 </r>
       <r>    3.4769    1.0000 </r>
       <r>    3.7878    1.0000 </r>
       <r>    4.1681    1.0000 </r>
       <r>    4.2339    1.0000 </r>
       <r>    4.4838    1.0000 </r>
       <r>    4.9349    1.0000 </r>
       <r>    5.0608    1.0000 </r>
       <r>    5.2285    1.0000 </r>
       <r>    5.4113    1.0000 </r>
       <r>    5.6163    1.0000 </r>
       <r>    5.8243    1.0000 </r>
       <r>    6.1901    1.0347 </r>
       <r>   10.1326   -0.0000 </r>
       <r>   10.4414   -0.0000 </r>
       <r>   11.8473   -0.0000 </r>
       <r>   11.8901   -0.0000 </r>
       <r>   15.0119    0.0000 </r>
       <r>   15.7678    0.0000 </r>
       <r>   17.0298    0.0000 </r>
      </set>
      <set comment="kpoint 108">
       <r>   -0.8590    1.0000 </r>
       <r>   -0.0570    1.0000 </r>
       <r>    2.9953    1.0000 </r>
       <r>    3.0516    1.0000 </r>
       <r>    3.3600    1.0000 </r>
       <r>    3.4792    1.0000 </r>
       <r>    3.8870    1.0000 </r>
       <r>    4.0868    1.0000 </r>
       <r>    4.2526    1.0000 </r>
       <r>    4.4686    1.0000 </r>
       <r>    4.9167    1.0000 </r>
       <r>    5.0256    1.0000 </r>
       <r>    5.2426    1.0000 </r>
       <r>    5.3580    1.0000 </r>
       <r>    5.5793    1.0000 </r>
       <r>    5.8261    1.0000 </r>
       <r>    6.1877    1.0344 </r>
       <r>   10.3365   -0.0000 </r>
       <r>   10.8674   -0.0000 </r>
       <r>   11.3807   -0.0000 </r>
       <r>   11.6457   -0.0000 </r>
       <r>   15.0334    0.0000 </r>
       <r>   15.8910    0.0000 </r>
       <r>   16.8650    0.0000 </r>
      </set>
      <set comment="kpoint 109">
       <r>   -2.8312    1.0000 </r>
       <r>    2.2424    1.0000 </r>
       <r>    2.5874    1.0000 </r>
       <r>    2.8149    1.0000 </r>
       <r>    3.0097    1.0000 </r>
       <r>    3.2513    1.0000 </r>
       <r>    3.3110    1.0000 </r>
       <r>    4.3258    1.0000 </r>
       <r>    4.8039    1.0000 </r>
       <r>    4.9013    1.0000 </r>
       <r>    5.2354    1.0000 </r>
       <r>    5.4085    1.0000 </r>
       <r>    5.6680    1.0000 </r>
       <r>    5.7433    1.0000 </r>
       <r>    5.7922    1.0000 </r>
       <r>    6.2666    1.0143 </r>
       <r>    7.0642   -0.0001 </r>
       <r>    7.6726   -0.0000 </r>
       <r>    8.3020   -0.0000 </r>
       <r>   14.1952    0.0000 </r>
       <r>   15.1134    0.0000 </r>
       <r>   15.1749    0.0000 </r>
       <r>   15.8090    0.0000 </r>
       <r>   16.3091    0.0000 </r>
      </set>
      <set comment="kpoint 110">
       <r>   -2.5750    1.0000 </r>
       <r>    2.1869    1.0000 </r>
       <r>    2.5273    1.0000 </r>
       <r>    2.9248    1.0000 </r>
       <r>    3.0226    1.0000 </r>
       <r>    3.2909    1.0000 </r>
       <r>    3.3904    1.0000 </r>
       <r>    4.2233    1.0000 </r>
       <r>    4.6865    1.0000 </r>
       <r>    4.7682    1.0000 </r>
       <r>    5.1641    1.0000 </r>
       <r>    5.3452    1.0000 </r>
       <r>    5.5755    1.0000 </r>
       <r>    5.7100    1.0000 </r>
       <r>    5.7339    1.0000 </r>
       <r>    6.2367    1.0308 </r>
       <r>    6.7383   -0.0302 </r>
       <r>    7.8503   -0.0000 </r>
       <r>    8.6491   -0.0000 </r>
       <r>   13.7505    0.0000 </r>
       <r>   14.7170    0.0000 </r>
       <r>   15.2167    0.0000 </r>
       <r>   15.7943    0.0000 </r>
       <r>   16.2719    0.0000 </r>
      </set>
      <set comment="kpoint 111">
       <r>   -2.2516    1.0000 </r>
       <r>    1.8865    1.0000 </r>
       <r>    2.5850    1.0000 </r>
       <r>    3.0299    1.0000 </r>
       <r>    3.0953    1.0000 </r>
       <r>    3.3463    1.0000 </r>
       <r>    3.4640    1.0000 </r>
       <r>    4.1519    1.0000 </r>
       <r>    4.5273    1.0000 </r>
       <r>    4.6402    1.0000 </r>
       <r>    5.1190    1.0000 </r>
       <r>    5.2912    1.0000 </r>
       <r>    5.4496    1.0000 </r>
       <r>    5.6352    1.0000 </r>
       <r>    5.7366    1.0000 </r>
       <r>    6.1982    1.0353 </r>
       <r>    6.3597    0.8426 </r>
       <r>    8.2050   -0.0000 </r>
       <r>    9.0461   -0.0000 </r>
       <r>   13.0293    0.0000 </r>
       <r>   14.1424    0.0000 </r>
       <r>   15.0895    0.0000 </r>
       <r>   15.9512    0.0000 </r>
       <r>   16.6174    0.0000 </r>
      </set>
      <set comment="kpoint 112">
       <r>   -1.8673    1.0000 </r>
       <r>    1.4376    1.0000 </r>
       <r>    2.6863    1.0000 </r>
       <r>    3.0671    1.0000 </r>
       <r>    3.2259    1.0000 </r>
       <r>    3.4395    1.0000 </r>
       <r>    3.5156    1.0000 </r>
       <r>    4.1268    1.0000 </r>
       <r>    4.3691    1.0000 </r>
       <r>    4.5440    1.0000 </r>
       <r>    5.0741    1.0000 </r>
       <r>    5.2535    1.0000 </r>
       <r>    5.3105    1.0000 </r>
       <r>    5.5540    1.0000 </r>
       <r>    5.7427    1.0000 </r>
       <r>    6.0491    1.0079 </r>
       <r>    6.1712    1.0320 </r>
       <r>    8.6079   -0.0000 </r>
       <r>    9.4747   -0.0000 </r>
       <r>   12.3099    0.0000 </r>
       <r>   13.4174    0.0000 </r>
       <r>   15.1691    0.0000 </r>
       <r>   16.1620    0.0000 </r>
       <r>   16.9877    0.0000 </r>
      </set>
      <set comment="kpoint 113">
       <r>   -1.4341    1.0000 </r>
       <r>    0.9189    1.0000 </r>
       <r>    2.7869    1.0000 </r>
       <r>    3.0876    1.0000 </r>
       <r>    3.3085    1.0000 </r>
       <r>    3.5167    1.0000 </r>
       <r>    3.6087    1.0000 </r>
       <r>    4.1553    1.0000 </r>
       <r>    4.2293    1.0000 </r>
       <r>    4.4721    1.0000 </r>
       <r>    5.0341    1.0000 </r>
       <r>    5.1687    1.0000 </r>
       <r>    5.2443    1.0000 </r>
       <r>    5.4646    1.0000 </r>
       <r>    5.7489    1.0000 </r>
       <r>    5.8356    1.0001 </r>
       <r>    6.1419    1.0258 </r>
       <r>    9.0350   -0.0000 </r>
       <r>    9.9011   -0.0000 </r>
       <r>   11.6850   -0.0000 </r>
       <r>   12.7149    0.0000 </r>
       <r>   15.2986    0.0000 </r>
       <r>   16.3939    0.0000 </r>
       <r>   17.3289    0.0000 </r>
      </set>
      <set comment="kpoint 114">
       <r>   -0.9862    1.0000 </r>
       <r>    0.4041    1.0000 </r>
       <r>    2.8690    1.0000 </r>
       <r>    3.0831    1.0000 </r>
       <r>    3.3548    1.0000 </r>
       <r>    3.5190    1.0000 </r>
       <r>    3.7798    1.0000 </r>
       <r>    4.0938    1.0000 </r>
       <r>    4.2160    1.0000 </r>
       <r>    4.4190    1.0000 </r>
       <r>    5.0084    1.0000 </r>
       <r>    5.0643    1.0000 </r>
       <r>    5.2534    1.0000 </r>
       <r>    5.3787    1.0000 </r>
       <r>    5.7032    1.0000 </r>
       <r>    5.7537    1.0000 </r>
       <r>    6.1255    1.0220 </r>
       <r>    9.4598   -0.0000 </r>
       <r>   10.1948   -0.0000 </r>
       <r>   11.3018   -0.0000 </r>
       <r>   12.0876    0.0000 </r>
       <r>   15.4124    0.0000 </r>
       <r>   16.6236    0.0000 </r>
       <r>   17.4174    0.0000 </r>
      </set>
      <set comment="kpoint 115">
       <r>   -0.7133    1.0000 </r>
       <r>    0.1064    1.0000 </r>
       <r>    2.9059    1.0000 </r>
       <r>    3.0716    1.0000 </r>
       <r>    3.3718    1.0000 </r>
       <r>    3.5171    1.0000 </r>
       <r>    3.9244    1.0000 </r>
       <r>    3.9673    1.0000 </r>
       <r>    4.2522    1.0000 </r>
       <r>    4.3929    1.0000 </r>
       <r>    5.0057    1.0000 </r>
       <r>    5.0167    1.0000 </r>
       <r>    5.2799    1.0000 </r>
       <r>    5.3248    1.0000 </r>
       <r>    5.6580    1.0000 </r>
       <r>    5.7552    1.0000 </r>
       <r>    6.1201    1.0208 </r>
       <r>    9.7224   -0.0000 </r>
       <r>   10.1792   -0.0000 </r>
       <r>   11.3363   -0.0000 </r>
       <r>   11.7078   -0.0000 </r>
       <r>   15.4586    0.0000 </r>
       <r>   16.7519    0.0000 </r>
       <r>   17.3112    0.0000 </r>
      </set>
      <set comment="kpoint 116">
       <r>   -2.3230    1.0000 </r>
       <r>    2.2527    1.0000 </r>
       <r>    2.4186    1.0000 </r>
       <r>    2.9592    1.0000 </r>
       <r>    3.0415    1.0000 </r>
       <r>    3.3226    1.0000 </r>
       <r>    3.4803    1.0000 </r>
       <r>    4.1218    1.0000 </r>
       <r>    4.5745    1.0000 </r>
       <r>    4.6420    1.0000 </r>
       <r>    5.1972    1.0000 </r>
       <r>    5.2778    1.0000 </r>
       <r>    5.5294    1.0000 </r>
       <r>    5.6059    1.0000 </r>
       <r>    5.6906    1.0000 </r>
       <r>    6.2006    1.0354 </r>
       <r>    6.7722   -0.0226 </r>
       <r>    7.5576   -0.0000 </r>
       <r>    8.9588   -0.0000 </r>
       <r>   12.9899    0.0000 </r>
       <r>   14.7809    0.0000 </r>
       <r>   15.3704    0.0000 </r>
       <r>   15.5859    0.0000 </r>
       <r>   16.6284    0.0000 </r>
      </set>
      <set comment="kpoint 117">
       <r>   -2.0054    1.0000 </r>
       <r>    2.0177    1.0000 </r>
       <r>    2.4539    1.0000 </r>
       <r>    3.0469    1.0000 </r>
       <r>    3.0995    1.0000 </r>
       <r>    3.3652    1.0000 </r>
       <r>    3.5660    1.0000 </r>
       <r>    4.0493    1.0000 </r>
       <r>    4.4034    1.0000 </r>
       <r>    4.5832    1.0000 </r>
       <r>    5.1715    1.0000 </r>
       <r>    5.2536    1.0000 </r>
       <r>    5.4354    1.0000 </r>
       <r>    5.5201    1.0000 </r>
       <r>    5.6740    1.0000 </r>
       <r>    6.1524    1.0281 </r>
       <r>    6.5051    0.2768 </r>
       <r>    7.6874   -0.0000 </r>
       <r>    9.3060   -0.0000 </r>
       <r>   12.2166    0.0000 </r>
       <r>   14.4291    0.0000 </r>
       <r>   15.1607    0.0000 </r>
       <r>   15.8171    0.0000 </r>
       <r>   17.0217    0.0000 </r>
      </set>
      <set comment="kpoint 118">
       <r>   -1.6287    1.0000 </r>
       <r>    1.5926    1.0000 </r>
       <r>    2.5557    1.0000 </r>
       <r>    3.1054    1.0000 </r>
       <r>    3.2091    1.0000 </r>
       <r>    3.4365    1.0000 </r>
       <r>    3.6180    1.0000 </r>
       <r>    4.0342    1.0000 </r>
       <r>    4.2614    1.0000 </r>
       <r>    4.5261    1.0000 </r>
       <r>    5.1032    1.0000 </r>
       <r>    5.2654    1.0000 </r>
       <r>    5.3173    1.0000 </r>
       <r>    5.4476    1.0000 </r>
       <r>    5.6696    1.0000 </r>
       <r>    6.0906    1.0145 </r>
       <r>    6.2092    1.0354 </r>
       <r>    7.9894   -0.0000 </r>
       <r>    9.6454   -0.0000 </r>
       <r>   11.5511   -0.0000 </r>
       <r>   13.7079    0.0000 </r>
       <r>   15.2999    0.0000 </r>
       <r>   16.1732    0.0000 </r>
       <r>   17.2676    0.0000 </r>
      </set>
      <set comment="kpoint 119">
       <r>   -1.2057    1.0000 </r>
       <r>    1.0978    1.0000 </r>
       <r>    2.6424    1.0000 </r>
       <r>    3.1447    1.0000 </r>
       <r>    3.2968    1.0000 </r>
       <r>    3.5411    1.0000 </r>
       <r>    3.6397    1.0000 </r>
       <r>    4.0780    1.0000 </r>
       <r>    4.1602    1.0000 </r>
       <r>    4.4627    1.0000 </r>
       <r>    5.0516    1.0000 </r>
       <r>    5.1964    1.0000 </r>
       <r>    5.2725    1.0000 </r>
       <r>    5.3872    1.0000 </r>
       <r>    5.6672    1.0000 </r>
       <r>    5.9355    1.0008 </r>
       <r>    6.0841    1.0133 </r>
       <r>    8.3502   -0.0000 </r>
       <r>    9.8343   -0.0000 </r>
       <r>   11.1502   -0.0000 </r>
       <r>   13.0031    0.0000 </r>
       <r>   15.4792    0.0000 </r>
       <r>   16.5614    0.0000 </r>
       <r>   17.4738    0.0000 </r>
      </set>
      <set comment="kpoint 120">
       <r>   -0.7725    1.0000 </r>
       <r>    0.6066    1.0000 </r>
       <r>    2.7007    1.0000 </r>
       <r>    3.1602    1.0000 </r>
       <r>    3.3527    1.0000 </r>
       <r>    3.5725    1.0000 </r>
       <r>    3.7413    1.0000 </r>
       <r>    4.0240    1.0000 </r>
       <r>    4.2029    1.0000 </r>
       <r>    4.3928    1.0000 </r>
       <r>    5.0176    1.0000 </r>
       <r>    5.1054    1.0000 </r>
       <r>    5.2754    1.0000 </r>
       <r>    5.3469    1.0000 </r>
       <r>    5.6652    1.0000 </r>
       <r>    5.7896    1.0000 </r>
       <r>    6.0516    1.0082 </r>
       <r>    8.7423   -0.0000 </r>
       <r>    9.6499   -0.0000 </r>
       <r>   11.2348   -0.0000 </r>
       <r>   12.3722    0.0000 </r>
       <r>   15.6291    0.0000 </r>
       <r>   16.9370    0.0000 </r>
       <r>   17.5749    0.0000 </r>
      </set>
      <set comment="kpoint 121">
       <r>   -0.5145    1.0000 </r>
       <r>    0.3269    1.0000 </r>
       <r>    2.7216    1.0000 </r>
       <r>    3.1620    1.0000 </r>
       <r>    3.3748    1.0000 </r>
       <r>    3.5676    1.0000 </r>
       <r>    3.8408    1.0000 </r>
       <r>    3.9456    1.0000 </r>
       <r>    4.2659    1.0000 </r>
       <r>    4.3408    1.0000 </r>
       <r>    5.0031    1.0000 </r>
       <r>    5.0696    1.0000 </r>
       <r>    5.2838    1.0000 </r>
       <r>    5.3287    1.0000 </r>
       <r>    5.6644    1.0000 </r>
       <r>    5.7367    1.0000 </r>
       <r>    6.0418    1.0070 </r>
       <r>    9.0434   -0.0000 </r>
       <r>    9.3691   -0.0000 </r>
       <r>   11.4871   -0.0000 </r>
       <r>   11.9858    0.0000 </r>
       <r>   15.6899    0.0000 </r>
       <r>   17.1565    0.0000 </r>
       <r>   17.5117    0.0000 </r>
      </set>
      <set comment="kpoint 122">
       <r>   -1.6956    1.0000 </r>
       <r>    2.1348    1.0000 </r>
       <r>    2.1960    1.0000 </r>
       <r>    3.1121    1.0000 </r>
       <r>    3.1438    1.0000 </r>
       <r>    3.3914    1.0000 </r>
       <r>    3.6723    1.0000 </r>
       <r>    3.9623    1.0000 </r>
       <r>    4.2706    1.0000 </r>
       <r>    4.5543    1.0000 </r>
       <r>    5.1678    1.0000 </r>
       <r>    5.2519    1.0000 </r>
       <r>    5.3768    1.0000 </r>
       <r>    5.4276    1.0000 </r>
       <r>    5.6288    1.0000 </r>
       <r>    6.0947    1.0153 </r>
       <r>    6.4896    0.3366 </r>
       <r>    7.4478   -0.0000 </r>
       <r>    9.5600   -0.0000 </r>
       <r>   11.5036   -0.0000 </r>
       <r>   14.7080    0.0000 </r>
       <r>   14.8377    0.0000 </r>
       <r>   15.5433    0.0000 </r>
       <r>   17.9830    0.0000 </r>
      </set>
      <set comment="kpoint 123">
       <r>   -1.3296    1.0000 </r>
       <r>    1.7686    1.0000 </r>
       <r>    2.2999    1.0000 </r>
       <r>    3.1694    1.0000 </r>
       <r>    3.2278    1.0000 </r>
       <r>    3.4413    1.0000 </r>
       <r>    3.7340    1.0000 </r>
       <r>    3.9386    1.0000 </r>
       <r>    4.1682    1.0000 </r>
       <r>    4.5218    1.0000 </r>
       <r>    5.1125    1.0000 </r>
       <r>    5.2734    1.0000 </r>
       <r>    5.2943    1.0000 </r>
       <r>    5.3607    1.0000 </r>
       <r>    5.6053    1.0000 </r>
       <r>    6.0291    1.0056 </r>
       <r>    6.2799    1.0020 </r>
       <r>    7.5406   -0.0000 </r>
       <r>    9.6606   -0.0000 </r>
       <r>   11.0652   -0.0000 </r>
       <r>   14.0481    0.0000 </r>
       <r>   15.1153    0.0000 </r>
       <r>   15.7284    0.0000 </r>
       <r>   18.2663    0.0000 </r>
      </set>
      <set comment="kpoint 124">
       <r>   -0.9209    1.0000 </r>
       <r>    1.3081    1.0000 </r>
       <r>    2.4068    1.0000 </r>
       <r>    3.2149    1.0000 </r>
       <r>    3.2971    1.0000 </r>
       <r>    3.5279    1.0000 </r>
       <r>    3.7206    1.0000 </r>
       <r>    3.9840    1.0000 </r>
       <r>    4.1300    1.0000 </r>
       <r>    4.4690    1.0000 </r>
       <r>    5.0608    1.0000 </r>
       <r>    5.1933    1.0000 </r>
       <r>    5.2723    1.0000 </r>
       <r>    5.3461    1.0000 </r>
       <r>    5.5889    1.0000 </r>
       <r>    5.9546    1.0013 </r>
       <r>    6.0674    1.0105 </r>
       <r>    7.7939   -0.0000 </r>
       <r>    9.4098   -0.0000 </r>
       <r>   11.1061   -0.0000 </r>
       <r>   13.3440    0.0000 </r>
       <r>   15.4426    0.0000 </r>
       <r>   16.0061    0.0000 </r>
       <r>   18.0188    0.0000 </r>
      </set>
      <set comment="kpoint 125">
       <r>   -0.5074    1.0000 </r>
       <r>    0.8504    1.0000 </r>
       <r>    2.4751    1.0000 </r>
       <r>    3.2330    1.0000 </r>
       <r>    3.3486    1.0000 </r>
       <r>    3.6065    1.0000 </r>
       <r>    3.7201    1.0000 </r>
       <r>    3.9649    1.0000 </r>
       <r>    4.2046    1.0000 </r>
       <r>    4.3962    1.0000 </r>
       <r>    5.0209    1.0000 </r>
       <r>    5.1118    1.0000 </r>
       <r>    5.2570    1.0000 </r>
       <r>    5.3644    1.0000 </r>
       <r>    5.5729    1.0000 </r>
       <r>    5.8529    1.0001 </r>
       <r>    5.9729    1.0019 </r>
       <r>    8.1212   -0.0000 </r>
       <r>    8.9763   -0.0000 </r>
       <r>   11.4469   -0.0000 </r>
       <r>   12.7177    0.0000 </r>
       <r>   15.6840    0.0000 </r>
       <r>   16.3310    0.0000 </r>
       <r>   17.6126    0.0000 </r>
      </set>
      <set comment="kpoint 126">
       <r>   -0.2684    1.0000 </r>
       <r>    0.5943    1.0000 </r>
       <r>    2.4984    1.0000 </r>
       <r>    3.2353    1.0000 </r>
       <r>    3.3703    1.0000 </r>
       <r>    3.6221    1.0000 </r>
       <r>    3.7490    1.0000 </r>
       <r>    3.9376    1.0000 </r>
       <r>    4.2875    1.0000 </r>
       <r>    4.3266    1.0000 </r>
       <r>    5.0058    1.0000 </r>
       <r>    5.0735    1.0000 </r>
       <r>    5.2587    1.0000 </r>
       <r>    5.3731    1.0000 </r>
       <r>    5.5654    1.0000 </r>
       <r>    5.8028    1.0000 </r>
       <r>    5.9528    1.0012 </r>
       <r>    8.4279   -0.0000 </r>
       <r>    8.6214   -0.0000 </r>
       <r>   11.7341   -0.0000 </r>
       <r>   12.3481    0.0000 </r>
       <r>   15.7738    0.0000 </r>
       <r>   16.5314    0.0000 </r>
       <r>   17.3781    0.0000 </r>
      </set>
      <set comment="kpoint 127">
       <r>   -0.9778    1.0000 </r>
       <r>    1.9410    1.0000 </r>
       <r>    1.9499    1.0000 </r>
       <r>    3.2064    1.0000 </r>
       <r>    3.2813    1.0000 </r>
       <r>    3.4778    1.0000 </r>
       <r>    3.8424    1.0000 </r>
       <r>    3.8591    1.0000 </r>
       <r>    4.1135    1.0000 </r>
       <r>    4.5091    1.0000 </r>
       <r>    5.1110    1.0000 </r>
       <r>    5.1869    1.0000 </r>
       <r>    5.2734    1.0000 </r>
       <r>    5.3529    1.0000 </r>
       <r>    5.5606    1.0000 </r>
       <r>    5.9543    1.0013 </r>
       <r>    6.2236    1.0340 </r>
       <r>    7.3578   -0.0000 </r>
       <r>    9.3305   -0.0000 </r>
       <r>   11.0606   -0.0000 </r>
       <r>   14.3698    0.0000 </r>
       <r>   14.4861    0.0000 </r>
       <r>   15.8676    0.0000 </r>
       <r>   18.1767    0.0000 </r>
      </set>
      <set comment="kpoint 128">
       <r>   -0.5882    1.0000 </r>
       <r>    1.5311    1.0000 </r>
       <r>    2.0978    1.0000 </r>
       <r>    3.2279    1.0000 </r>
       <r>    3.3165    1.0000 </r>
       <r>    3.5569    1.0000 </r>
       <r>    3.7973    1.0000 </r>
       <r>    3.9107    1.0000 </r>
       <r>    4.1330    1.0000 </r>
       <r>    4.4721    1.0000 </r>
       <r>    5.0775    1.0000 </r>
       <r>    5.1194    1.0000 </r>
       <r>    5.2421    1.0000 </r>
       <r>    5.3719    1.0000 </r>
       <r>    5.5276    1.0000 </r>
       <r>    5.8826    1.0002 </r>
       <r>    6.0657    1.0102 </r>
       <r>    7.4284   -0.0000 </r>
       <r>    8.8368   -0.0000 </r>
       <r>   11.3621   -0.0000 </r>
       <r>   13.7242    0.0000 </r>
       <r>   14.8327    0.0000 </r>
       <r>   16.0953    0.0000 </r>
       <r>   17.6597    0.0000 </r>
      </set>
      <set comment="kpoint 129">
       <r>   -0.2006    1.0000 </r>
       <r>    1.1180    1.0000 </r>
       <r>    2.2014    1.0000 </r>
       <r>    3.2301    1.0000 </r>
       <r>    3.3463    1.0000 </r>
       <r>    3.6347    1.0000 </r>
       <r>    3.7668    1.0000 </r>
       <r>    3.9138    1.0000 </r>
       <r>    4.2259    1.0000 </r>
       <r>    4.4100    1.0000 </r>
       <r>    5.0274    1.0000 </r>
       <r>    5.0672    1.0000 </r>
       <r>    5.2438    1.0000 </r>
       <r>    5.3935    1.0000 </r>
       <r>    5.4936    1.0000 </r>
       <r>    5.8386    1.0001 </r>
       <r>    5.9222    1.0006 </r>
       <r>    7.6458   -0.0000 </r>
       <r>    8.3652   -0.0000 </r>
       <r>   11.7692   -0.0000 </r>
       <r>   13.1088    0.0000 </r>
       <r>   15.1824    0.0000 </r>
       <r>   16.3289    0.0000 </r>
       <r>   17.1532    0.0000 </r>
      </set>
      <set comment="kpoint 130">
       <r>    0.0157    1.0000 </r>
       <r>    0.8913    1.0000 </r>
       <r>    2.2380    1.0000 </r>
       <r>    3.2274    1.0000 </r>
       <r>    3.3607    1.0000 </r>
       <r>    3.6666    1.0000 </r>
       <r>    3.7584    1.0000 </r>
       <r>    3.9083    1.0000 </r>
       <r>    4.3144    1.0000 </r>
       <r>    4.3400    1.0000 </r>
       <r>    5.0124    1.0000 </r>
       <r>    5.0345    1.0000 </r>
       <r>    5.2518    1.0000 </r>
       <r>    5.4076    1.0000 </r>
       <r>    5.4738    1.0000 </r>
       <r>    5.8454    1.0001 </r>
       <r>    5.8464    1.0001 </r>
       <r>    7.9203   -0.0000 </r>
       <r>    8.0061   -0.0000 </r>
       <r>   12.0531    0.0000 </r>
       <r>   12.7582    0.0000 </r>
       <r>   15.3403    0.0000 </r>
       <r>   16.4879    0.0000 </r>
       <r>   16.8721    0.0000 </r>
      </set>
      <set comment="kpoint 131">
       <r>   -0.2239    1.0000 </r>
       <r>    1.7295    1.0000 </r>
       <r>    1.7480    1.0000 </r>
       <r>    3.1904    1.0000 </r>
       <r>    3.3318    1.0000 </r>
       <r>    3.6378    1.0000 </r>
       <r>    3.8343    1.0000 </r>
       <r>    3.8739    1.0000 </r>
       <r>    4.1814    1.0000 </r>
       <r>    4.4572    1.0000 </r>
       <r>    5.0173    1.0000 </r>
       <r>    5.1203    1.0000 </r>
       <r>    5.2021    1.0000 </r>
       <r>    5.4009    1.0000 </r>
       <r>    5.4807    1.0000 </r>
       <r>    5.7969    1.0000 </r>
       <r>    5.9967    1.0031 </r>
       <r>    7.2937   -0.0000 </r>
       <r>    8.3065   -0.0000 </r>
       <r>   11.7365   -0.0000 </r>
       <r>   14.0214    0.0000 </r>
       <r>   14.2615    0.0000 </r>
       <r>   16.3035    0.0000 </r>
       <r>   17.1139    0.0000 </r>
      </set>
      <set comment="kpoint 132">
       <r>    0.1310    1.0000 </r>
       <r>    1.3804    1.0000 </r>
       <r>    1.8929    1.0000 </r>
       <r>    3.1440    1.0000 </r>
       <r>    3.3442    1.0000 </r>
       <r>    3.7121    1.0000 </r>
       <r>    3.8284    1.0000 </r>
       <r>    3.8748    1.0000 </r>
       <r>    4.2657    1.0000 </r>
       <r>    4.4175    1.0000 </r>
       <r>    4.9545    1.0000 </r>
       <r>    5.1054    1.0000 </r>
       <r>    5.2091    1.0000 </r>
       <r>    5.4151    1.0000 </r>
       <r>    5.4370    1.0000 </r>
       <r>    5.7401    1.0000 </r>
       <r>    5.9025    1.0004 </r>
       <r>    7.3554   -0.0000 </r>
       <r>    7.8755   -0.0000 </r>
       <r>   12.1578    0.0000 </r>
       <r>   13.5173    0.0000 </r>
       <r>   14.5300    0.0000 </r>
       <r>   16.3882    0.0000 </r>
       <r>   16.7379    0.0000 </r>
      </set>
      <set comment="kpoint 133">
       <r>    0.3218    1.0000 </r>
       <r>    1.1875    1.0000 </r>
       <r>    1.9510    1.0000 </r>
       <r>    3.1234    1.0000 </r>
       <r>    3.3496    1.0000 </r>
       <r>    3.7390    1.0000 </r>
       <r>    3.8269    1.0000 </r>
       <r>    3.8762    1.0000 </r>
       <r>    4.3439    1.0000 </r>
       <r>    4.3602    1.0000 </r>
       <r>    4.9311    1.0000 </r>
       <r>    5.0867    1.0000 </r>
       <r>    5.2256    1.0000 </r>
       <r>    5.4028    1.0000 </r>
       <r>    5.4307    1.0000 </r>
       <r>    5.7265    1.0000 </r>
       <r>    5.8574    1.0001 </r>
       <r>    7.5455   -0.0000 </r>
       <r>    7.5686   -0.0000 </r>
       <r>   12.4341    0.0000 </r>
       <r>   13.1841    0.0000 </r>
       <r>   14.6998    0.0000 </r>
       <r>   16.2797    0.0000 </r>
       <r>   16.7122    0.0000 </r>
      </set>
      <set comment="kpoint 134">
       <r>    0.4474    1.0000 </r>
       <r>    1.5794    1.0000 </r>
       <r>    1.5983    1.0000 </r>
       <r>    3.0438    1.0000 </r>
       <r>    3.3419    1.0000 </r>
       <r>    3.7888    1.0000 </r>
       <r>    3.8523    1.0000 </r>
       <r>    3.8752    1.0000 </r>
       <r>    4.3193    1.0000 </r>
       <r>    4.4068    1.0000 </r>
       <r>    4.8896    1.0000 </r>
       <r>    5.1530    1.0000 </r>
       <r>    5.1709    1.0000 </r>
       <r>    5.3752    1.0000 </r>
       <r>    5.4368    1.0000 </r>
       <r>    5.6589    1.0000 </r>
       <r>    5.8655    1.0001 </r>
       <r>    7.2560   -0.0000 </r>
       <r>    7.5268   -0.0000 </r>
       <r>   12.5804    0.0000 </r>
       <r>   13.8070    0.0000 </r>
       <r>   14.0174    0.0000 </r>
       <r>   15.9932    0.0000 </r>
       <r>   16.8461    0.0000 </r>
      </set>
      <set comment="kpoint 135">
       <r>    0.6121    1.0000 </r>
       <r>    1.4279    1.0000 </r>
       <r>    1.6723    1.0000 </r>
       <r>    2.9981    1.0000 </r>
       <r>    3.3409    1.0000 </r>
       <r>    3.8140    1.0000 </r>
       <r>    3.8534    1.0000 </r>
       <r>    3.8905    1.0000 </r>
       <r>    4.3694    1.0000 </r>
       <r>    4.3750    1.0000 </r>
       <r>    4.8648    1.0000 </r>
       <r>    5.1433    1.0000 </r>
       <r>    5.1866    1.0000 </r>
       <r>    5.3438    1.0000 </r>
       <r>    5.4426    1.0000 </r>
       <r>    5.6325    1.0000 </r>
       <r>    5.8448    1.0001 </r>
       <r>    7.3188   -0.0000 </r>
       <r>    7.3212   -0.0000 </r>
       <r>   12.8590    0.0000 </r>
       <r>   13.5617    0.0000 </r>
       <r>   14.0998    0.0000 </r>
       <r>   15.7844    0.0000 </r>
       <r>   16.9247    0.0000 </r>
      </set>
      <set comment="kpoint 136">
       <r>    0.7617    1.0000 </r>
       <r>    1.5265    1.0000 </r>
       <r>    1.5265    1.0000 </r>
       <r>    2.9394    1.0000 </r>
       <r>    3.3377    1.0000 </r>
       <r>    3.8453    1.0000 </r>
       <r>    3.8453    1.0000 </r>
       <r>    3.9165    1.0000 </r>
       <r>    4.3801    1.0000 </r>
       <r>    4.3801    1.0000 </r>
       <r>    4.8388    1.0000 </r>
       <r>    5.1694    1.0000 </r>
       <r>    5.1694    1.0000 </r>
       <r>    5.3122    1.0000 </r>
       <r>    5.4457    1.0000 </r>
       <r>    5.6012    1.0000 </r>
       <r>    5.8342    1.0001 </r>
       <r>    7.2437   -0.0000 </r>
       <r>    7.2437   -0.0000 </r>
       <r>   13.1642    0.0000 </r>
       <r>   13.7346    0.0000 </r>
       <r>   13.7346    0.0000 </r>
       <r>   15.5706    0.0000 </r>
       <r>   17.0134    0.0000 </r>
      </set>
      <set comment="kpoint 137">
       <r>   -2.6481    1.0000 </r>
       <r>    2.2836    1.0000 </r>
       <r>    2.7046    1.0000 </r>
       <r>    2.7046    1.0000 </r>
       <r>    2.9955    1.0000 </r>
       <r>    3.3337    1.0000 </r>
       <r>    3.3337    1.0000 </r>
       <r>    4.2171    1.0000 </r>
       <r>    4.7743    1.0000 </r>
       <r>    4.7743    1.0000 </r>
       <r>    5.2645    1.0000 </r>
       <r>    5.2645    1.0000 </r>
       <r>    5.6743    1.0000 </r>
       <r>    5.6743    1.0000 </r>
       <r>    5.6813    1.0000 </r>
       <r>    6.2723    1.0095 </r>
       <r>    7.2027   -0.0000 </r>
       <r>    7.8798   -0.0000 </r>
       <r>    7.8798   -0.0000 </r>
       <r>   14.7708    0.0000 </r>
       <r>   14.7708    0.0000 </r>
       <r>   15.0332    0.0000 </r>
       <r>   15.7855    0.0000 </r>
       <r>   15.7855    0.0000 </r>
      </set>
      <set comment="kpoint 138">
       <r>   -2.3950    1.0000 </r>
       <r>    2.2451    1.0000 </r>
       <r>    2.5857    1.0000 </r>
       <r>    2.8576    1.0000 </r>
       <r>    3.0095    1.0000 </r>
       <r>    3.3661    1.0000 </r>
       <r>    3.4184    1.0000 </r>
       <r>    4.1298    1.0000 </r>
       <r>    4.6376    1.0000 </r>
       <r>    4.6608    1.0000 </r>
       <r>    5.1879    1.0000 </r>
       <r>    5.2691    1.0000 </r>
       <r>    5.5780    1.0000 </r>
       <r>    5.5872    1.0000 </r>
       <r>    5.6805    1.0000 </r>
       <r>    6.2532    1.0234 </r>
       <r>    6.9284   -0.0019 </r>
       <r>    7.9642   -0.0000 </r>
       <r>    8.1364   -0.0000 </r>
       <r>   14.0376    0.0000 </r>
       <r>   14.1835    0.0000 </r>
       <r>   15.2642    0.0000 </r>
       <r>   15.7419    0.0000 </r>
       <r>   16.0607    0.0000 </r>
      </set>
      <set comment="kpoint 139">
       <r>   -2.0759    1.0000 </r>
       <r>    1.9754    1.0000 </r>
       <r>    2.5899    1.0000 </r>
       <r>    3.0328    1.0000 </r>
       <r>    3.0462    1.0000 </r>
       <r>    3.4104    1.0000 </r>
       <r>    3.4897    1.0000 </r>
       <r>    4.0801    1.0000 </r>
       <r>    4.4964    1.0000 </r>
       <r>    4.5219    1.0000 </r>
       <r>    5.1561    1.0000 </r>
       <r>    5.2525    1.0000 </r>
       <r>    5.4613    1.0000 </r>
       <r>    5.5162    1.0000 </r>
       <r>    5.6848    1.0000 </r>
       <r>    6.2174    1.0348 </r>
       <r>    6.5161    0.2370 </r>
       <r>    8.3189   -0.0000 </r>
       <r>    8.4255   -0.0000 </r>
       <r>   13.2527    0.0000 </r>
       <r>   13.3692    0.0000 </r>
       <r>   15.6494    0.0000 </r>
       <r>   15.8567    0.0000 </r>
       <r>   16.2815    0.0000 </r>
      </set>
      <set comment="kpoint 140">
       <r>   -1.6973    1.0000 </r>
       <r>    1.5465    1.0000 </r>
       <r>    2.6501    1.0000 </r>
       <r>    3.0940    1.0000 </r>
       <r>    3.2048    1.0000 </r>
       <r>    3.4756    1.0000 </r>
       <r>    3.5310    1.0000 </r>
       <r>    4.0821    1.0000 </r>
       <r>    4.3547    1.0000 </r>
       <r>    4.4156    1.0000 </r>
       <r>    5.1333    1.0000 </r>
       <r>    5.2287    1.0000 </r>
       <r>    5.3364    1.0000 </r>
       <r>    5.4590    1.0000 </r>
       <r>    5.6861    1.0000 </r>
       <r>    6.1694    1.0316 </r>
       <r>    6.1752    1.0327 </r>
       <r>    8.7321   -0.0000 </r>
       <r>    8.7458   -0.0000 </r>
       <r>   12.5332    0.0000 </r>
       <r>   12.5962    0.0000 </r>
       <r>   16.0188    0.0000 </r>
       <r>   16.0476    0.0000 </r>
       <r>   16.5209    0.0000 </r>
      </set>
      <set comment="kpoint 141">
       <r>   -1.2717    1.0000 </r>
       <r>    1.0460    1.0000 </r>
       <r>    2.7105    1.0000 </r>
       <r>    3.1324    1.0000 </r>
       <r>    3.3301    1.0000 </r>
       <r>    3.5475    1.0000 </r>
       <r>    3.5855    1.0000 </r>
       <r>    4.1323    1.0000 </r>
       <r>    4.2142    1.0000 </r>
       <r>    4.3518    1.0000 </r>
       <r>    5.1057    1.0000 </r>
       <r>    5.2169    1.0000 </r>
       <r>    5.2231    1.0000 </r>
       <r>    5.4013    1.0000 </r>
       <r>    5.6848    1.0000 </r>
       <r>    5.9140    1.0005 </r>
       <r>    6.1374    1.0248 </r>
       <r>    9.0359   -0.0000 </r>
       <r>    9.2076   -0.0000 </r>
       <r>   11.8885   -0.0000 </r>
       <r>   11.9240    0.0000 </r>
       <r>   16.1856    0.0000 </r>
       <r>   16.4459    0.0000 </r>
       <r>   16.7950    0.0000 </r>
      </set>
      <set comment="kpoint 142">
       <r>   -0.8350    1.0000 </r>
       <r>    0.5490    1.0000 </r>
       <r>    2.7548    1.0000 </r>
       <r>    3.1471    1.0000 </r>
       <r>    3.3904    1.0000 </r>
       <r>    3.5599    1.0000 </r>
       <r>    3.7346    1.0000 </r>
       <r>    4.0755    1.0000 </r>
       <r>    4.1996    1.0000 </r>
       <r>    4.3140    1.0000 </r>
       <r>    5.0743    1.0000 </r>
       <r>    5.1461    1.0000 </r>
       <r>    5.2290    1.0000 </r>
       <r>    5.3397    1.0000 </r>
       <r>    5.6830    1.0000 </r>
       <r>    5.7564    1.0000 </r>
       <r>    6.1124    1.0190 </r>
       <r>    9.2912   -0.0000 </r>
       <r>    9.6635   -0.0000 </r>
       <r>   11.2852   -0.0000 </r>
       <r>   11.4816   -0.0000 </r>
       <r>   16.3156    0.0000 </r>
       <r>   16.7725    0.0000 </r>
       <r>   17.1142    0.0000 </r>
      </set>
      <set comment="kpoint 143">
       <r>   -0.5736    1.0000 </r>
       <r>    0.2652    1.0000 </r>
       <r>    2.7716    1.0000 </r>
       <r>    3.1481    1.0000 </r>
       <r>    3.4077    1.0000 </r>
       <r>    3.5669    1.0000 </r>
       <r>    3.8436    1.0000 </r>
       <r>    3.9757    1.0000 </r>
       <r>    4.2391    1.0000 </r>
       <r>    4.2923    1.0000 </r>
       <r>    5.0586    1.0000 </r>
       <r>    5.1197    1.0000 </r>
       <r>    5.2527    1.0000 </r>
       <r>    5.2976    1.0000 </r>
       <r>    5.6821    1.0000 </r>
       <r>    5.7030    1.0000 </r>
       <r>    6.1037    1.0172 </r>
       <r>    9.4010   -0.0000 </r>
       <r>    9.9212   -0.0000 </r>
       <r>   10.9784   -0.0000 </r>
       <r>   11.3088   -0.0000 </r>
       <r>   16.3657    0.0000 </r>
       <r>   16.9015    0.0000 </r>
       <r>   17.3742    0.0000 </r>
      </set>
      <set comment="kpoint 144">
       <r>   -2.1465    1.0000 </r>
       <r>    2.2658    1.0000 </r>
       <r>    2.5403    1.0000 </r>
       <r>    2.8694    1.0000 </r>
       <r>    3.0387    1.0000 </r>
       <r>    3.4096    1.0000 </r>
       <r>    3.4900    1.0000 </r>
       <r>    4.0529    1.0000 </r>
       <r>    4.5171    1.0000 </r>
       <r>    4.5588    1.0000 </r>
       <r>    5.2061    1.0000 </r>
       <r>    5.2331    1.0000 </r>
       <r>    5.4723    1.0000 </r>
       <r>    5.5474    1.0000 </r>
       <r>    5.6374    1.0000 </r>
       <r>    6.2417    1.0290 </r>
       <r>    6.9733   -0.0007 </r>
       <r>    7.6754   -0.0000 </r>
       <r>    8.3057   -0.0000 </r>
       <r>   13.2680    0.0000 </r>
       <r>   14.4352    0.0000 </r>
       <r>   14.4371    0.0000 </r>
       <r>   15.9897    0.0000 </r>
       <r>   16.7479    0.0000 </r>
      </set>
      <set comment="kpoint 145">
       <r>   -1.8338    1.0000 </r>
       <r>    2.0749    1.0000 </r>
       <r>    2.5012    1.0000 </r>
       <r>    3.0029    1.0000 </r>
       <r>    3.0962    1.0000 </r>
       <r>    3.4413    1.0000 </r>
       <r>    3.5668    1.0000 </r>
       <r>    4.0111    1.0000 </r>
       <r>    4.3789    1.0000 </r>
       <r>    4.4665    1.0000 </r>
       <r>    5.1914    1.0000 </r>
       <r>    5.2341    1.0000 </r>
       <r>    5.3839    1.0000 </r>
       <r>    5.4620    1.0000 </r>
       <r>    5.6301    1.0000 </r>
       <r>    6.2072    1.0354 </r>
       <r>    6.6641   -0.0310 </r>
       <r>    7.7875   -0.0000 </r>
       <r>    8.5825   -0.0000 </r>
       <r>   12.4758    0.0000 </r>
       <r>   13.6155    0.0000 </r>
       <r>   14.7919    0.0000 </r>
       <r>   16.1763    0.0000 </r>
       <r>   17.1825    0.0000 </r>
      </set>
      <set comment="kpoint 146">
       <r>   -1.4636    1.0000 </r>
       <r>    1.6833    1.0000 </r>
       <r>    2.5365    1.0000 </r>
       <r>    3.1559    1.0000 </r>
       <r>    3.1763    1.0000 </r>
       <r>    3.4801    1.0000 </r>
       <r>    3.6113    1.0000 </r>
       <r>    4.0251    1.0000 </r>
       <r>    4.2638    1.0000 </r>
       <r>    4.3819    1.0000 </r>
       <r>    5.1590    1.0000 </r>
       <r>    5.2291    1.0000 </r>
       <r>    5.3318    1.0000 </r>
       <r>    5.3681    1.0000 </r>
       <r>    5.6276    1.0000 </r>
       <r>    6.1571    1.0292 </r>
       <r>    6.3033    0.9711 </r>
       <r>    8.0741   -0.0000 </r>
       <r>    8.8797   -0.0000 </r>
       <r>   11.7821   -0.0000 </r>
       <r>   12.8575    0.0000 </r>
       <r>   15.1844    0.0000 </r>
       <r>   16.3855    0.0000 </r>
       <r>   17.4511    0.0000 </r>
      </set>
      <set comment="kpoint 147">
       <r>   -1.0496    1.0000 </r>
       <r>    1.2124    1.0000 </r>
       <r>    2.5744    1.0000 </r>
       <r>    3.2130    1.0000 </r>
       <r>    3.3189    1.0000 </r>
       <r>    3.5391    1.0000 </r>
       <r>    3.6319    1.0000 </r>
       <r>    4.0796    1.0000 </r>
       <r>    4.1731    1.0000 </r>
       <r>    4.3179    1.0000 </r>
       <r>    5.1208    1.0000 </r>
       <r>    5.1996    1.0000 </r>
       <r>    5.2778    1.0000 </r>
       <r>    5.3345    1.0000 </r>
       <r>    5.6188    1.0000 </r>
       <r>    6.0013    1.0034 </r>
       <r>    6.1238    1.0216 </r>
       <r>    8.3983   -0.0000 </r>
       <r>    9.1520   -0.0000 </r>
       <r>   11.2427   -0.0000 </r>
       <r>   12.1841    0.0000 </r>
       <r>   15.5972    0.0000 </r>
       <r>   16.5998    0.0000 </r>
       <r>   17.6579    0.0000 </r>
      </set>
      <set comment="kpoint 148">
       <r>   -0.6291    1.0000 </r>
       <r>    0.7429    1.0000 </r>
       <r>    2.6003    1.0000 </r>
       <r>    3.2334    1.0000 </r>
       <r>    3.4082    1.0000 </r>
       <r>    3.6110    1.0000 </r>
       <r>    3.6666    1.0000 </r>
       <r>    4.0509    1.0000 </r>
       <r>    4.1842    1.0000 </r>
       <r>    4.2750    1.0000 </r>
       <r>    5.0863    1.0000 </r>
       <r>    5.1626    1.0000 </r>
       <r>    5.2440    1.0000 </r>
       <r>    5.3351    1.0000 </r>
       <r>    5.6062    1.0000 </r>
       <r>    5.8175    1.0000 </r>
       <r>    6.0869    1.0138 </r>
       <r>    8.7094   -0.0000 </r>
       <r>    9.3030   -0.0000 </r>
       <r>   10.9599   -0.0000 </r>
       <r>   11.6326   -0.0000 </r>
       <r>   15.9772    0.0000 </r>
       <r>   16.7875    0.0000 </r>
       <r>   17.5997    0.0000 </r>
      </set>
      <set comment="kpoint 149">
       <r>   -0.3841    1.0000 </r>
       <r>    0.4791    1.0000 </r>
       <r>    2.6095    1.0000 </r>
       <r>    3.2363    1.0000 </r>
       <r>    3.4351    1.0000 </r>
       <r>    3.6328    1.0000 </r>
       <r>    3.7081    1.0000 </r>
       <r>    4.0070    1.0000 </r>
       <r>    4.2250    1.0000 </r>
       <r>    4.2470    1.0000 </r>
       <r>    5.0740    1.0000 </r>
       <r>    5.1427    1.0000 </r>
       <r>    5.2382    1.0000 </r>
       <r>    5.3364    1.0000 </r>
       <r>    5.5999    1.0000 </r>
       <r>    5.7519    1.0000 </r>
       <r>    6.0746    1.0116 </r>
       <r>    8.8765   -0.0000 </r>
       <r>    9.3020   -0.0000 </r>
       <r>   10.9458   -0.0000 </r>
       <r>   11.3557   -0.0000 </r>
       <r>   16.1604    0.0000 </r>
       <r>   16.8877    0.0000 </r>
       <r>   17.4086    0.0000 </r>
      </set>
      <set comment="kpoint 150">
       <r>   -1.5297    1.0000 </r>
       <r>    2.1112    1.0000 </r>
       <r>    2.3212    1.0000 </r>
       <r>    3.0497    1.0000 </r>
       <r>    3.1778    1.0000 </r>
       <r>    3.4559    1.0000 </r>
       <r>    3.6591    1.0000 </r>
       <r>    3.9600    1.0000 </r>
       <r>    4.2651    1.0000 </r>
       <r>    4.4216    1.0000 </r>
       <r>    5.2013    1.0000 </r>
       <r>    5.2415    1.0000 </r>
       <r>    5.2663    1.0000 </r>
       <r>    5.4300    1.0000 </r>
       <r>    5.5936    1.0000 </r>
       <r>    6.1719    1.0321 </r>
       <r>    6.6520   -0.0261 </r>
       <r>    7.4874   -0.0000 </r>
       <r>    8.7964   -0.0000 </r>
       <r>   11.7384   -0.0000 </r>
       <r>   13.9333    0.0000 </r>
       <r>   13.9940    0.0000 </r>
       <r>   16.3919    0.0000 </r>
       <r>   18.1309    0.0000 </r>
      </set>
      <set comment="kpoint 151">
       <r>   -1.1714    1.0000 </r>
       <r>    1.8285    1.0000 </r>
       <r>    2.3245    1.0000 </r>
       <r>    3.1455    1.0000 </r>
       <r>    3.2677    1.0000 </r>
       <r>    3.4771    1.0000 </r>
       <r>    3.7146    1.0000 </r>
       <r>    3.9601    1.0000 </r>
       <r>    4.1867    1.0000 </r>
       <r>    4.3755    1.0000 </r>
       <r>    5.1521    1.0000 </r>
       <r>    5.2020    1.0000 </r>
       <r>    5.2654    1.0000 </r>
       <r>    5.3774    1.0000 </r>
       <r>    5.5786    1.0000 </r>
       <r>    6.1175    1.0202 </r>
       <r>    6.3918    0.7353 </r>
       <r>    7.5657   -0.0000 </r>
       <r>    8.9662   -0.0000 </r>
       <r>   11.1715   -0.0000 </r>
       <r>   13.1986    0.0000 </r>
       <r>   14.3568    0.0000 </r>
       <r>   16.6175    0.0000 </r>
       <r>   18.1183    0.0000 </r>
      </set>
      <set comment="kpoint 152">
       <r>   -0.7734    1.0000 </r>
       <r>    1.4045    1.0000 </r>
       <r>    2.3763    1.0000 </r>
       <r>    3.2422    1.0000 </r>
       <r>    3.3417    1.0000 </r>
       <r>    3.5201    1.0000 </r>
       <r>    3.7275    1.0000 </r>
       <r>    3.9940    1.0000 </r>
       <r>    4.1617    1.0000 </r>
       <r>    4.3299    1.0000 </r>
       <r>    5.0834    1.0000 </r>
       <r>    5.1599    1.0000 </r>
       <r>    5.2878    1.0000 </r>
       <r>    5.3520    1.0000 </r>
       <r>    5.5623    1.0000 </r>
       <r>    6.0325    1.0060 </r>
       <r>    6.1305    1.0232 </r>
       <r>    7.8055   -0.0000 </r>
       <r>    8.9866   -0.0000 </r>
       <r>   10.8886   -0.0000 </r>
       <r>   12.5160    0.0000 </r>
       <r>   14.7738    0.0000 </r>
       <r>   16.8265    0.0000 </r>
       <r>   17.5590    0.0000 </r>
      </set>
      <set comment="kpoint 153">
       <r>   -0.3755    1.0000 </r>
       <r>    0.9750    1.0000 </r>
       <r>    2.4094    1.0000 </r>
       <r>    3.2812    1.0000 </r>
       <r>    3.4159    1.0000 </r>
       <r>    3.5688    1.0000 </r>
       <r>    3.7374    1.0000 </r>
       <r>    3.9893    1.0000 </r>
       <r>    4.2002    1.0000 </r>
       <r>    4.2899    1.0000 </r>
       <r>    5.0425    1.0000 </r>
       <r>    5.1106    1.0000 </r>
       <r>    5.3065    1.0000 </r>
       <r>    5.3637    1.0000 </r>
       <r>    5.5365    1.0000 </r>
       <r>    5.8684    1.0002 </r>
       <r>    6.0466    1.0075 </r>
       <r>    8.0962   -0.0000 </r>
       <r>    8.8015   -0.0000 </r>
       <r>   10.9423   -0.0000 </r>
       <r>   11.9401    0.0000 </r>
       <r>   15.1667    0.0000 </r>
       <r>   16.8550    0.0000 </r>
       <r>   17.1990    0.0000 </r>
      </set>
      <set comment="kpoint 154">
       <r>   -0.1517    1.0000 </r>
       <r>    0.7381    1.0000 </r>
       <r>    2.4204    1.0000 </r>
       <r>    3.2860    1.0000 </r>
       <r>    3.4518    1.0000 </r>
       <r>    3.5889    1.0000 </r>
       <r>    3.7446    1.0000 </r>
       <r>    3.9783    1.0000 </r>
       <r>    4.2319    1.0000 </r>
       <r>    4.2674    1.0000 </r>
       <r>    5.0333    1.0000 </r>
       <r>    5.0849    1.0000 </r>
       <r>    5.3149    1.0000 </r>
       <r>    5.3775    1.0000 </r>
       <r>    5.5201    1.0000 </r>
       <r>    5.7956    1.0000 </r>
       <r>    6.0279    1.0055 </r>
       <r>    8.3169   -0.0000 </r>
       <r>    8.5967   -0.0000 </r>
       <r>   11.1021   -0.0000 </r>
       <r>   11.6258   -0.0000 </r>
       <r>   15.3639    0.0000 </r>
       <r>   16.6919    0.0000 </r>
       <r>   17.1960    0.0000 </r>
      </set>
      <set comment="kpoint 155">
       <r>   -0.8292    1.0000 </r>
       <r>    1.9056    1.0000 </r>
       <r>    2.0759    1.0000 </r>
       <r>    3.1579    1.0000 </r>
       <r>    3.3518    1.0000 </r>
       <r>    3.5033    1.0000 </r>
       <r>    3.7919    1.0000 </r>
       <r>    3.9235    1.0000 </r>
       <r>    4.1532    1.0000 </r>
       <r>    4.3665    1.0000 </r>
       <r>    5.0703    1.0000 </r>
       <r>    5.1891    1.0000 </r>
       <r>    5.2532    1.0000 </r>
       <r>    5.3783    1.0000 </r>
       <r>    5.5521    1.0000 </r>
       <r>    6.0592    1.0092 </r>
       <r>    6.3316    0.9165 </r>
       <r>    7.3346   -0.0000 </r>
       <r>    8.8899   -0.0000 </r>
       <r>   10.8597   -0.0000 </r>
       <r>   13.5162    0.0000 </r>
       <r>   13.6623    0.0000 </r>
       <r>   16.8170    0.0000 </r>
       <r>   17.5414    0.0000 </r>
      </set>
      <set comment="kpoint 156">
       <r>   -0.4531    1.0000 </r>
       <r>    1.6011    1.0000 </r>
       <r>    2.1166    1.0000 </r>
       <r>    3.1827    1.0000 </r>
       <r>    3.3970    1.0000 </r>
       <r>    3.5686    1.0000 </r>
       <r>    3.8098    1.0000 </r>
       <r>    3.9365    1.0000 </r>
       <r>    4.1736    1.0000 </r>
       <r>    4.3489    1.0000 </r>
       <r>    4.9882    1.0000 </r>
       <r>    5.1673    1.0000 </r>
       <r>    5.2626    1.0000 </r>
       <r>    5.3852    1.0000 </r>
       <r>    5.5335    1.0000 </r>
       <r>    5.9871    1.0025 </r>
       <r>    6.1309    1.0233 </r>
       <r>    7.3930   -0.0000 </r>
       <r>    8.6134   -0.0000 </r>
       <r>   10.8937   -0.0000 </r>
       <r>   12.8936    0.0000 </r>
       <r>   14.0143    0.0000 </r>
       <r>   16.6694    0.0000 </r>
       <r>   17.2913    0.0000 </r>
      </set>
      <set comment="kpoint 157">
       <r>   -0.0855    1.0000 </r>
       <r>    1.2281    1.0000 </r>
       <r>    2.1822    1.0000 </r>
       <r>    3.1980    1.0000 </r>
       <r>    3.4363    1.0000 </r>
       <r>    3.6096    1.0000 </r>
       <r>    3.8351    1.0000 </r>
       <r>    3.9329    1.0000 </r>
       <r>    4.2344    1.0000 </r>
       <r>    4.3230    1.0000 </r>
       <r>    4.9365    1.0000 </r>
       <r>    5.1265    1.0000 </r>
       <r>    5.3059    1.0000 </r>
       <r>    5.3978    1.0000 </r>
       <r>    5.5019    1.0000 </r>
       <r>    5.8867    1.0003 </r>
       <r>    5.9869    1.0025 </r>
       <r>    7.5992   -0.0000 </r>
       <r>    8.2539   -0.0000 </r>
       <r>   11.1474   -0.0000 </r>
       <r>   12.3101    0.0000 </r>
       <r>   14.4091    0.0000 </r>
       <r>   16.1955    0.0000 </r>
       <r>   17.4272    0.0000 </r>
      </set>
      <set comment="kpoint 158">
       <r>    0.1124    1.0000 </r>
       <r>    1.0256    1.0000 </r>
       <r>    2.2052    1.0000 </r>
       <r>    3.2014    1.0000 </r>
       <r>    3.4578    1.0000 </r>
       <r>    3.6157    1.0000 </r>
       <r>    3.8607    1.0000 </r>
       <r>    3.9200    1.0000 </r>
       <r>    4.2802    1.0000 </r>
       <r>    4.2958    1.0000 </r>
       <r>    4.9195    1.0000 </r>
       <r>    5.1096    1.0000 </r>
       <r>    5.3310    1.0000 </r>
       <r>    5.4088    1.0000 </r>
       <r>    5.4763    1.0000 </r>
       <r>    5.8238    1.0000 </r>
       <r>    5.9549    1.0013 </r>
       <r>    7.8258   -0.0000 </r>
       <r>    7.9709   -0.0000 </r>
       <r>   11.3666   -0.0000 </r>
       <r>   11.9895    0.0000 </r>
       <r>   14.6105    0.0000 </r>
       <r>   15.9547    0.0000 </r>
       <r>   17.5001    0.0000 </r>
      </set>
      <set comment="kpoint 159">
       <r>   -0.1068    1.0000 </r>
       <r>    1.7308    1.0000 </r>
       <r>    1.8547    1.0000 </r>
       <r>    3.1131    1.0000 </r>
       <r>    3.4257    1.0000 </r>
       <r>    3.6572    1.0000 </r>
       <r>    3.8284    1.0000 </r>
       <r>    3.9519    1.0000 </r>
       <r>    4.2133    1.0000 </r>
       <r>    4.3600    1.0000 </r>
       <r>    4.8985    1.0000 </r>
       <r>    5.1983    1.0000 </r>
       <r>    5.2184    1.0000 </r>
       <r>    5.4071    1.0000 </r>
       <r>    5.5228    1.0000 </r>
       <r>    5.9171    1.0005 </r>
       <r>    6.0385    1.0066 </r>
       <r>    7.2275   -0.0000 </r>
       <r>    8.1741   -0.0000 </r>
       <r>   11.1277   -0.0000 </r>
       <r>   13.2122    0.0000 </r>
       <r>   13.4194    0.0000 </r>
       <r>   16.0680    0.0000 </r>
       <r>   17.4994    0.0000 </r>
      </set>
      <set comment="kpoint 160">
       <r>    0.2216    1.0000 </r>
       <r>    1.4742    1.0000 </r>
       <r>    1.9273    1.0000 </r>
       <r>    3.0598    1.0000 </r>
       <r>    3.4468    1.0000 </r>
       <r>    3.7043    1.0000 </r>
       <r>    3.8473    1.0000 </r>
       <r>    3.9790    1.0000 </r>
       <r>    4.2758    1.0000 </r>
       <r>    4.3550    1.0000 </r>
       <r>    4.8388    1.0000 </r>
       <r>    5.1664    1.0000 </r>
       <r>    5.2556    1.0000 </r>
       <r>    5.4206    1.0000 </r>
       <r>    5.4982    1.0000 </r>
       <r>    5.8524    1.0001 </r>
       <r>    5.9101    1.0005 </r>
       <r>    7.2809   -0.0000 </r>
       <r>    7.7822   -0.0000 </r>
       <r>   11.4675   -0.0000 </r>
       <r>   12.7133    0.0000 </r>
       <r>   13.7237    0.0000 </r>
       <r>   15.5305    0.0000 </r>
       <r>   17.7070    0.0000 </r>
      </set>
      <set comment="kpoint 161">
       <r>    0.3889    1.0000 </r>
       <r>    1.3135    1.0000 </r>
       <r>    1.9723    1.0000 </r>
       <r>    3.0395    1.0000 </r>
       <r>    3.4557    1.0000 </r>
       <r>    3.7092    1.0000 </r>
       <r>    3.8695    1.0000 </r>
       <r>    3.9855    1.0000 </r>
       <r>    4.3284    1.0000 </r>
       <r>    4.3288    1.0000 </r>
       <r>    4.8183    1.0000 </r>
       <r>    5.1532    1.0000 </r>
       <r>    5.2794    1.0000 </r>
       <r>    5.4269    1.0000 </r>
       <r>    5.4740    1.0000 </r>
       <r>    5.8283    1.0001 </r>
       <r>    5.8535    1.0001 </r>
       <r>    7.4525   -0.0000 </r>
       <r>    7.5038   -0.0000 </r>
       <r>   11.7089   -0.0000 </r>
       <r>   12.3946    0.0000 </r>
       <r>   13.9219    0.0000 </r>
       <r>   15.2799    0.0000 </r>
       <r>   17.7935    0.0000 </r>
      </set>
      <set comment="kpoint 162">
       <r>    0.5015    1.0000 </r>
       <r>    1.6464    1.0000 </r>
       <r>    1.7036    1.0000 </r>
       <r>    2.9369    1.0000 </r>
       <r>    3.4503    1.0000 </r>
       <r>    3.7803    1.0000 </r>
       <r>    3.8274    1.0000 </r>
       <r>    4.0580    1.0000 </r>
       <r>    4.3225    1.0000 </r>
       <r>    4.3710    1.0000 </r>
       <r>    4.7703    1.0000 </r>
       <r>    5.2124    1.0000 </r>
       <r>    5.2152    1.0000 </r>
       <r>    5.4304    1.0000 </r>
       <r>    5.4721    1.0000 </r>
       <r>    5.7860    1.0000 </r>
       <r>    5.8437    1.0001 </r>
       <r>    7.1663   -0.0000 </r>
       <r>    7.4357   -0.0000 </r>
       <r>   11.8457   -0.0000 </r>
       <r>   13.0278    0.0000 </r>
       <r>   13.2035    0.0000 </r>
       <r>   14.9837    0.0000 </r>
       <r>   17.9348    0.0000 </r>
      </set>
      <set comment="kpoint 163">
       <r>    0.6358    1.0000 </r>
       <r>    1.5507    1.0000 </r>
       <r>    1.7548    1.0000 </r>
       <r>    2.8845    1.0000 </r>
       <r>    3.4510    1.0000 </r>
       <r>    3.7931    1.0000 </r>
       <r>    3.8377    1.0000 </r>
       <r>    4.0884    1.0000 </r>
       <r>    4.3591    1.0000 </r>
       <r>    4.3612    1.0000 </r>
       <r>    4.7455    1.0000 </r>
       <r>    5.2036    1.0000 </r>
       <r>    5.2366    1.0000 </r>
       <r>    5.4323    1.0000 </r>
       <r>    5.4421    1.0000 </r>
       <r>    5.7616    1.0000 </r>
       <r>    5.8129    1.0000 </r>
       <r>    7.2231   -0.0000 </r>
       <r>    7.2323   -0.0000 </r>
       <r>   12.1038    0.0000 </r>
       <r>   12.7775    0.0000 </r>
       <r>   13.3197    0.0000 </r>
       <r>   14.7353    0.0000 </r>
       <r>   18.0270    0.0000 </r>
      </set>
      <set comment="kpoint 164">
       <r>    0.7508    1.0000 </r>
       <r>    1.6502    1.0000 </r>
       <r>    1.6502    1.0000 </r>
       <r>    2.8146    1.0000 </r>
       <r>    3.4487    1.0000 </r>
       <r>    3.8270    1.0000 </r>
       <r>    3.8270    1.0000 </r>
       <r>    4.1296    1.0000 </r>
       <r>    4.3727    1.0000 </r>
       <r>    4.3727    1.0000 </r>
       <r>    4.7182    1.0000 </r>
       <r>    5.2286    1.0000 </r>
       <r>    5.2286    1.0000 </r>
       <r>    5.4050    1.0000 </r>
       <r>    5.4314    1.0000 </r>
       <r>    5.7303    1.0000 </r>
       <r>    5.8018    1.0000 </r>
       <r>    7.1466   -0.0000 </r>
       <r>    7.1466   -0.0000 </r>
       <r>   12.3885    0.0000 </r>
       <r>   12.9660    0.0000 </r>
       <r>   12.9660    0.0000 </r>
       <r>   14.4929    0.0000 </r>
       <r>   18.1207    0.0000 </r>
      </set>
      <set comment="kpoint 165">
       <r>   -1.9033    1.0000 </r>
       <r>    2.2470    1.0000 </r>
       <r>    2.7000    1.0000 </r>
       <r>    2.7000    1.0000 </r>
       <r>    3.0922    1.0000 </r>
       <r>    3.5039    1.0000 </r>
       <r>    3.5039    1.0000 </r>
       <r>    3.9972    1.0000 </r>
       <r>    4.4422    1.0000 </r>
       <r>    4.4422    1.0000 </r>
       <r>    5.2184    1.0000 </r>
       <r>    5.2184    1.0000 </r>
       <r>    5.3514    1.0000 </r>
       <r>    5.5626    1.0000 </r>
       <r>    5.5626    1.0000 </r>
       <r>    6.2506    1.0249 </r>
       <r>    7.0908   -0.0000 </r>
       <r>    7.8279   -0.0000 </r>
       <r>    7.8279   -0.0000 </r>
       <r>   13.5528    0.0000 </r>
       <r>   13.5528    0.0000 </r>
       <r>   13.6261    0.0000 </r>
       <r>   16.9170    0.0000 </r>
       <r>   16.9170    0.0000 </r>
      </set>
      <set comment="kpoint 166">
       <r>   -1.5977    1.0000 </r>
       <r>    2.1105    1.0000 </r>
       <r>    2.5464    1.0000 </r>
       <r>    2.8862    1.0000 </r>
       <r>    3.1727    1.0000 </r>
       <r>    3.5215    1.0000 </r>
       <r>    3.5826    1.0000 </r>
       <r>    3.9749    1.0000 </r>
       <r>    4.3370    1.0000 </r>
       <r>    4.3555    1.0000 </r>
       <r>    5.2135    1.0000 </r>
       <r>    5.2200    1.0000 </r>
       <r>    5.2631    1.0000 </r>
       <r>    5.4758    1.0000 </r>
       <r>    5.5751    1.0000 </r>
       <r>    6.2300    1.0327 </r>
       <r>    6.8263   -0.0115 </r>
       <r>    7.8588   -0.0000 </r>
       <r>    8.0029   -0.0000 </r>
       <r>   12.7554    0.0000 </r>
       <r>   12.7916    0.0000 </r>
       <r>   13.9297    0.0000 </r>
       <r>   17.1218    0.0000 </r>
       <r>   17.4961    0.0000 </r>
      </set>
      <set comment="kpoint 167">
       <r>   -1.2373    1.0000 </r>
       <r>    1.7862    1.0000 </r>
       <r>    2.4899    1.0000 </r>
       <r>    3.0826    1.0000 </r>
       <r>    3.2555    1.0000 </r>
       <r>    3.5405    1.0000 </r>
       <r>    3.6275    1.0000 </r>
       <r>    4.0061    1.0000 </r>
       <r>    4.2638    1.0000 </r>
       <r>    4.2690    1.0000 </r>
       <r>    5.1516    1.0000 </r>
       <r>    5.1984    1.0000 </r>
       <r>    5.2732    1.0000 </r>
       <r>    5.3970    1.0000 </r>
       <r>    5.5786    1.0000 </r>
       <r>    6.1889    1.0345 </r>
       <r>    6.4260    0.6010 </r>
       <r>    8.1584   -0.0000 </r>
       <r>    8.1865   -0.0000 </r>
       <r>   12.0477    0.0000 </r>
       <r>   12.0713    0.0000 </r>
       <r>   14.3235    0.0000 </r>
       <r>   17.3446    0.0000 </r>
       <r>   17.7042    0.0000 </r>
      </set>
      <set comment="kpoint 168">
       <r>   -0.8367    1.0000 </r>
       <r>    1.3584    1.0000 </r>
       <r>    2.4787    1.0000 </r>
       <r>    3.2681    1.0000 </r>
       <r>    3.3093    1.0000 </r>
       <r>    3.5558    1.0000 </r>
       <r>    3.6645    1.0000 </r>
       <r>    4.0680    1.0000 </r>
       <r>    4.1760    1.0000 </r>
       <r>    4.2394    1.0000 </r>
       <r>    5.0913    1.0000 </r>
       <r>    5.1634    1.0000 </r>
       <r>    5.3063    1.0000 </r>
       <r>    5.3517    1.0000 </r>
       <r>    5.5684    1.0000 </r>
       <r>    6.0895    1.0143 </r>
       <r>    6.1413    1.0257 </r>
       <r>    8.3600   -0.0000 </r>
       <r>    8.5132   -0.0000 </r>
       <r>   11.3960   -0.0000 </r>
       <r>   11.5300   -0.0000 </r>
       <r>   14.7463    0.0000 </r>
       <r>   17.3720    0.0000 </r>
       <r>   17.5573    0.0000 </r>
      </set>
      <set comment="kpoint 169">
       <r>   -0.4354    1.0000 </r>
       <r>    0.9238    1.0000 </r>
       <r>    2.4781    1.0000 </r>
       <r>    3.3251    1.0000 </r>
       <r>    3.4171    1.0000 </r>
       <r>    3.5575    1.0000 </r>
       <r>    3.7125    1.0000 </r>
       <r>    4.1063    1.0000 </r>
       <r>    4.1087    1.0000 </r>
       <r>    4.2415    1.0000 </r>
       <r>    5.0544    1.0000 </r>
       <r>    5.1289    1.0000 </r>
       <r>    5.3414    1.0000 </r>
       <r>    5.3431    1.0000 </r>
       <r>    5.5459    1.0000 </r>
       <r>    5.8573    1.0001 </r>
       <r>    6.1038    1.0172 </r>
       <r>    8.4930   -0.0000 </r>
       <r>    8.8406   -0.0000 </r>
       <r>   10.8929   -0.0000 </r>
       <r>   11.1712   -0.0000 </r>
       <r>   15.1508    0.0000 </r>
       <r>   16.8766    0.0000 </r>
       <r>   17.7178    0.0000 </r>
      </set>
      <set comment="kpoint 170">
       <r>   -0.2090    1.0000 </r>
       <r>    0.6836    1.0000 </r>
       <r>    2.4786    1.0000 </r>
       <r>    3.3261    1.0000 </r>
       <r>    3.4917    1.0000 </r>
       <r>    3.5409    1.0000 </r>
       <r>    3.7367    1.0000 </r>
       <r>    4.0779    1.0000 </r>
       <r>    4.1174    1.0000 </r>
       <r>    4.2495    1.0000 </r>
       <r>    5.0420    1.0000 </r>
       <r>    5.1171    1.0000 </r>
       <r>    5.3437    1.0000 </r>
       <r>    5.3622    1.0000 </r>
       <r>    5.5313    1.0000 </r>
       <r>    5.7693    1.0000 </r>
       <r>    6.0898    1.0144 </r>
       <r>    8.5449   -0.0000 </r>
       <r>    8.9937   -0.0000 </r>
       <r>   10.6814   -0.0000 </r>
       <r>   11.0432   -0.0000 </r>
       <r>   15.3601    0.0000 </r>
       <r>   16.6294    0.0000 </r>
       <r>   17.7789    0.0000 </r>
      </set>
      <set comment="kpoint 171">
       <r>   -1.3021    1.0000 </r>
       <r>    2.0720    1.0000 </r>
       <r>    2.4849    1.0000 </r>
       <r>    2.8867    1.0000 </r>
       <r>    3.2703    1.0000 </r>
       <r>    3.5480    1.0000 </r>
       <r>    3.6452    1.0000 </r>
       <r>    3.9569    1.0000 </r>
       <r>    4.2550    1.0000 </r>
       <r>    4.3079    1.0000 </r>
       <r>    5.1363    1.0000 </r>
       <r>    5.2277    1.0000 </r>
       <r>    5.2363    1.0000 </r>
       <r>    5.4586    1.0000 </r>
       <r>    5.5417    1.0000 </r>
       <r>    6.2193    1.0346 </r>
       <r>    6.8373   -0.0098 </r>
       <r>    7.5409   -0.0000 </r>
       <r>    8.0981   -0.0000 </r>
       <r>   12.0173    0.0000 </r>
       <r>   13.0857    0.0000 </r>
       <r>   13.1531    0.0000 </r>
       <r>   17.4772    0.0000 </r>
       <r>   18.0348    0.0000 </r>
      </set>
      <set comment="kpoint 172">
       <r>   -0.9556    1.0000 </r>
       <r>    1.8698    1.0000 </r>
       <r>    2.3855    1.0000 </r>
       <r>    3.0187    1.0000 </r>
       <r>    3.3608    1.0000 </r>
       <r>    3.5590    1.0000 </r>
       <r>    3.6968    1.0000 </r>
       <r>    3.9823    1.0000 </r>
       <r>    4.2044    1.0000 </r>
       <r>    4.2682    1.0000 </r>
       <r>    5.0439    1.0000 </r>
       <r>    5.2154    1.0000 </r>
       <r>    5.2588    1.0000 </r>
       <r>    5.4160    1.0000 </r>
       <r>    5.5390    1.0000 </r>
       <r>    6.1819    1.0337 </r>
       <r>    6.5293    0.1923 </r>
       <r>    7.5977   -0.0000 </r>
       <r>    8.2581   -0.0000 </r>
       <r>   11.3889   -0.0000 </r>
       <r>   12.3903    0.0000 </r>
       <r>   13.5118    0.0000 </r>
       <r>   17.2591    0.0000 </r>
       <r>   17.8337    0.0000 </r>
      </set>
      <set comment="kpoint 173">
       <r>   -0.5740    1.0000 </r>
       <r>    1.5182    1.0000 </r>
       <r>    2.3476    1.0000 </r>
       <r>    3.1725    1.0000 </r>
       <r>    3.4107    1.0000 </r>
       <r>    3.5701    1.0000 </r>
       <r>    3.7490    1.0000 </r>
       <r>    4.0217    1.0000 </r>
       <r>    4.1850    1.0000 </r>
       <r>    4.2444    1.0000 </r>
       <r>    4.9750    1.0000 </r>
       <r>    5.1804    1.0000 </r>
       <r>    5.2994    1.0000 </r>
       <r>    5.4010    1.0000 </r>
       <r>    5.5289    1.0000 </r>
       <r>    6.1199    1.0207 </r>
       <r>    6.1877    1.0344 </r>
       <r>    7.8024   -0.0000 </r>
       <r>    8.3922   -0.0000 </r>
       <r>   10.9359   -0.0000 </r>
       <r>   11.7691   -0.0000 </r>
       <r>   13.9346    0.0000 </r>
       <r>   16.6234    0.0000 </r>
       <r>   18.0474    0.0000 </r>
      </set>
      <set comment="kpoint 174">
       <r>   -0.1999    1.0000 </r>
       <r>    1.1376    1.0000 </r>
       <r>    2.3356    1.0000 </r>
       <r>    3.2863    1.0000 </r>
       <r>    3.4397    1.0000 </r>
       <r>    3.5596    1.0000 </r>
       <r>    3.8243    1.0000 </r>
       <r>    4.0228    1.0000 </r>
       <r>    4.1738    1.0000 </r>
       <r>    4.2546    1.0000 </r>
       <r>    4.9328    1.0000 </r>
       <r>    5.1505    1.0000 </r>
       <r>    5.3542    1.0000 </r>
       <r>    5.4167    1.0000 </r>
       <r>    5.5011    1.0000 </r>
       <r>    5.8973    1.0003 </r>
       <r>    6.0995    1.0163 </r>
       <r>    8.0042   -0.0000 </r>
       <r>    8.4544   -0.0000 </r>
       <r>   10.7091   -0.0000 </r>
       <r>   11.2959   -0.0000 </r>
       <r>   14.3451    0.0000 </r>
       <r>   16.0686    0.0000 </r>
       <r>   18.2286    0.0000 </r>
      </set>
      <set comment="kpoint 175">
       <r>    0.0021    1.0000 </r>
       <r>    0.9302    1.0000 </r>
       <r>    2.3326    1.0000 </r>
       <r>    3.3211    1.0000 </r>
       <r>    3.4706    1.0000 </r>
       <r>    3.5382    1.0000 </r>
       <r>    3.8670    1.0000 </r>
       <r>    4.0101    1.0000 </r>
       <r>    4.1661    1.0000 </r>
       <r>    4.2665    1.0000 </r>
       <r>    4.9186    1.0000 </r>
       <r>    5.1418    1.0000 </r>
       <r>    5.3960    1.0000 </r>
       <r>    5.4258    1.0000 </r>
       <r>    5.4817    1.0000 </r>
       <r>    5.7852    1.0000 </r>
       <r>    6.0822    1.0130 </r>
       <r>    8.1016   -0.0000 </r>
       <r>    8.4541   -0.0000 </r>
       <r>   10.6735   -0.0000 </r>
       <r>   11.0889   -0.0000 </r>
       <r>   14.5620    0.0000 </r>
       <r>   15.8026    0.0000 </r>
       <r>   18.3000    0.0000 </r>
      </set>
      <set comment="kpoint 176">
       <r>   -0.6281    1.0000 </r>
       <r>    1.8642    1.0000 </r>
       <r>    2.2392    1.0000 </r>
       <r>    3.0220    1.0000 </r>
       <r>    3.4444    1.0000 </r>
       <r>    3.5891    1.0000 </r>
       <r>    3.7496    1.0000 </r>
       <r>    3.9940    1.0000 </r>
       <r>    4.1883    1.0000 </r>
       <r>    4.2701    1.0000 </r>
       <r>    4.9434    1.0000 </r>
       <r>    5.2327    1.0000 </r>
       <r>    5.2417    1.0000 </r>
       <r>    5.4139    1.0000 </r>
       <r>    5.5286    1.0000 </r>
       <r>    6.1448    1.0265 </r>
       <r>    6.4771    0.3871 </r>
       <r>    7.2999   -0.0000 </r>
       <r>    8.2843   -0.0000 </r>
       <r>   10.9142   -0.0000 </r>
       <r>   12.7177    0.0000 </r>
       <r>   12.8283    0.0000 </r>
       <r>   16.5476    0.0000 </r>
       <r>   18.1039    0.0000 </r>
      </set>
      <set comment="kpoint 177">
       <r>   -0.2731    1.0000 </r>
       <r>    1.6628    1.0000 </r>
       <r>    2.1761    1.0000 </r>
       <r>    3.0724    1.0000 </r>
       <r>    3.4870    1.0000 </r>
       <r>    3.6263    1.0000 </r>
       <r>    3.7972    1.0000 </r>
       <r>    4.0298    1.0000 </r>
       <r>    4.2083    1.0000 </r>
       <r>    4.2717    1.0000 </r>
       <r>    4.8659    1.0000 </r>
       <r>    5.1996    1.0000 </r>
       <r>    5.2753    1.0000 </r>
       <r>    5.4181    1.0000 </r>
       <r>    5.5281    1.0000 </r>
       <r>    6.0843    1.0133 </r>
       <r>    6.2208    1.0344 </r>
       <r>    7.3376   -0.0000 </r>
       <r>    8.2050   -0.0000 </r>
       <r>   10.6960   -0.0000 </r>
       <r>   12.1244    0.0000 </r>
       <r>   13.1943    0.0000 </r>
       <r>   15.8689    0.0000 </r>
       <r>   18.3651    0.0000 </r>
      </set>
      <set comment="kpoint 178">
       <r>    0.0638    1.0000 </r>
       <r>    1.3667    1.0000 </r>
       <r>    2.1725    1.0000 </r>
       <r>    3.1209    1.0000 </r>
       <r>    3.5269    1.0000 </r>
       <r>    3.6134    1.0000 </r>
       <r>    3.8796    1.0000 </r>
       <r>    4.0345    1.0000 </r>
       <r>    4.2378    1.0000 </r>
       <r>    4.2817    1.0000 </r>
       <r>    4.8177    1.0000 </r>
       <r>    5.1737    1.0000 </r>
       <r>    5.3277    1.0000 </r>
       <r>    5.4287    1.0000 </r>
       <r>    5.5298    1.0000 </r>
       <r>    5.9181    1.0006 </r>
       <r>    6.0684    1.0106 </r>
       <r>    7.5120   -0.0000 </r>
       <r>    8.0266   -0.0000 </r>
       <r>   10.7266   -0.0000 </r>
       <r>   11.6033   -0.0000 </r>
       <r>   13.6029    0.0000 </r>
       <r>   15.2988    0.0000 </r>
       <r>   18.5707    0.0000 </r>
      </set>
      <set comment="kpoint 179">
       <r>    0.2353    1.0000 </r>
       <r>    1.2030    1.0000 </r>
       <r>    2.1741    1.0000 </r>
       <r>    3.1389    1.0000 </r>
       <r>    3.5709    1.0000 </r>
       <r>    3.5765    1.0000 </r>
       <r>    3.9289    1.0000 </r>
       <r>    4.0219    1.0000 </r>
       <r>    4.2432    1.0000 </r>
       <r>    4.2935    1.0000 </r>
       <r>    4.8015    1.0000 </r>
       <r>    5.1685    1.0000 </r>
       <r>    5.3631    1.0000 </r>
       <r>    5.4217    1.0000 </r>
       <r>    5.5498    1.0000 </r>
       <r>    5.7930    1.0000 </r>
       <r>    6.0447    1.0073 </r>
       <r>    7.6606   -0.0000 </r>
       <r>    7.8724   -0.0000 </r>
       <r>   10.8344   -0.0000 </r>
       <r>   11.3394   -0.0000 </r>
       <r>   13.8227    0.0000 </r>
       <r>   15.0250    0.0000 </r>
       <r>   18.6522    0.0000 </r>
      </set>
      <set comment="kpoint 180">
       <r>    0.0449    1.0000 </r>
       <r>    1.7197    1.0000 </r>
       <r>    2.0155    1.0000 </r>
       <r>    2.9982    1.0000 </r>
       <r>    3.5337    1.0000 </r>
       <r>    3.7017    1.0000 </r>
       <r>    3.7953    1.0000 </r>
       <r>    4.1073    1.0000 </r>
       <r>    4.2428    1.0000 </r>
       <r>    4.2991    1.0000 </r>
       <r>    4.7780    1.0000 </r>
       <r>    5.2301    1.0000 </r>
       <r>    5.2365    1.0000 </r>
       <r>    5.4258    1.0000 </r>
       <r>    5.5476    1.0000 </r>
       <r>    6.0286    1.0056 </r>
       <r>    6.1208    1.0209 </r>
       <r>    7.1285   -0.0000 </r>
       <r>    7.9163   -0.0000 </r>
       <r>   10.7219   -0.0000 </r>
       <r>   12.4574    0.0000 </r>
       <r>   12.6050    0.0000 </r>
       <r>   15.1784    0.0000 </r>
       <r>   18.6493    0.0000 </r>
      </set>
      <set comment="kpoint 181">
       <r>    0.3325    1.0000 </r>
       <r>    1.5830    1.0000 </r>
       <r>    1.9965    1.0000 </r>
       <r>    2.9575    1.0000 </r>
       <r>    3.5708    1.0000 </r>
       <r>    3.7056    1.0000 </r>
       <r>    3.8401    1.0000 </r>
       <r>    4.1647    1.0000 </r>
       <r>    4.2884    1.0000 </r>
       <r>    4.3179    1.0000 </r>
       <r>    4.7211    1.0000 </r>
       <r>    5.2094    1.0000 </r>
       <r>    5.2753    1.0000 </r>
       <r>    5.4319    1.0000 </r>
       <r>    5.5693    1.0000 </r>
       <r>    5.9024    1.0004 </r>
       <r>    5.9936    1.0029 </r>
       <r>    7.1666   -0.0000 </r>
       <r>    7.6120   -0.0000 </r>
       <r>   10.9247   -0.0000 </r>
       <r>   11.9761    0.0000 </r>
       <r>   12.9391    0.0000 </r>
       <r>   14.6036    0.0000 </r>
       <r>   18.8701    0.0000 </r>
      </set>
      <set comment="kpoint 182">
       <r>    0.4678    1.0000 </r>
       <r>    1.4770    1.0000 </r>
       <r>    2.0110    1.0000 </r>
       <r>    2.9451    1.0000 </r>
       <r>    3.5891    1.0000 </r>
       <r>    3.6922    1.0000 </r>
       <r>    3.8697    1.0000 </r>
       <r>    4.1816    1.0000 </r>
       <r>    4.3082    1.0000 </r>
       <r>    4.3269    1.0000 </r>
       <r>    4.7016    1.0000 </r>
       <r>    5.2089    1.0000 </r>
       <r>    5.2970    1.0000 </r>
       <r>    5.4314    1.0000 </r>
       <r>    5.5956    1.0000 </r>
       <r>    5.7854    1.0000 </r>
       <r>    5.9701    1.0018 </r>
       <r>    7.3042   -0.0000 </r>
       <r>    7.3926   -0.0000 </r>
       <r>   11.1052   -0.0000 </r>
       <r>   11.6875   -0.0000 </r>
       <r>   13.1556    0.0000 </r>
       <r>   14.3276    0.0000 </r>
       <r>   18.9576    0.0000 </r>
      </set>
      <set comment="kpoint 183">
       <r>    0.5600    1.0000 </r>
       <r>    1.7227    1.0000 </r>
       <r>    1.8623    1.0000 </r>
       <r>    2.8274    1.0000 </r>
       <r>    3.5901    1.0000 </r>
       <r>    3.7820    1.0000 </r>
       <r>    3.8154    1.0000 </r>
       <r>    4.2748    1.0000 </r>
       <r>    4.3273    1.0000 </r>
       <r>    4.3490    1.0000 </r>
       <r>    4.6546    1.0000 </r>
       <r>    5.2498    1.0000 </r>
       <r>    5.2545    1.0000 </r>
       <r>    5.4294    1.0000 </r>
       <r>    5.5819    1.0000 </r>
       <r>    5.8291    1.0001 </r>
       <r>    5.9086    1.0004 </r>
       <r>    7.0325   -0.0002 </r>
       <r>    7.2881   -0.0000 </r>
       <r>   11.2242   -0.0000 </r>
       <r>   12.3028    0.0000 </r>
       <r>   12.4313    0.0000 </r>
       <r>   14.0308    0.0000 </r>
       <r>   19.0997    0.0000 </r>
      </set>
      <set comment="kpoint 184">
       <r>    0.6583    1.0000 </r>
       <r>    1.7077    1.0000 </r>
       <r>    1.8697    1.0000 </r>
       <r>    2.7741    1.0000 </r>
       <r>    3.5960    1.0000 </r>
       <r>    3.7858    1.0000 </r>
       <r>    3.8347    1.0000 </r>
       <r>    4.3102    1.0000 </r>
       <r>    4.3519    1.0000 </r>
       <r>    4.3587    1.0000 </r>
       <r>    4.6304    1.0000 </r>
       <r>    5.2592    1.0000 </r>
       <r>    5.2737    1.0000 </r>
       <r>    5.4243    1.0000 </r>
       <r>    5.5758    1.0000 </r>
       <r>    5.7647    1.0000 </r>
       <r>    5.8862    1.0002 </r>
       <r>    7.0786   -0.0000 </r>
       <r>    7.0971   -0.0000 </r>
       <r>   11.4462   -0.0000 </r>
       <r>   12.0536    0.0000 </r>
       <r>   12.5811    0.0000 </r>
       <r>   13.7591    0.0000 </r>
       <r>   19.1901    0.0000 </r>
      </set>
      <set comment="kpoint 185">
       <r>    0.7375    1.0000 </r>
       <r>    1.8082    1.0000 </r>
       <r>    1.8082    1.0000 </r>
       <r>    2.6958    1.0000 </r>
       <r>    3.5972    1.0000 </r>
       <r>    3.8232    1.0000 </r>
       <r>    3.8232    1.0000 </r>
       <r>    4.3660    1.0000 </r>
       <r>    4.3674    1.0000 </r>
       <r>    4.3674    1.0000 </r>
       <r>    4.6033    1.0000 </r>
       <r>    5.2880    1.0000 </r>
       <r>    5.2880    1.0000 </r>
       <r>    5.4140    1.0000 </r>
       <r>    5.5283    1.0000 </r>
       <r>    5.7523    1.0000 </r>
       <r>    5.8557    1.0001 </r>
       <r>    7.0025   -0.0003 </r>
       <r>    7.0025   -0.0003 </r>
       <r>   11.6984   -0.0000 </r>
       <r>   12.2516    0.0000 </r>
       <r>   12.2516    0.0000 </r>
       <r>   13.4947    0.0000 </r>
       <r>   19.2813    0.0000 </r>
      </set>
      <set comment="kpoint 186">
       <r>   -1.0187    1.0000 </r>
       <r>    2.0042    1.0000 </r>
       <r>    2.6737    1.0000 </r>
       <r>    2.6737    1.0000 </r>
       <r>    3.3785    1.0000 </r>
       <r>    3.6332    1.0000 </r>
       <r>    3.6332    1.0000 </r>
       <r>    3.9676    1.0000 </r>
       <r>    4.2398    1.0000 </r>
       <r>    4.2398    1.0000 </r>
       <r>    5.0211    1.0000 </r>
       <r>    5.2392    1.0000 </r>
       <r>    5.2392    1.0000 </r>
       <r>    5.4850    1.0000 </r>
       <r>    5.4850    1.0000 </r>
       <r>    6.2308    1.0325 </r>
       <r>    6.9332   -0.0017 </r>
       <r>    7.6037   -0.0000 </r>
       <r>    7.6037   -0.0000 </r>
       <r>   12.3367    0.0000 </r>
       <r>   12.3367    0.0000 </r>
       <r>   12.3742    0.0000 </r>
       <r>   17.2412    0.0000 </r>
       <r>   18.5538    0.0000 </r>
      </set>
      <set comment="kpoint 187">
       <r>   -0.6890    1.0000 </r>
       <r>    1.8701    1.0000 </r>
       <r>    2.4612    1.0000 </r>
       <r>    2.8681    1.0000 </r>
       <r>    3.4691    1.0000 </r>
       <r>    3.6247    1.0000 </r>
       <r>    3.7007    1.0000 </r>
       <r>    4.0142    1.0000 </r>
       <r>    4.2188    1.0000 </r>
       <r>    4.2207    1.0000 </r>
       <r>    4.9266    1.0000 </r>
       <r>    5.2266    1.0000 </r>
       <r>    5.2568    1.0000 </r>
       <r>    5.4473    1.0000 </r>
       <r>    5.5008    1.0000 </r>
       <r>    6.2093    1.0354 </r>
       <r>    6.6580   -0.0288 </r>
       <r>    7.6005   -0.0000 </r>
       <r>    7.6684   -0.0000 </r>
       <r>   11.6538   -0.0000 </r>
       <r>   11.7154   -0.0000 </r>
       <r>   12.7309    0.0000 </r>
       <r>   16.4944    0.0000 </r>
       <r>   18.7983    0.0000 </r>
      </set>
      <set comment="kpoint 188">
       <r>   -0.3312    1.0000 </r>
       <r>    1.6257    1.0000 </r>
       <r>    2.3213    1.0000 </r>
       <r>    3.0417    1.0000 </r>
       <r>    3.5023    1.0000 </r>
       <r>    3.6201    1.0000 </r>
       <r>    3.7935    1.0000 </r>
       <r>    4.0629    1.0000 </r>
       <r>    4.2013    1.0000 </r>
       <r>    4.2351    1.0000 </r>
       <r>    4.8563    1.0000 </r>
       <r>    5.1968    1.0000 </r>
       <r>    5.2930    1.0000 </r>
       <r>    5.4501    1.0000 </r>
       <r>    5.4973    1.0000 </r>
       <r>    6.1676    1.0313 </r>
       <r>    6.2623    1.0176 </r>
       <r>    7.7255   -0.0000 </r>
       <r>    7.8223   -0.0000 </r>
       <r>   11.0623   -0.0000 </r>
       <r>   11.2474   -0.0000 </r>
       <r>   13.1495    0.0000 </r>
       <r>   15.8051    0.0000 </r>
       <r>   19.0278    0.0000 </r>
      </set>
      <set comment="kpoint 189">
       <r>    0.0087    1.0000 </r>
       <r>    1.3249    1.0000 </r>
       <r>    2.2586    1.0000 </r>
       <r>    3.1639    1.0000 </r>
       <r>    3.5000    1.0000 </r>
       <r>    3.6186    1.0000 </r>
       <r>    3.9063    1.0000 </r>
       <r>    4.0637    1.0000 </r>
       <r>    4.1866    1.0000 </r>
       <r>    4.2677    1.0000 </r>
       <r>    4.8128    1.0000 </r>
       <r>    5.1782    1.0000 </r>
       <r>    5.3472    1.0000 </r>
       <r>    5.4678    1.0000 </r>
       <r>    5.5011    1.0000 </r>
       <r>    5.9380    1.0009 </r>
       <r>    6.1272    1.0224 </r>
       <r>    7.7654   -0.0000 </r>
       <r>    8.0345   -0.0000 </r>
       <r>   10.6425   -0.0000 </r>
       <r>   10.9554   -0.0000 </r>
       <r>   13.5642    0.0000 </r>
       <r>   15.2265    0.0000 </r>
       <r>   19.1983    0.0000 </r>
      </set>
      <set comment="kpoint 190">
       <r>    0.1818    1.0000 </r>
       <r>    1.1598    1.0000 </r>
       <r>    2.2415    1.0000 </r>
       <r>    3.2082    1.0000 </r>
       <r>    3.4962    1.0000 </r>
       <r>    3.6185    1.0000 </r>
       <r>    3.9844    1.0000 </r>
       <r>    4.0283    1.0000 </r>
       <r>    4.1811    1.0000 </r>
       <r>    4.2815    1.0000 </r>
       <r>    4.7979    1.0000 </r>
       <r>    5.1755    1.0000 </r>
       <r>    5.3997    1.0000 </r>
       <r>    5.4246    1.0000 </r>
       <r>    5.5685    1.0000 </r>
       <r>    5.7715    1.0000 </r>
       <r>    6.1106    1.0186 </r>
       <r>    7.7798   -0.0000 </r>
       <r>    8.1251   -0.0000 </r>
       <r>   10.4837   -0.0000 </r>
       <r>   10.8560   -0.0000 </r>
       <r>   13.7910    0.0000 </r>
       <r>   14.9450    0.0000 </r>
       <r>   19.2626    0.0000 </r>
      </set>
      <set comment="kpoint 191">
       <r>   -0.3831    1.0000 </r>
       <r>    1.8204    1.0000 </r>
       <r>    2.4237    1.0000 </r>
       <r>    2.8303    1.0000 </r>
       <r>    3.5520    1.0000 </r>
       <r>    3.6679    1.0000 </r>
       <r>    3.7233    1.0000 </r>
       <r>    4.0855    1.0000 </r>
       <r>    4.2176    1.0000 </r>
       <r>    4.2329    1.0000 </r>
       <r>    4.8270    1.0000 </r>
       <r>    5.2334    1.0000 </r>
       <r>    5.2460    1.0000 </r>
       <r>    5.4504    1.0000 </r>
       <r>    5.4978    1.0000 </r>
       <r>    6.1987    1.0353 </r>
       <r>    6.6356   -0.0159 </r>
       <r>    7.2548   -0.0000 </r>
       <r>    7.6683   -0.0000 </r>
       <r>   11.1208   -0.0000 </r>
       <r>   12.0236    0.0000 </r>
       <r>   12.0621    0.0000 </r>
       <r>   15.7290    0.0000 </r>
       <r>   19.2618    0.0000 </r>
      </set>
      <set comment="kpoint 192">
       <r>   -0.0593    1.0000 </r>
       <r>    1.7009    1.0000 </r>
       <r>    2.2787    1.0000 </r>
       <r>    2.9183    1.0000 </r>
       <r>    3.5833    1.0000 </r>
       <r>    3.6833    1.0000 </r>
       <r>    3.8005    1.0000 </r>
       <r>    4.1635    1.0000 </r>
       <r>    4.2342    1.0000 </r>
       <r>    4.2559    1.0000 </r>
       <r>    4.7513    1.0000 </r>
       <r>    5.2107    1.0000 </r>
       <r>    5.2687    1.0000 </r>
       <r>    5.4568    1.0000 </r>
       <r>    5.5096    1.0000 </r>
       <r>    6.1592    1.0296 </r>
       <r>    6.3237    0.9338 </r>
       <r>    7.2608   -0.0000 </r>
       <r>    7.6830   -0.0000 </r>
       <r>   10.7350   -0.0000 </r>
       <r>   11.4745   -0.0000 </r>
       <r>   12.4455    0.0000 </r>
       <r>   15.0313    0.0000 </r>
       <r>   19.5405    0.0000 </r>
      </set>
      <set comment="kpoint 193">
       <r>    0.2335    1.0000 </r>
       <r>    1.5185    1.0000 </r>
       <r>    2.1807    1.0000 </r>
       <r>    2.9992    1.0000 </r>
       <r>    3.5947    1.0000 </r>
       <r>    3.6832    1.0000 </r>
       <r>    3.8920    1.0000 </r>
       <r>    4.1954    1.0000 </r>
       <r>    4.2413    1.0000 </r>
       <r>    4.3005    1.0000 </r>
       <r>    4.7038    1.0000 </r>
       <r>    5.2003    1.0000 </r>
       <r>    5.3089    1.0000 </r>
       <r>    5.4598    1.0000 </r>
       <r>    5.5555    1.0000 </r>
       <r>    5.9727    1.0019 </r>
       <r>    6.1276    1.0225 </r>
       <r>    7.3642   -0.0000 </r>
       <r>    7.6766   -0.0000 </r>
       <r>   10.5408   -0.0000 </r>
       <r>   11.0681   -0.0000 </r>
       <r>   12.8538    0.0000 </r>
       <r>   14.4453    0.0000 </r>
       <r>   19.7389    0.0000 </r>
      </set>
      <set comment="kpoint 194">
       <r>    0.3711    1.0000 </r>
       <r>    1.4117    1.0000 </r>
       <r>    2.1516    1.0000 </r>
       <r>    3.0286    1.0000 </r>
       <r>    3.5974    1.0000 </r>
       <r>    3.6853    1.0000 </r>
       <r>    3.9315    1.0000 </r>
       <r>    4.2024    1.0000 </r>
       <r>    4.2423    1.0000 </r>
       <r>    4.3180    1.0000 </r>
       <r>    4.6875    1.0000 </r>
       <r>    5.2027    1.0000 </r>
       <r>    5.3349    1.0000 </r>
       <r>    5.4466    1.0000 </r>
       <r>    5.6676    1.0000 </r>
       <r>    5.7529    1.0000 </r>
       <r>    6.1080    1.0181 </r>
       <r>    7.4159   -0.0000 </r>
       <r>    7.6655   -0.0000 </r>
       <r>   10.4975   -0.0000 </r>
       <r>   10.9060   -0.0000 </r>
       <r>   13.0843    0.0000 </r>
       <r>   14.1555    0.0000 </r>
       <r>   19.8140    0.0000 </r>
      </set>
      <set comment="kpoint 195">
       <r>    0.2168    1.0000 </r>
       <r>    1.7249    1.0000 </r>
       <r>    2.1947    1.0000 </r>
       <r>    2.8529    1.0000 </r>
       <r>    3.6423    1.0000 </r>
       <r>    3.7621    1.0000 </r>
       <r>    3.7877    1.0000 </r>
       <r>    4.2693    1.0000 </r>
       <r>    4.2727    1.0000 </r>
       <r>    4.3047    1.0000 </r>
       <r>    4.6682    1.0000 </r>
       <r>    5.2288    1.0000 </r>
       <r>    5.2428    1.0000 </r>
       <r>    5.4540    1.0000 </r>
       <r>    5.5400    1.0000 </r>
       <r>    6.1200    1.0207 </r>
       <r>    6.2380    1.0303 </r>
       <r>    6.9966   -0.0004 </r>
       <r>    7.5282   -0.0000 </r>
       <r>   10.5595   -0.0000 </r>
       <r>   11.8104   -0.0000 </r>
       <r>   11.8700   -0.0000 </r>
       <r>   14.3317    0.0000 </r>
       <r>   19.8556    0.0000 </r>
      </set>
      <set comment="kpoint 196">
       <r>    0.4480    1.0000 </r>
       <r>    1.6952    1.0000 </r>
       <r>    2.1040    1.0000 </r>
       <r>    2.8409    1.0000 </r>
       <r>    3.6882    1.0000 </r>
       <r>    3.7500    1.0000 </r>
       <r>    3.8555    1.0000 </r>
       <r>    4.2941    1.0000 </r>
       <r>    4.2978    1.0000 </r>
       <r>    4.3998    1.0000 </r>
       <r>    4.6141    1.0000 </r>
       <r>    5.2300    1.0000 </r>
       <r>    5.2671    1.0000 </r>
       <r>    5.4535    1.0000 </r>
       <r>    5.5911    1.0000 </r>
       <r>    5.9710    1.0018 </r>
       <r>    6.0867    1.0138 </r>
       <r>    7.0095   -0.0003 </r>
       <r>    7.3465   -0.0000 </r>
       <r>   10.5785   -0.0000 </r>
       <r>   11.3639   -0.0000 </r>
       <r>   12.2301    0.0000 </r>
       <r>   13.7455    0.0000 </r>
       <r>   20.0768    0.0000 </r>
      </set>
      <set comment="kpoint 197">
       <r>    0.5462    1.0000 </r>
       <r>    1.6643    1.0000 </r>
       <r>    2.0692    1.0000 </r>
       <r>    2.8425    1.0000 </r>
       <r>    3.7128    1.0000 </r>
       <r>    3.7346    1.0000 </r>
       <r>    3.8882    1.0000 </r>
       <r>    4.3044    1.0000 </r>
       <r>    4.3053    1.0000 </r>
       <r>    4.4322    1.0000 </r>
       <r>    4.5951    1.0000 </r>
       <r>    5.2395    1.0000 </r>
       <r>    5.2843    1.0000 </r>
       <r>    5.4485    1.0000 </r>
       <r>    5.7269    1.0000 </r>
       <r>    5.7317    1.0000 </r>
       <r>    6.0661    1.0103 </r>
       <r>    7.0958   -0.0000 </r>
       <r>    7.2176   -0.0000 </r>
       <r>   10.6574   -0.0000 </r>
       <r>   11.1366   -0.0000 </r>
       <r>   12.4569    0.0000 </r>
       <r>   13.4529    0.0000 </r>
       <r>   20.1610    0.0000 </r>
      </set>
      <set comment="kpoint 198">
       <r>    0.6118    1.0000 </r>
       <r>    1.8278    1.0000 </r>
       <r>    2.0378    1.0000 </r>
       <r>    2.7205    1.0000 </r>
       <r>    3.7448    1.0000 </r>
       <r>    3.8175    1.0000 </r>
       <r>    3.8336    1.0000 </r>
       <r>    4.3336    1.0000 </r>
       <r>    4.3341    1.0000 </r>
       <r>    4.5184    1.0000 </r>
       <r>    4.5518    1.0000 </r>
       <r>    5.2644    1.0000 </r>
       <r>    5.2712    1.0000 </r>
       <r>    5.4386    1.0000 </r>
       <r>    5.6232    1.0000 </r>
       <r>    5.8791    1.0002 </r>
       <r>    6.0174    1.0045 </r>
       <r>    6.8539   -0.0075 </r>
       <r>    7.0741   -0.0000 </r>
       <r>   10.7545   -0.0000 </r>
       <r>   11.6872   -0.0000 </r>
       <r>   11.7458   -0.0000 </r>
       <r>   13.1638    0.0000 </r>
       <r>   20.3103    0.0000 </r>
      </set>
      <set comment="kpoint 199">
       <r>    0.6752    1.0000 </r>
       <r>    1.8819    1.0000 </r>
       <r>    2.0067    1.0000 </r>
       <r>    2.6738    1.0000 </r>
       <r>    3.7648    1.0000 </r>
       <r>    3.8115    1.0000 </r>
       <r>    3.8614    1.0000 </r>
       <r>    4.3470    1.0000 </r>
       <r>    4.3487    1.0000 </r>
       <r>    4.5286    1.0000 </r>
       <r>    4.5603    1.0000 </r>
       <r>    5.2908    1.0000 </r>
       <r>    5.2910    1.0000 </r>
       <r>    5.4253    1.0000 </r>
       <r>    5.6974    1.0000 </r>
       <r>    5.7282    1.0000 </r>
       <r>    5.9971    1.0031 </r>
       <r>    6.8841   -0.0044 </r>
       <r>    6.9124   -0.0026 </r>
       <r>   10.9110   -0.0000 </r>
       <r>   11.4497   -0.0000 </r>
       <r>   11.9315    0.0000 </r>
       <r>   12.8745    0.0000 </r>
       <r>   20.3987    0.0000 </r>
      </set>
      <set comment="kpoint 200">
       <r>    0.7237    1.0000 </r>
       <r>    1.9825    1.0000 </r>
       <r>    1.9825    1.0000 </r>
       <r>    2.5912    1.0000 </r>
       <r>    3.7752    1.0000 </r>
       <r>    3.8522    1.0000 </r>
       <r>    3.8522    1.0000 </r>
       <r>    4.3648    1.0000 </r>
       <r>    4.3648    1.0000 </r>
       <r>    4.5022    1.0000 </r>
       <r>    4.6046    1.0000 </r>
       <r>    5.3317    1.0000 </r>
       <r>    5.3317    1.0000 </r>
       <r>    5.3956    1.0000 </r>
       <r>    5.6802    1.0000 </r>
       <r>    5.6831    1.0000 </r>
       <r>    5.9680    1.0017 </r>
       <r>    6.8114   -0.0142 </r>
       <r>    6.8114   -0.0142 </r>
       <r>   11.1060   -0.0000 </r>
       <r>   11.6470   -0.0000 </r>
       <r>   11.6470   -0.0000 </r>
       <r>   12.5912    0.0000 </r>
       <r>   20.4883    0.0000 </r>
      </set>
      <set comment="kpoint 201">
       <r>   -0.1084    1.0000 </r>
       <r>    1.7753    1.0000 </r>
       <r>    2.6063    1.0000 </r>
       <r>    2.6063    1.0000 </r>
       <r>    3.6497    1.0000 </r>
       <r>    3.7196    1.0000 </r>
       <r>    3.7196    1.0000 </r>
       <r>    4.2134    1.0000 </r>
       <r>    4.2411    1.0000 </r>
       <r>    4.2411    1.0000 </r>
       <r>    4.7285    1.0000 </r>
       <r>    5.2332    1.0000 </r>
       <r>    5.2332    1.0000 </r>
       <r>    5.4780    1.0000 </r>
       <r>    5.4780    1.0000 </r>
       <r>    6.2134    1.0352 </r>
       <r>    6.7051   -0.0351 </r>
       <r>    7.2049   -0.0000 </r>
       <r>    7.2049   -0.0000 </r>
       <r>   11.3520   -0.0000 </r>
       <r>   11.4639   -0.0000 </r>
       <r>   11.4639   -0.0000 </r>
       <r>   14.9552    0.0000 </r>
       <r>   20.3273    0.0000 </r>
      </set>
      <set comment="kpoint 202">
       <r>    0.1706    1.0000 </r>
       <r>    1.7257    1.0000 </r>
       <r>    2.3807    1.0000 </r>
       <r>    2.7580    1.0000 </r>
       <r>    3.6772    1.0000 </r>
       <r>    3.7403    1.0000 </r>
       <r>    3.8084    1.0000 </r>
       <r>    4.2587    1.0000 </r>
       <r>    4.2638    1.0000 </r>
       <r>    4.3490    1.0000 </r>
       <r>    4.6526    1.0000 </r>
       <r>    5.2139    1.0000 </r>
       <r>    5.2462    1.0000 </r>
       <r>    5.4882    1.0000 </r>
       <r>    5.4897    1.0000 </r>
       <r>    6.1921    1.0349 </r>
       <r>    6.4129    0.6545 </r>
       <r>    7.1608   -0.0000 </r>
       <r>    7.1787   -0.0000 </r>
       <r>   10.8468   -0.0000 </r>
       <r>   11.0577   -0.0000 </r>
       <r>   11.7978   -0.0000 </r>
       <r>   14.2551    0.0000 </r>
       <r>   20.5648    0.0000 </r>
      </set>
      <set comment="kpoint 203">
       <r>    0.4041    1.0000 </r>
       <r>    1.6691    1.0000 </r>
       <r>    2.2061    1.0000 </r>
       <r>    2.8549    1.0000 </r>
       <r>    3.6754    1.0000 </r>
       <r>    3.7725    1.0000 </r>
       <r>    3.8957    1.0000 </r>
       <r>    4.2699    1.0000 </r>
       <r>    4.2826    1.0000 </r>
       <r>    4.4388    1.0000 </r>
       <r>    4.6040    1.0000 </r>
       <r>    5.2151    1.0000 </r>
       <r>    5.2705    1.0000 </r>
       <r>    5.4789    1.0000 </r>
       <r>    5.5609    1.0000 </r>
       <r>    6.0374    1.0065 </r>
       <r>    6.1569    1.0291 </r>
       <r>    7.1320   -0.0000 </r>
       <r>    7.2917   -0.0000 </r>
       <r>   10.4861   -0.0000 </r>
       <r>   10.8136   -0.0000 </r>
       <r>   12.1882    0.0000 </r>
       <r>   13.6656    0.0000 </r>
       <r>   20.7389    0.0000 </r>
      </set>
      <set comment="kpoint 204">
       <r>    0.5030    1.0000 </r>
       <r>    1.6363    1.0000 </r>
       <r>    2.1408    1.0000 </r>
       <r>    2.8875    1.0000 </r>
       <r>    3.6735    1.0000 </r>
       <r>    3.7885    1.0000 </r>
       <r>    3.9316    1.0000 </r>
       <r>    4.2738    1.0000 </r>
       <r>    4.2889    1.0000 </r>
       <r>    4.4656    1.0000 </r>
       <r>    4.5870    1.0000 </r>
       <r>    5.2233    1.0000 </r>
       <r>    5.2858    1.0000 </r>
       <r>    5.4686    1.0000 </r>
       <r>    5.7044    1.0000 </r>
       <r>    5.7776    1.0000 </r>
       <r>    6.1399    1.0253 </r>
       <r>    7.1222   -0.0000 </r>
       <r>    7.3426   -0.0000 </r>
       <r>   10.3564   -0.0000 </r>
       <r>   10.7324   -0.0000 </r>
       <r>   12.4213    0.0000 </r>
       <r>   13.3665    0.0000 </r>
       <r>   20.8039    0.0000 </r>
      </set>
      <set comment="kpoint 205">
       <r>    0.3881    1.0000 </r>
       <r>    1.7583    1.0000 </r>
       <r>    2.3677    1.0000 </r>
       <r>    2.6863    1.0000 </r>
       <r>    3.7480    1.0000 </r>
       <r>    3.8165    1.0000 </r>
       <r>    3.8240    1.0000 </r>
       <r>    4.2890    1.0000 </r>
       <r>    4.2936    1.0000 </r>
       <r>    4.5172    1.0000 </r>
       <r>    4.5748    1.0000 </r>
       <r>    5.2192    1.0000 </r>
       <r>    5.2265    1.0000 </r>
       <r>    5.4788    1.0000 </r>
       <r>    5.5118    1.0000 </r>
       <r>    6.1808    1.0335 </r>
       <r>    6.3611    0.8384 </r>
       <r>    6.8451   -0.0087 </r>
       <r>    7.0780   -0.0000 </r>
       <r>   10.5917   -0.0000 </r>
       <r>   11.2543   -0.0000 </r>
       <r>   11.3000   -0.0000 </r>
       <r>   13.5591    0.0000 </r>
       <r>   21.0505    0.0000 </r>
      </set>
      <set comment="kpoint 206">
       <r>    0.5512    1.0000 </r>
       <r>    1.8134    1.0000 </r>
       <r>    2.2283    1.0000 </r>
       <r>    2.7159    1.0000 </r>
       <r>    3.7776    1.0000 </r>
       <r>    3.8519    1.0000 </r>
       <r>    3.9012    1.0000 </r>
       <r>    4.3093    1.0000 </r>
       <r>    4.3146    1.0000 </r>
       <r>    4.5231    1.0000 </r>
       <r>    4.6323    1.0000 </r>
       <r>    5.2319    1.0000 </r>
       <r>    5.2373    1.0000 </r>
       <r>    5.4743    1.0000 </r>
       <r>    5.5596    1.0000 </r>
       <r>    6.0677    1.0105 </r>
       <r>    6.1526    1.0282 </r>
       <r>    6.8210   -0.0124 </r>
       <r>    7.0065   -0.0003 </r>
       <r>   10.4227   -0.0000 </r>
       <r>   10.9213   -0.0000 </r>
       <r>   11.6257   -0.0000 </r>
       <r>   12.9745    0.0000 </r>
       <r>   21.2780    0.0000 </r>
      </set>
      <set comment="kpoint 207">
       <r>    0.6131    1.0000 </r>
       <r>    1.8579    1.0000 </r>
       <r>    2.1408    1.0000 </r>
       <r>    2.7343    1.0000 </r>
       <r>    3.7822    1.0000 </r>
       <r>    3.8730    1.0000 </r>
       <r>    3.9359    1.0000 </r>
       <r>    4.3181    1.0000 </r>
       <r>    4.3195    1.0000 </r>
       <r>    4.5045    1.0000 </r>
       <r>    4.6666    1.0000 </r>
       <r>    5.2460    1.0000 </r>
       <r>    5.2483    1.0000 </r>
       <r>    5.4679    1.0000 </r>
       <r>    5.6518    1.0000 </r>
       <r>    5.8592    1.0001 </r>
       <r>    6.1337    1.0239 </r>
       <r>    6.8462   -0.0085 </r>
       <r>    6.9740   -0.0007 </r>
       <r>   10.3778   -0.0000 </r>
       <r>   10.7883   -0.0000 </r>
       <r>   11.8501   -0.0000 </r>
       <r>   12.6727    0.0000 </r>
       <r>   21.3573    0.0000 </r>
      </set>
      <set comment="kpoint 208">
       <r>    0.6507    1.0000 </r>
       <r>    1.9532    1.0000 </r>
       <r>    2.2056    1.0000 </r>
       <r>    2.6181    1.0000 </r>
       <r>    3.8672    1.0000 </r>
       <r>    3.8977    1.0000 </r>
       <r>    3.9288    1.0000 </r>
       <r>    4.3377    1.0000 </r>
       <r>    4.3414    1.0000 </r>
       <r>    4.4667    1.0000 </r>
       <r>    4.7615    1.0000 </r>
       <r>    5.2532    1.0000 </r>
       <r>    5.2618    1.0000 </r>
       <r>    5.4480    1.0000 </r>
       <r>    5.5734    1.0000 </r>
       <r>    5.9994    1.0032 </r>
       <r>    6.1059    1.0176 </r>
       <r>    6.6445   -0.0220 </r>
       <r>    6.8040   -0.0156 </r>
       <r>   10.4499   -0.0000 </r>
       <r>   11.1818   -0.0000 </r>
       <r>   11.2079   -0.0000 </r>
       <r>   12.4001    0.0000 </r>
       <r>   21.5451    0.0000 </r>
      </set>
      <set comment="kpoint 209">
       <r>    0.6856    1.0000 </r>
       <r>    2.0514    1.0000 </r>
       <r>    2.1459    1.0000 </r>
       <r>    2.5868    1.0000 </r>
       <r>    3.8865    1.0000 </r>
       <r>    3.9233    1.0000 </r>
       <r>    3.9526    1.0000 </r>
       <r>    4.3482    1.0000 </r>
       <r>    4.3524    1.0000 </r>
       <r>    4.4449    1.0000 </r>
       <r>    4.7938    1.0000 </r>
       <r>    5.2779    1.0000 </r>
       <r>    5.2913    1.0000 </r>
       <r>    5.4303    1.0000 </r>
       <r>    5.6090    1.0000 </r>
       <r>    5.8858    1.0002 </r>
       <r>    6.0878    1.0140 </r>
       <r>    6.6558   -0.0278 </r>
       <r>    6.6883   -0.0353 </r>
       <r>   10.5110   -0.0000 </r>
       <r>   10.9988   -0.0000 </r>
       <r>   11.3971   -0.0000 </r>
       <r>   12.1017    0.0000 </r>
       <r>   21.6366    0.0000 </r>
      </set>
      <set comment="kpoint 210">
       <r>    0.7109    1.0000 </r>
       <r>    2.1487    1.0000 </r>
       <r>    2.1487    1.0000 </r>
       <r>    2.5058    1.0000 </r>
       <r>    3.9319    1.0000 </r>
       <r>    3.9319    1.0000 </r>
       <r>    3.9703    1.0000 </r>
       <r>    4.3644    1.0000 </r>
       <r>    4.3644    1.0000 </r>
       <r>    4.4197    1.0000 </r>
       <r>    4.8193    1.0000 </r>
       <r>    5.3406    1.0000 </r>
       <r>    5.3406    1.0000 </r>
       <r>    5.3784    1.0000 </r>
       <r>    5.5934    1.0000 </r>
       <r>    5.8581    1.0001 </r>
       <r>    6.0610    1.0095 </r>
       <r>    6.5895    0.0412 </r>
       <r>    6.5895    0.0412 </r>
       <r>   10.6247   -0.0000 </r>
       <r>   11.1783   -0.0000 </r>
       <r>   11.1783   -0.0000 </r>
       <r>   11.8056   -0.0000 </r>
       <r>   21.7319    0.0000 </r>
      </set>
      <set comment="kpoint 211">
       <r>    0.5333    1.0000 </r>
       <r>    1.8311    1.0000 </r>
       <r>    2.5073    1.0000 </r>
       <r>    2.5073    1.0000 </r>
       <r>    3.8437    1.0000 </r>
       <r>    3.8818    1.0000 </r>
       <r>    3.8818    1.0000 </r>
       <r>    4.3165    1.0000 </r>
       <r>    4.3165    1.0000 </r>
       <r>    4.5012    1.0000 </r>
       <r>    4.7251    1.0000 </r>
       <r>    5.2079    1.0000 </r>
       <r>    5.2079    1.0000 </r>
       <r>    5.4876    1.0000 </r>
       <r>    5.4876    1.0000 </r>
       <r>    6.1997    1.0353 </r>
       <r>    6.4004    0.7033 </r>
       <r>    6.7092   -0.0348 </r>
       <r>    6.7092   -0.0348 </r>
       <r>   10.6082   -0.0000 </r>
       <r>   10.9385   -0.0000 </r>
       <r>   10.9385   -0.0000 </r>
       <r>   12.8747    0.0000 </r>
       <r>   22.1310    0.0000 </r>
      </set>
      <set comment="kpoint 212">
       <r>    0.6290    1.0000 </r>
       <r>    1.9443    1.0000 </r>
       <r>    2.3284    1.0000 </r>
       <r>    2.5943    1.0000 </r>
       <r>    3.8847    1.0000 </r>
       <r>    3.9574    1.0000 </r>
       <r>    3.9633    1.0000 </r>
       <r>    4.3328    1.0000 </r>
       <r>    4.3362    1.0000 </r>
       <r>    4.4513    1.0000 </r>
       <r>    4.8586    1.0000 </r>
       <r>    5.1992    1.0000 </r>
       <r>    5.2268    1.0000 </r>
       <r>    5.4782    1.0000 </r>
       <r>    5.5066    1.0000 </r>
       <r>    6.1459    1.0267 </r>
       <r>    6.1810    1.0336 </r>
       <r>    6.6287   -0.0102 </r>
       <r>    6.6710   -0.0328 </r>
       <r>   10.3586   -0.0000 </r>
       <r>   10.7258   -0.0000 </r>
       <r>   11.1528   -0.0000 </r>
       <r>   12.3043    0.0000 </r>
       <r>   22.3118    0.0000 </r>
      </set>
      <set comment="kpoint 213">
       <r>    0.6620    1.0000 </r>
       <r>    2.0398    1.0000 </r>
       <r>    2.2113    1.0000 </r>
       <r>    2.6232    1.0000 </r>
       <r>    3.8944    1.0000 </r>
       <r>    3.9925    1.0000 </r>
       <r>    4.0054    1.0000 </r>
       <r>    4.3336    1.0000 </r>
       <r>    4.3451    1.0000 </r>
       <r>    4.4327    1.0000 </r>
       <r>    4.8912    1.0000 </r>
       <r>    5.1960    1.0000 </r>
       <r>    5.2513    1.0000 </r>
       <r>    5.4696    1.0000 </r>
       <r>    5.5641    1.0000 </r>
       <r>    5.9649    1.0016 </r>
       <r>    6.1655    1.0309 </r>
       <r>    6.6058    0.0156 </r>
       <r>    6.6932   -0.0354 </r>
       <r>   10.2528   -0.0000 </r>
       <r>   10.6560   -0.0000 </r>
       <r>   11.3542   -0.0000 </r>
       <r>   12.0028    0.0000 </r>
       <r>   22.3787    0.0000 </r>
      </set>
      <set comment="kpoint 214">
       <r>    0.6757    1.0000 </r>
       <r>    2.0842    1.0000 </r>
       <r>    2.3398    1.0000 </r>
       <r>    2.5198    1.0000 </r>
       <r>    3.9896    1.0000 </r>
       <r>    4.0101    1.0000 </r>
       <r>    4.0581    1.0000 </r>
       <r>    4.3522    1.0000 </r>
       <r>    4.3542    1.0000 </r>
       <r>    4.4018    1.0000 </r>
       <r>    4.9864    1.0000 </r>
       <r>    5.2150    1.0000 </r>
       <r>    5.2289    1.0000 </r>
       <r>    5.4403    1.0000 </r>
       <r>    5.4908    1.0000 </r>
       <r>    6.1214    1.0211 </r>
       <r>    6.1679    1.0314 </r>
       <r>    6.4438    0.5268 </r>
       <r>    6.5209    0.2203 </r>
       <r>   10.2775   -0.0000 </r>
       <r>   10.7959   -0.0000 </r>
       <r>   10.8732   -0.0000 </r>
       <r>   11.7573   -0.0000 </r>
       <r>   22.7634    0.0000 </r>
      </set>
      <set comment="kpoint 215">
       <r>    0.6911    1.0000 </r>
       <r>    2.1950    1.0000 </r>
       <r>    2.2626    1.0000 </r>
       <r>    2.5135    1.0000 </r>
       <r>    4.0133    1.0000 </r>
       <r>    4.0521    1.0000 </r>
       <r>    4.1061    1.0000 </r>
       <r>    4.3517    1.0000 </r>
       <r>    4.3653    1.0000 </r>
       <r>    4.3821    1.0000 </r>
       <r>    4.9954    1.0000 </r>
       <r>    5.2241    1.0000 </r>
       <r>    5.2664    1.0000 </r>
       <r>    5.4219    1.0000 </r>
       <r>    5.5027    1.0000 </r>
       <r>    6.0337    1.0061 </r>
       <r>    6.1528    1.0282 </r>
       <r>    6.4376    0.5530 </r>
       <r>    6.4606    0.4558 </r>
       <r>   10.2440   -0.0000 </r>
       <r>   10.7180   -0.0000 </r>
       <r>   10.9973   -0.0000 </r>
       <r>   11.4659   -0.0000 </r>
       <r>   22.8683    0.0000 </r>
      </set>
      <set comment="kpoint 216">
       <r>    0.7006    1.0000 </r>
       <r>    2.2813    1.0000 </r>
       <r>    2.2813    1.0000 </r>
       <r>    2.4427    1.0000 </r>
       <r>    4.0685    1.0000 </r>
       <r>    4.0685    1.0000 </r>
       <r>    4.1623    1.0000 </r>
       <r>    4.3588    1.0000 </r>
       <r>    4.3655    1.0000 </r>
       <r>    4.3655    1.0000 </r>
       <r>    4.9843    1.0000 </r>
       <r>    5.2925    1.0000 </r>
       <r>    5.2925    1.0000 </r>
       <r>    5.3644    1.0000 </r>
       <r>    5.4896    1.0000 </r>
       <r>    6.0468    1.0076 </r>
       <r>    6.1305    1.0232 </r>
       <r>    6.3790    0.7807 </r>
       <r>    6.3790    0.7807 </r>
       <r>   10.2682   -0.0000 </r>
       <r>   10.8525   -0.0000 </r>
       <r>   10.8525   -0.0000 </r>
       <r>   11.1746   -0.0000 </r>
       <r>   22.9912    0.0000 </r>
      </set>
      <set comment="kpoint 217">
       <r>    0.6892    1.0000 </r>
       <r>    2.2072    1.0000 </r>
       <r>    2.4230    1.0000 </r>
       <r>    2.4230    1.0000 </r>
       <r>    4.1306    1.0000 </r>
       <r>    4.1368    1.0000 </r>
       <r>    4.1368    1.0000 </r>
       <r>    4.3578    1.0000 </r>
       <r>    4.3693    1.0000 </r>
       <r>    4.3693    1.0000 </r>
       <r>    5.1455    1.0000 </r>
       <r>    5.1740    1.0000 </r>
       <r>    5.1740    1.0000 </r>
       <r>    5.4183    1.0000 </r>
       <r>    5.4183    1.0000 </r>
       <r>    6.1860    1.0342 </r>
       <r>    6.1909    1.0347 </r>
       <r>    6.3155    0.9501 </r>
       <r>    6.3155    0.9501 </r>
       <r>   10.1550   -0.0000 </r>
       <r>   10.6784   -0.0000 </r>
       <r>   10.6784   -0.0000 </r>
       <r>   11.2579   -0.0000 </r>
       <r>   23.8426    0.0000 </r>
      </set>
      <set comment="kpoint 218">
       <r>    0.6934    1.0000 </r>
       <r>    2.3021    1.0000 </r>
       <r>    2.3379    1.0000 </r>
       <r>    2.4507    1.0000 </r>
       <r>    4.1580    1.0000 </r>
       <r>    4.1966    1.0000 </r>
       <r>    4.2162    1.0000 </r>
       <r>    4.3398    1.0000 </r>
       <r>    4.3605    1.0000 </r>
       <r>    4.3829    1.0000 </r>
       <r>    5.1348    1.0000 </r>
       <r>    5.1384    1.0000 </r>
       <r>    5.2196    1.0000 </r>
       <r>    5.3963    1.0000 </r>
       <r>    5.4069    1.0000 </r>
       <r>    6.1487    1.0273 </r>
       <r>    6.1822    1.0337 </r>
       <r>    6.2871    0.9939 </r>
       <r>    6.2918    0.9879 </r>
       <r>   10.0956   -0.0000 </r>
       <r>   10.6148   -0.0000 </r>
       <r>   10.7483   -0.0000 </r>
       <r>   10.9968   -0.0000 </r>
       <r>   23.9184    0.0000 </r>
      </set>
      <set comment="kpoint 219">
       <r>    0.6940    1.0000 </r>
       <r>    2.3635    1.0000 </r>
       <r>    2.3635    1.0000 </r>
       <r>    2.4040    1.0000 </r>
       <r>    4.2301    1.0000 </r>
       <r>    4.2301    1.0000 </r>
       <r>    4.3162    1.0000 </r>
       <r>    4.3215    1.0000 </r>
       <r>    4.3693    1.0000 </r>
       <r>    4.3693    1.0000 </r>
       <r>    5.0851    1.0000 </r>
       <r>    5.1876    1.0000 </r>
       <r>    5.1876    1.0000 </r>
       <r>    5.3554    1.0000 </r>
       <r>    5.3942    1.0000 </r>
       <r>    6.1734    1.0324 </r>
       <r>    6.2031    1.0354 </r>
       <r>    6.2359    1.0310 </r>
       <r>    6.2359    1.0310 </r>
       <r>   10.0487   -0.0000 </r>
       <r>   10.6634   -0.0000 </r>
       <r>   10.6634   -0.0000 </r>
       <r>   10.7526   -0.0000 </r>
       <r>   24.1955    0.0000 </r>
      </set>
      <set comment="kpoint 220">
       <r>    0.6917    1.0000 </r>
       <r>    2.3909    1.0000 </r>
       <r>    2.3909    1.0000 </r>
       <r>    2.3909    1.0000 </r>
       <r>    4.3089    1.0000 </r>
       <r>    4.3089    1.0000 </r>
       <r>    4.3089    1.0000 </r>
       <r>    4.3787    1.0000 </r>
       <r>    4.3787    1.0000 </r>
       <r>    4.3787    1.0000 </r>
       <r>    5.1185    1.0000 </r>
       <r>    5.1185    1.0000 </r>
       <r>    5.1186    1.0000 </r>
       <r>    5.3522    1.0000 </r>
       <r>    5.3522    1.0000 </r>
       <r>    6.1879    1.0344 </r>
       <r>    6.1879    1.0344 </r>
       <r>    6.1879    1.0344 </r>
       <r>    6.2656    1.0151 </r>
       <r>    9.9746   -0.0000 </r>
       <r>   10.6018   -0.0000 </r>
       <r>   10.6018   -0.0000 </r>
       <r>   10.6018   -0.0000 </r>
       <r>   24.9018    0.0000 </r>
      </set>
     </set>
     <set comment="spin 2">
      <set comment="kpoint 1">
       <r>   -3.6900    1.0000 </r>
       <r>    2.0869    1.0000 </r>
       <r>    2.8425    1.0000 </r>
       <r>    2.8425    1.0000 </r>
       <r>    3.3366    1.0000 </r>
       <r>    3.3366    1.0000 </r>
       <r>    3.3366    1.0000 </r>
       <r>    5.2534    1.0000 </r>
       <r>    5.2534    1.0000 </r>
       <r>    5.2534    1.0000 </r>
       <r>    6.0472    1.0076 </r>
       <r>    6.0472    1.0076 </r>
       <r>    6.4647    0.4386 </r>
       <r>    6.8133   -0.0138 </r>
       <r>    6.8133   -0.0138 </r>
       <r>    6.8133   -0.0138 </r>
       <r>    7.3078   -0.0000 </r>
       <r>    7.3078   -0.0000 </r>
       <r>    7.3078   -0.0000 </r>
       <r>   13.2440    0.0000 </r>
       <r>   13.2440    0.0000 </r>
       <r>   14.0190    0.0000 </r>
       <r>   18.9359    0.0000 </r>
       <r>   18.9359    0.0000 </r>
      </set>
      <set comment="kpoint 2">
       <r>   -3.6516    1.0000 </r>
       <r>    2.0998    1.0000 </r>
       <r>    2.8170    1.0000 </r>
       <r>    2.8676    1.0000 </r>
       <r>    3.3415    1.0000 </r>
       <r>    3.3415    1.0000 </r>
       <r>    3.3466    1.0000 </r>
       <r>    5.2303    1.0000 </r>
       <r>    5.2303    1.0000 </r>
       <r>    5.2424    1.0000 </r>
       <r>    6.0248    1.0052 </r>
       <r>    6.0476    1.0077 </r>
       <r>    6.4500    0.5003 </r>
       <r>    6.6521   -0.0261 </r>
       <r>    6.6521   -0.0261 </r>
       <r>    6.8133   -0.0138 </r>
       <r>    7.1492   -0.0000 </r>
       <r>    7.5204   -0.0000 </r>
       <r>    7.5204   -0.0000 </r>
       <r>   13.2394    0.0000 </r>
       <r>   13.3888    0.0000 </r>
       <r>   14.1323    0.0000 </r>
       <r>   18.7673    0.0000 </r>
       <r>   18.7690    0.0000 </r>
      </set>
      <set comment="kpoint 3">
       <r>   -3.5367    1.0000 </r>
       <r>    2.1307    1.0000 </r>
       <r>    2.7395    1.0000 </r>
       <r>    2.9418    1.0000 </r>
       <r>    3.3560    1.0000 </r>
       <r>    3.3560    1.0000 </r>
       <r>    3.3762    1.0000 </r>
       <r>    5.1652    1.0000 </r>
       <r>    5.1652    1.0000 </r>
       <r>    5.2102    1.0000 </r>
       <r>    5.9531    1.0012 </r>
       <r>    6.0484    1.0078 </r>
       <r>    6.4066    0.6792 </r>
       <r>    6.4067    0.6792 </r>
       <r>    6.4068    0.6788 </r>
       <r>    6.7610   -0.0252 </r>
       <r>    6.8134   -0.0138 </r>
       <r>    7.9175   -0.0000 </r>
       <r>    7.9175   -0.0000 </r>
       <r>   13.2257    0.0000 </r>
       <r>   13.6112    0.0000 </r>
       <r>   14.6047    0.0000 </r>
       <r>   18.1642    0.0000 </r>
       <r>   18.1642    0.0000 </r>
      </set>
      <set comment="kpoint 4">
       <r>   -3.3465    1.0000 </r>
       <r>    2.1388    1.0000 </r>
       <r>    2.6264    1.0000 </r>
       <r>    3.0614    1.0000 </r>
       <r>    3.3786    1.0000 </r>
       <r>    3.3786    1.0000 </r>
       <r>    3.4236    1.0000 </r>
       <r>    5.0700    1.0000 </r>
       <r>    5.0700    1.0000 </r>
       <r>    5.1587    1.0000 </r>
       <r>    5.8100    1.0000 </r>
       <r>    6.0475    1.0077 </r>
       <r>    6.1839    1.0340 </r>
       <r>    6.1839    1.0340 </r>
       <r>    6.3268    0.9273 </r>
       <r>    6.3370    0.9041 </r>
       <r>    6.8136   -0.0138 </r>
       <r>    8.3849   -0.0000 </r>
       <r>    8.3849   -0.0000 </r>
       <r>   13.2032    0.0000 </r>
       <r>   13.7421    0.0000 </r>
       <r>   15.4431    0.0000 </r>
       <r>   17.2996    0.0000 </r>
       <r>   17.2996    0.0000 </r>
      </set>
      <set comment="kpoint 5">
       <r>   -3.0832    1.0000 </r>
       <r>    1.9952    1.0000 </r>
       <r>    2.5760    1.0000 </r>
       <r>    3.2196    1.0000 </r>
       <r>    3.4073    1.0000 </r>
       <r>    3.4073    1.0000 </r>
       <r>    3.4861    1.0000 </r>
       <r>    4.9612    1.0000 </r>
       <r>    4.9612    1.0000 </r>
       <r>    5.0913    1.0000 </r>
       <r>    5.5616    1.0000 </r>
       <r>    5.9924    1.0028 </r>
       <r>    5.9924    1.0028 </r>
       <r>    6.0140    1.0043 </r>
       <r>    6.0381    1.0065 </r>
       <r>    6.2484    1.0260 </r>
       <r>    6.8138   -0.0137 </r>
       <r>    8.9044   -0.0000 </r>
       <r>    8.9044   -0.0000 </r>
       <r>   13.1729    0.0000 </r>
       <r>   13.8458    0.0000 </r>
       <r>   16.3410    0.0000 </r>
       <r>   16.3799    0.0000 </r>
       <r>   16.3799    0.0000 </r>
      </set>
      <set comment="kpoint 6">
       <r>   -2.7501    1.0000 </r>
       <r>    1.6289    1.0000 </r>
       <r>    2.6417    1.0000 </r>
       <r>    3.4061    1.0000 </r>
       <r>    3.4388    1.0000 </r>
       <r>    3.4388    1.0000 </r>
       <r>    3.5589    1.0000 </r>
       <r>    4.8555    1.0000 </r>
       <r>    4.8555    1.0000 </r>
       <r>    5.0130    1.0000 </r>
       <r>    5.2889    1.0000 </r>
       <r>    5.8174    1.0000 </r>
       <r>    5.8300    1.0001 </r>
       <r>    5.8300    1.0001 </r>
       <r>    5.9965    1.0031 </r>
       <r>    6.1678    1.0313 </r>
       <r>    6.8140   -0.0137 </r>
       <r>    9.4704   -0.0000 </r>
       <r>    9.4704   -0.0000 </r>
       <r>   13.1371    0.0000 </r>
       <r>   13.9587    0.0000 </r>
       <r>   15.4692    0.0000 </r>
       <r>   15.4692    0.0000 </r>
       <r>   16.5544    0.0000 </r>
      </set>
      <set comment="kpoint 7">
       <r>   -2.3528    1.0000 </r>
       <r>    1.1223    1.0000 </r>
       <r>    2.7520    1.0000 </r>
       <r>    3.4692    1.0000 </r>
       <r>    3.4692    1.0000 </r>
       <r>    3.6053    1.0000 </r>
       <r>    3.6354    1.0000 </r>
       <r>    4.7658    1.0000 </r>
       <r>    4.7658    1.0000 </r>
       <r>    4.9315    1.0000 </r>
       <r>    5.0913    1.0000 </r>
       <r>    5.6603    1.0000 </r>
       <r>    5.6963    1.0000 </r>
       <r>    5.6963    1.0000 </r>
       <r>    5.8943    1.0003 </r>
       <r>    6.1318    1.0235 </r>
       <r>    6.8142   -0.0137 </r>
       <r>   10.0800   -0.0000 </r>
       <r>   10.0800   -0.0000 </r>
       <r>   13.0995    0.0000 </r>
       <r>   14.0919    0.0000 </r>
       <r>   14.5865    0.0000 </r>
       <r>   14.5865    0.0000 </r>
       <r>   16.2067    0.0000 </r>
      </set>
      <set comment="kpoint 8">
       <r>   -1.9024    1.0000 </r>
       <r>    0.5520    1.0000 </r>
       <r>    2.8608    1.0000 </r>
       <r>    3.4946    1.0000 </r>
       <r>    3.4946    1.0000 </r>
       <r>    3.7058    1.0000 </r>
       <r>    3.7934    1.0000 </r>
       <r>    4.6997    1.0000 </r>
       <r>    4.6997    1.0000 </r>
       <r>    4.8569    1.0000 </r>
       <r>    4.9769    1.0000 </r>
       <r>    5.5278    1.0000 </r>
       <r>    5.5942    1.0000 </r>
       <r>    5.5942    1.0000 </r>
       <r>    5.7651    1.0000 </r>
       <r>    6.1228    1.0214 </r>
       <r>    6.8144   -0.0136 </r>
       <r>   10.7314   -0.0000 </r>
       <r>   10.7314   -0.0000 </r>
       <r>   13.0656    0.0000 </r>
       <r>   13.7386    0.0000 </r>
       <r>   13.7386    0.0000 </r>
       <r>   14.2447    0.0000 </r>
       <r>   15.8194    0.0000 </r>
      </set>
      <set comment="kpoint 9">
       <r>   -1.4307    1.0000 </r>
       <r>   -0.0076    1.0000 </r>
       <r>    2.9397    1.0000 </r>
       <r>    3.5113    1.0000 </r>
       <r>    3.5113    1.0000 </r>
       <r>    3.7572    1.0000 </r>
       <r>    3.9354    1.0000 </r>
       <r>    4.6601    1.0000 </r>
       <r>    4.6601    1.0000 </r>
       <r>    4.8029    1.0000 </r>
       <r>    4.9234    1.0000 </r>
       <r>    5.4338    1.0000 </r>
       <r>    5.5293    1.0000 </r>
       <r>    5.5293    1.0000 </r>
       <r>    5.6575    1.0000 </r>
       <r>    6.1211    1.0210 </r>
       <r>    6.8145   -0.0136 </r>
       <r>   11.4235   -0.0000 </r>
       <r>   11.4235   -0.0000 </r>
       <r>   12.9284    0.0000 </r>
       <r>   12.9284    0.0000 </r>
       <r>   13.0418    0.0000 </r>
       <r>   14.3950    0.0000 </r>
       <r>   15.5123    0.0000 </r>
      </set>
      <set comment="kpoint 10">
       <r>   -1.1332    1.0000 </r>
       <r>   -0.3368    1.0000 </r>
       <r>    2.9687    1.0000 </r>
       <r>    3.5172    1.0000 </r>
       <r>    3.5172    1.0000 </r>
       <r>    3.7764    1.0000 </r>
       <r>    3.9898    1.0000 </r>
       <r>    4.6471    1.0000 </r>
       <r>    4.6471    1.0000 </r>
       <r>    4.7828    1.0000 </r>
       <r>    4.9088    1.0000 </r>
       <r>    5.3990    1.0000 </r>
       <r>    5.5069    1.0000 </r>
       <r>    5.5069    1.0000 </r>
       <r>    5.6146    1.0000 </r>
       <r>    6.1209    1.0210 </r>
       <r>    6.8145   -0.0136 </r>
       <r>   12.1298    0.0000 </r>
       <r>   12.1298    0.0000 </r>
       <r>   12.1827    0.0000 </r>
       <r>   12.1827    0.0000 </r>
       <r>   13.0332    0.0000 </r>
       <r>   14.4691    0.0000 </r>
       <r>   15.3839    0.0000 </r>
      </set>
      <set comment="kpoint 11">
       <r>   -3.6132    1.0000 </r>
       <r>    2.1130    1.0000 </r>
       <r>    2.8170    1.0000 </r>
       <r>    2.8672    1.0000 </r>
       <r>    3.3369    1.0000 </r>
       <r>    3.3461    1.0000 </r>
       <r>    3.3663    1.0000 </r>
       <r>    5.1758    1.0000 </r>
       <r>    5.2079    1.0000 </r>
       <r>    5.2645    1.0000 </r>
       <r>    6.0133    1.0042 </r>
       <r>    6.0369    1.0064 </r>
       <r>    6.4313    0.5791 </r>
       <r>    6.4987    0.3008 </r>
       <r>    6.5620    0.0989 </r>
       <r>    6.7957   -0.0174 </r>
       <r>    7.2312   -0.0000 </r>
       <r>    7.4838   -0.0000 </r>
       <r>    7.6778   -0.0000 </r>
       <r>   13.3043    0.0000 </r>
       <r>   13.4894    0.0000 </r>
       <r>   14.2249    0.0000 </r>
       <r>   18.3072    0.0000 </r>
       <r>   18.6806    0.0000 </r>
      </set>
      <set comment="kpoint 12">
       <r>   -3.4986    1.0000 </r>
       <r>    2.1452    1.0000 </r>
       <r>    2.7494    1.0000 </r>
       <r>    2.9309    1.0000 </r>
       <r>    3.3437    1.0000 </r>
       <r>    3.3594    1.0000 </r>
       <r>    3.4039    1.0000 </r>
       <r>    5.0873    1.0000 </r>
       <r>    5.1453    1.0000 </r>
       <r>    5.2603    1.0000 </r>
       <r>    5.9421    1.0010 </r>
       <r>    6.0334    1.0060 </r>
       <r>    6.2333    1.0318 </r>
       <r>    6.3662    0.8228 </r>
       <r>    6.3973    0.7149 </r>
       <r>    6.7858   -0.0195 </r>
       <r>    6.9334   -0.0017 </r>
       <r>    7.7920   -0.0000 </r>
       <r>    8.0300   -0.0000 </r>
       <r>   13.3159    0.0000 </r>
       <r>   13.7468    0.0000 </r>
       <r>   14.6482    0.0000 </r>
       <r>   17.5646    0.0000 </r>
       <r>   18.1892    0.0000 </r>
      </set>
      <set comment="kpoint 13">
       <r>   -3.3087    1.0000 </r>
       <r>    2.1567    1.0000 </r>
       <r>    2.6363    1.0000 </r>
       <r>    3.0476    1.0000 </r>
       <r>    3.3621    1.0000 </r>
       <r>    3.3809    1.0000 </r>
       <r>    3.4563    1.0000 </r>
       <r>    4.9800    1.0000 </r>
       <r>    5.0549    1.0000 </r>
       <r>    5.2276    1.0000 </r>
       <r>    5.7743    1.0000 </r>
       <r>    6.0022    1.0034 </r>
       <r>    6.0387    1.0066 </r>
       <r>    6.1616    1.0301 </r>
       <r>    6.3244    0.9325 </r>
       <r>    6.5390    0.1621 </r>
       <r>    6.7832   -0.0201 </r>
       <r>    8.2302   -0.0000 </r>
       <r>    8.4740   -0.0000 </r>
       <r>   13.3017    0.0000 </r>
       <r>   13.9017    0.0000 </r>
       <r>   15.4685    0.0000 </r>
       <r>   16.7176    0.0000 </r>
       <r>   17.3405    0.0000 </r>
      </set>
      <set comment="kpoint 14">
       <r>   -3.0459    1.0000 </r>
       <r>    2.0178    1.0000 </r>
       <r>    2.5840    1.0000 </r>
       <r>    3.2010    1.0000 </r>
       <r>    3.3892    1.0000 </r>
       <r>    3.4106    1.0000 </r>
       <r>    3.5207    1.0000 </r>
       <r>    4.8676    1.0000 </r>
       <r>    4.9525    1.0000 </r>
       <r>    5.1707    1.0000 </r>
       <r>    5.5024    1.0000 </r>
       <r>    5.8435    1.0001 </r>
       <r>    5.9766    1.0021 </r>
       <r>    6.0251    1.0052 </r>
       <r>    6.1946    1.0351 </r>
       <r>    6.2654    1.0153 </r>
       <r>    6.7827   -0.0202 </r>
       <r>    8.7211   -0.0000 </r>
       <r>    8.9796   -0.0000 </r>
       <r>   13.2745    0.0000 </r>
       <r>   14.0175    0.0000 </r>
       <r>   15.8206    0.0000 </r>
       <r>   16.4208    0.0000 </r>
       <r>   16.4434    0.0000 </r>
      </set>
      <set comment="kpoint 15">
       <r>   -2.7135    1.0000 </r>
       <r>    1.6541    1.0000 </r>
       <r>    2.6506    1.0000 </r>
       <r>    3.3614    1.0000 </r>
       <r>    3.4217    1.0000 </r>
       <r>    3.4644    1.0000 </r>
       <r>    3.5926    1.0000 </r>
       <r>    4.7655    1.0000 </r>
       <r>    4.8506    1.0000 </r>
       <r>    5.0940    1.0000 </r>
       <r>    5.2433    1.0000 </r>
       <r>    5.6982    1.0000 </r>
       <r>    5.8177    1.0000 </r>
       <r>    5.9570    1.0013 </r>
       <r>    6.0194    1.0047 </r>
       <r>    6.1638    1.0306 </r>
       <r>    6.7828   -0.0202 </r>
       <r>    9.2536   -0.0000 </r>
       <r>    9.5362   -0.0000 </r>
       <r>   13.2292    0.0000 </r>
       <r>   14.1407    0.0000 </r>
       <r>   15.0080    0.0000 </r>
       <r>   15.5099    0.0000 </r>
       <r>   16.7970    0.0000 </r>
      </set>
      <set comment="kpoint 16">
       <r>   -2.3171    1.0000 </r>
       <r>    1.1498    1.0000 </r>
       <r>    2.7625    1.0000 </r>
       <r>    3.4341    1.0000 </r>
       <r>    3.4552    1.0000 </r>
       <r>    3.6177    1.0000 </r>
       <r>    3.6643    1.0000 </r>
       <r>    4.6876    1.0000 </r>
       <r>    4.7547    1.0000 </r>
       <r>    5.0034    1.0000 </r>
       <r>    5.0710    1.0000 </r>
       <r>    5.5596    1.0000 </r>
       <r>    5.6884    1.0000 </r>
       <r>    5.8050    1.0000 </r>
       <r>    5.9104    1.0005 </r>
       <r>    6.1216    1.0211 </r>
       <r>    6.7831   -0.0201 </r>
       <r>    9.8223   -0.0000 </r>
       <r>   10.1389   -0.0000 </r>
       <r>   13.1400    0.0000 </r>
       <r>   14.2115    0.0000 </r>
       <r>   14.3347    0.0000 </r>
       <r>   14.6279    0.0000 </r>
       <r>   16.4745    0.0000 </r>
      </set>
      <set comment="kpoint 17">
       <r>   -1.8679    1.0000 </r>
       <r>    0.5819    1.0000 </r>
       <r>    2.8736    1.0000 </r>
       <r>    3.4604    1.0000 </r>
       <r>    3.4848    1.0000 </r>
       <r>    3.7260    1.0000 </r>
       <r>    3.8022    1.0000 </r>
       <r>    4.6446    1.0000 </r>
       <r>    4.6725    1.0000 </r>
       <r>    4.9074    1.0000 </r>
       <r>    4.9854    1.0000 </r>
       <r>    5.4373    1.0000 </r>
       <r>    5.5924    1.0000 </r>
       <r>    5.6838    1.0000 </r>
       <r>    5.7822    1.0000 </r>
       <r>    6.1116    1.0189 </r>
       <r>    6.7834   -0.0200 </r>
       <r>   10.4229   -0.0000 </r>
       <r>   10.7852   -0.0000 </r>
       <r>   12.8955    0.0000 </r>
       <r>   13.6961    0.0000 </r>
       <r>   13.7814    0.0000 </r>
       <r>   14.4677    0.0000 </r>
       <r>   16.0750    0.0000 </r>
      </set>
      <set comment="kpoint 18">
       <r>   -1.3978    1.0000 </r>
       <r>    0.0248    1.0000 </r>
       <r>    2.9550    1.0000 </r>
       <r>    3.4734    1.0000 </r>
       <r>    3.5054    1.0000 </r>
       <r>    3.7676    1.0000 </r>
       <r>    3.9477    1.0000 </r>
       <r>    4.6160    1.0000 </r>
       <r>    4.6391    1.0000 </r>
       <r>    4.8213    1.0000 </r>
       <r>    4.9543    1.0000 </r>
       <r>    5.3487    1.0000 </r>
       <r>    5.5332    1.0000 </r>
       <r>    5.6122    1.0000 </r>
       <r>    5.6707    1.0000 </r>
       <r>    6.1098    1.0185 </r>
       <r>    6.7836   -0.0200 </r>
       <r>   11.0475   -0.0000 </r>
       <r>   11.4729   -0.0000 </r>
       <r>   12.3727    0.0000 </r>
       <r>   12.9734    0.0000 </r>
       <r>   13.4763    0.0000 </r>
       <r>   14.6372    0.0000 </r>
       <r>   15.7485    0.0000 </r>
      </set>
      <set comment="kpoint 19">
       <r>   -1.1024    1.0000 </r>
       <r>   -0.3022    1.0000 </r>
       <r>    2.9852    1.0000 </r>
       <r>    3.4772    1.0000 </r>
       <r>    3.5128    1.0000 </r>
       <r>    3.7822    1.0000 </r>
       <r>    4.0050    1.0000 </r>
       <r>    4.5952    1.0000 </r>
       <r>    4.6489    1.0000 </r>
       <r>    4.7797    1.0000 </r>
       <r>    4.9479    1.0000 </r>
       <r>    5.3152    1.0000 </r>
       <r>    5.5131    1.0000 </r>
       <r>    5.5976    1.0000 </r>
       <r>    5.6168    1.0000 </r>
       <r>    6.1096    1.0184 </r>
       <r>    6.7837   -0.0200 </r>
       <r>   11.5781   -0.0000 </r>
       <r>   11.8481   -0.0000 </r>
       <r>   12.1636    0.0000 </r>
       <r>   12.2426    0.0000 </r>
       <r>   13.4305    0.0000 </r>
       <r>   14.7239    0.0000 </r>
       <r>   15.6076    0.0000 </r>
      </set>
      <set comment="kpoint 20">
       <r>   -3.3845    1.0000 </r>
       <r>    2.1822    1.0000 </r>
       <r>    2.7381    1.0000 </r>
       <r>    2.9349    1.0000 </r>
       <r>    3.3389    1.0000 </r>
       <r>    3.3699    1.0000 </r>
       <r>    3.4543    1.0000 </r>
       <r>    4.9711    1.0000 </r>
       <r>    5.0910    1.0000 </r>
       <r>    5.2969    1.0000 </r>
       <r>    5.8486    1.0001 </r>
       <r>    6.0067    1.0037 </r>
       <r>    6.0215    1.0049 </r>
       <r>    6.2512    1.0246 </r>
       <r>    6.3562    0.8529 </r>
       <r>    6.7431   -0.0292 </r>
       <r>    7.0515   -0.0001 </r>
       <r>    7.6502   -0.0000 </r>
       <r>    8.3189   -0.0000 </r>
       <r>   13.3815    0.0000 </r>
       <r>   14.1751    0.0000 </r>
       <r>   14.8718    0.0000 </r>
       <r>   16.6993    0.0000 </r>
       <r>   18.1486    0.0000 </r>
      </set>
      <set comment="kpoint 21">
       <r>   -3.1957    1.0000 </r>
       <r>    2.2063    1.0000 </r>
       <r>    2.6472    1.0000 </r>
       <r>    3.0176    1.0000 </r>
       <r>    3.3472    1.0000 </r>
       <r>    3.3888    1.0000 </r>
       <r>    3.5184    1.0000 </r>
       <r>    4.8450    1.0000 </r>
       <r>    5.0155    1.0000 </r>
       <r>    5.3018    1.0000 </r>
       <r>    5.6011    1.0000 </r>
       <r>    5.9002    1.0004 </r>
       <r>    5.9978    1.0031 </r>
       <r>    6.0927    1.0149 </r>
       <r>    6.2866    0.9944 </r>
       <r>    6.7177   -0.0338 </r>
       <r>    6.7819   -0.0204 </r>
       <r>    7.8982   -0.0000 </r>
       <r>    8.7176   -0.0000 </r>
       <r>   13.3847    0.0000 </r>
       <r>   14.4702    0.0000 </r>
       <r>   15.5582    0.0000 </r>
       <r>   15.8244    0.0000 </r>
       <r>   17.4598    0.0000 </r>
      </set>
      <set comment="kpoint 22">
       <r>   -2.9344    1.0000 </r>
       <r>    2.0840    1.0000 </r>
       <r>    2.5950    1.0000 </r>
       <r>    3.1497    1.0000 </r>
       <r>    3.3670    1.0000 </r>
       <r>    3.4216    1.0000 </r>
       <r>    3.5920    1.0000 </r>
       <r>    4.7235    1.0000 </r>
       <r>    4.9318    1.0000 </r>
       <r>    5.2737    1.0000 </r>
       <r>    5.3307    1.0000 </r>
       <r>    5.7772    1.0000 </r>
       <r>    5.9272    1.0007 </r>
       <r>    5.9893    1.0027 </r>
       <r>    6.1898    1.0346 </r>
       <r>    6.4623    0.4486 </r>
       <r>    6.7057   -0.0351 </r>
       <r>    8.3041   -0.0000 </r>
       <r>    9.1914   -0.0000 </r>
       <r>   13.3413    0.0000 </r>
       <r>   14.6061    0.0000 </r>
       <r>   15.0162    0.0000 </r>
       <r>   16.5094    0.0000 </r>
       <r>   16.5416    0.0000 </r>
      </set>
      <set comment="kpoint 23">
       <r>   -2.6040    1.0000 </r>
       <r>    1.7281    1.0000 </r>
       <r>    2.6670    1.0000 </r>
       <r>    3.2789    1.0000 </r>
       <r>    3.3956    1.0000 </r>
       <r>    3.4931    1.0000 </r>
       <r>    3.6676    1.0000 </r>
       <r>    4.6225    1.0000 </r>
       <r>    4.8366    1.0000 </r>
       <r>    5.1197    1.0000 </r>
       <r>    5.2107    1.0000 </r>
       <r>    5.6369    1.0000 </r>
       <r>    5.7792    1.0000 </r>
       <r>    5.9467    1.0011 </r>
       <r>    6.0891    1.0142 </r>
       <r>    6.2300    1.0327 </r>
       <r>    6.7002   -0.0354 </r>
       <r>    8.7623   -0.0000 </r>
       <r>    9.7247   -0.0000 </r>
       <r>   13.1861    0.0000 </r>
       <r>   14.2907    0.0000 </r>
       <r>   14.8154    0.0000 </r>
       <r>   15.6300    0.0000 </r>
       <r>   17.0477    0.0000 </r>
      </set>
      <set comment="kpoint 24">
       <r>   -2.2104    1.0000 </r>
       <r>    1.2309    1.0000 </r>
       <r>    2.7858    1.0000 </r>
       <r>    3.3468    1.0000 </r>
       <r>    3.4295    1.0000 </r>
       <r>    3.6396    1.0000 </r>
       <r>    3.7337    1.0000 </r>
       <r>    4.5595    1.0000 </r>
       <r>    4.7168    1.0000 </r>
       <r>    5.0191    1.0000 </r>
       <r>    5.1125    1.0000 </r>
       <r>    5.4911    1.0000 </r>
       <r>    5.6643    1.0000 </r>
       <r>    5.8341    1.0001 </r>
       <r>    6.0054    1.0036 </r>
       <r>    6.1034    1.0171 </r>
       <r>    6.6978   -0.0354 </r>
       <r>    9.2546   -0.0000 </r>
       <r>   10.3096   -0.0000 </r>
       <r>   12.7822    0.0000 </r>
       <r>   13.9381    0.0000 </r>
       <r>   14.7499    0.0000 </r>
       <r>   14.9753    0.0000 </r>
       <r>   16.8215    0.0000 </r>
      </set>
      <set comment="kpoint 25">
       <r>   -1.7648    1.0000 </r>
       <r>    0.6705    1.0000 </r>
       <r>    2.9055    1.0000 </r>
       <r>    3.3677    1.0000 </r>
       <r>    3.4634    1.0000 </r>
       <r>    3.7774    1.0000 </r>
       <r>    3.8205    1.0000 </r>
       <r>    4.5505    1.0000 </r>
       <r>    4.6030    1.0000 </r>
       <r>    4.9878    1.0000 </r>
       <r>    4.9979    1.0000 </r>
       <r>    5.3560    1.0000 </r>
       <r>    5.5871    1.0000 </r>
       <r>    5.7169    1.0000 </r>
       <r>    5.8792    1.0002 </r>
       <r>    6.0793    1.0124 </r>
       <r>    6.6968   -0.0354 </r>
       <r>    9.7755   -0.0000 </r>
       <r>   10.9415   -0.0000 </r>
       <r>   12.1902    0.0000 </r>
       <r>   13.8198    0.0000 </r>
       <r>   13.9078    0.0000 </r>
       <r>   15.1701    0.0000 </r>
       <r>   16.4581    0.0000 </r>
      </set>
      <set comment="kpoint 26">
       <r>   -1.2999    1.0000 </r>
       <r>    0.1211    1.0000 </r>
       <r>    2.9972    1.0000 </r>
       <r>    3.3682    1.0000 </r>
       <r>    3.4898    1.0000 </r>
       <r>    3.7959    1.0000 </r>
       <r>    3.9755    1.0000 </r>
       <r>    4.5210    1.0000 </r>
       <r>    4.5975    1.0000 </r>
       <r>    4.8564    1.0000 </r>
       <r>    5.0086    1.0000 </r>
       <r>    5.2519    1.0000 </r>
       <r>    5.5439    1.0000 </r>
       <r>    5.6424    1.0000 </r>
       <r>    5.7707    1.0000 </r>
       <r>    6.0763    1.0119 </r>
       <r>    6.6964   -0.0355 </r>
       <r>   10.3179   -0.0000 </r>
       <r>   11.5701   -0.0000 </r>
       <r>   11.6168   -0.0000 </r>
       <r>   13.1067    0.0000 </r>
       <r>   13.7861    0.0000 </r>
       <r>   15.3771    0.0000 </r>
       <r>   16.1389    0.0000 </r>
      </set>
      <set comment="kpoint 27">
       <r>   -1.0104    1.0000 </r>
       <r>   -0.1991    1.0000 </r>
       <r>    3.0330    1.0000 </r>
       <r>    3.3649    1.0000 </r>
       <r>    3.5000    1.0000 </r>
       <r>    3.7994    1.0000 </r>
       <r>    4.0415    1.0000 </r>
       <r>    4.4872    1.0000 </r>
       <r>    4.6542    1.0000 </r>
       <r>    4.7716    1.0000 </r>
       <r>    5.0187    1.0000 </r>
       <r>    5.2094    1.0000 </r>
       <r>    5.5301    1.0000 </r>
       <r>    5.6205    1.0000 </r>
       <r>    5.7249    1.0000 </r>
       <r>    6.0761    1.0119 </r>
       <r>    6.6963   -0.0355 </r>
       <r>   10.7519   -0.0000 </r>
       <r>   11.1066   -0.0000 </r>
       <r>   12.2649    0.0000 </r>
       <r>   12.4168    0.0000 </r>
       <r>   13.7790    0.0000 </r>
       <r>   15.5021    0.0000 </r>
       <r>   15.9764    0.0000 </r>
      </set>
      <set comment="kpoint 28">
       <r>   -3.0088    1.0000 </r>
       <r>    2.2630    1.0000 </r>
       <r>    2.6003    1.0000 </r>
       <r>    3.0226    1.0000 </r>
       <r>    3.3454    1.0000 </r>
       <r>    3.4066    1.0000 </r>
       <r>    3.5957    1.0000 </r>
       <r>    4.7055    1.0000 </r>
       <r>    4.9655    1.0000 </r>
       <r>    5.3475    1.0000 </r>
       <r>    5.3503    1.0000 </r>
       <r>    5.8439    1.0001 </r>
       <r>    5.9585    1.0014 </r>
       <r>    5.9793    1.0022 </r>
       <r>    6.2219    1.0343 </r>
       <r>    6.6569   -0.0283 </r>
       <r>    6.8479   -0.0083 </r>
       <r>    7.7150   -0.0000 </r>
       <r>    9.0735   -0.0000 </r>
       <r>   13.3637    0.0000 </r>
       <r>   14.9620    0.0000 </r>
       <r>   15.1929    0.0000 </r>
       <r>   15.8451    0.0000 </r>
       <r>   17.5843    0.0000 </r>
      </set>
      <set comment="kpoint 29">
       <r>   -2.7500    1.0000 </r>
       <r>    2.1876    1.0000 </r>
       <r>    2.5547    1.0000 </r>
       <r>    3.0964    1.0000 </r>
       <r>    3.3563    1.0000 </r>
       <r>    3.4441    1.0000 </r>
       <r>    3.6817    1.0000 </r>
       <r>    4.5764    1.0000 </r>
       <r>    4.9125    1.0000 </r>
       <r>    5.1099    1.0000 </r>
       <r>    5.3572    1.0000 </r>
       <r>    5.7471    1.0000 </r>
       <r>    5.8402    1.0001 </r>
       <r>    5.9388    1.0009 </r>
       <r>    6.1318    1.0235 </r>
       <r>    6.6159    0.0029 </r>
       <r>    6.6376   -0.0173 </r>
       <r>    7.8932   -0.0000 </r>
       <r>    9.5121   -0.0000 </r>
       <r>   13.1736    0.0000 </r>
       <r>   14.2993    0.0000 </r>
       <r>   15.5464    0.0000 </r>
       <r>   16.6178    0.0000 </r>
       <r>   16.7352    0.0000 </r>
      </set>
      <set comment="kpoint 30">
       <r>   -2.4232    1.0000 </r>
       <r>    1.8462    1.0000 </r>
       <r>    2.6466    1.0000 </r>
       <r>    3.1877    1.0000 </r>
       <r>    3.3782    1.0000 </r>
       <r>    3.5229    1.0000 </r>
       <r>    3.7655    1.0000 </r>
       <r>    4.4757    1.0000 </r>
       <r>    4.8013    1.0000 </r>
       <r>    4.9799    1.0000 </r>
       <r>    5.3170    1.0000 </r>
       <r>    5.6154    1.0000 </r>
       <r>    5.7100    1.0000 </r>
       <r>    5.9044    1.0004 </r>
       <r>    6.0415    1.0069 </r>
       <r>    6.3869    0.7533 </r>
       <r>    6.5918    0.0372 </r>
       <r>    8.2362   -0.0000 </r>
       <r>   10.0166   -0.0000 </r>
       <r>   12.6711    0.0000 </r>
       <r>   14.0076    0.0000 </r>
       <r>   15.7406    0.0000 </r>
       <r>   15.8220    0.0000 </r>
       <r>   17.2307    0.0000 </r>
      </set>
      <set comment="kpoint 31">
       <r>   -2.0342    1.0000 </r>
       <r>    1.3615    1.0000 </r>
       <r>    2.7822    1.0000 </r>
       <r>    3.2425    1.0000 </r>
       <r>    3.4080    1.0000 </r>
       <r>    3.6616    1.0000 </r>
       <r>    3.8267    1.0000 </r>
       <r>    4.4288    1.0000 </r>
       <r>    4.6407    1.0000 </r>
       <r>    4.9727    1.0000 </r>
       <r>    5.2117    1.0000 </r>
       <r>    5.4676    1.0000 </r>
       <r>    5.6232    1.0000 </r>
       <r>    5.8079    1.0000 </r>
       <r>    6.0044    1.0036 </r>
       <r>    6.1865    1.0343 </r>
       <r>    6.5782    0.0626 </r>
       <r>    8.6404   -0.0000 </r>
       <r>   10.5775   -0.0000 </r>
       <r>   12.0036    0.0000 </r>
       <r>   13.9497    0.0000 </r>
       <r>   14.9461    0.0000 </r>
       <r>   15.9212    0.0000 </r>
       <r>   17.1152    0.0000 </r>
      </set>
      <set comment="kpoint 32">
       <r>   -1.5948    1.0000 </r>
       <r>    0.8142    1.0000 </r>
       <r>    2.9198    1.0000 </r>
       <r>    3.2519    1.0000 </r>
       <r>    3.4410    1.0000 </r>
       <r>    3.8370    1.0000 </r>
       <r>    3.8462    1.0000 </r>
       <r>    4.4591    1.0000 </r>
       <r>    4.5109    1.0000 </r>
       <r>    5.0015    1.0000 </r>
       <r>    5.0575    1.0000 </r>
       <r>    5.3224    1.0000 </r>
       <r>    5.5795    1.0000 </r>
       <r>    5.7015    1.0000 </r>
       <r>    5.9773    1.0021 </r>
       <r>    6.0499    1.0080 </r>
       <r>    6.5709    0.0783 </r>
       <r>    9.0843   -0.0000 </r>
       <r>   11.1888   -0.0000 </r>
       <r>   11.3339   -0.0000 </r>
       <r>   13.9612    0.0000 </r>
       <r>   14.1120    0.0000 </r>
       <r>   16.0898    0.0000 </r>
       <r>   16.8367    0.0000 </r>
      </set>
      <set comment="kpoint 33">
       <r>   -1.1388    1.0000 </r>
       <r>    0.2783    1.0000 </r>
       <r>    3.0397    1.0000 </r>
       <r>    3.2254    1.0000 </r>
       <r>    3.4689    1.0000 </r>
       <r>    3.8356    1.0000 </r>
       <r>    4.0024    1.0000 </r>
       <r>    4.4136    1.0000 </r>
       <r>    4.5583    1.0000 </r>
       <r>    4.8882    1.0000 </r>
       <r>    5.0431    1.0000 </r>
       <r>    5.1988    1.0000 </r>
       <r>    5.5596    1.0000 </r>
       <r>    5.6359    1.0000 </r>
       <r>    5.8895    1.0003 </r>
       <r>    6.0225    1.0050 </r>
       <r>    6.5673    0.0865 </r>
       <r>    9.5614   -0.0000 </r>
       <r>   10.7128   -0.0000 </r>
       <r>   11.8441   -0.0000 </r>
       <r>   13.3238    0.0000 </r>
       <r>   13.9848    0.0000 </r>
       <r>   16.2138    0.0000 </r>
       <r>   16.6393    0.0000 </r>
      </set>
      <set comment="kpoint 34">
       <r>   -0.8589    1.0000 </r>
       <r>   -0.0306    1.0000 </r>
       <r>    3.1066    1.0000 </r>
       <r>    3.1907    1.0000 </r>
       <r>    3.4803    1.0000 </r>
       <r>    3.8269    1.0000 </r>
       <r>    4.0838    1.0000 </r>
       <r>    4.3642    1.0000 </r>
       <r>    4.6630    1.0000 </r>
       <r>    4.7617    1.0000 </r>
       <r>    5.0841    1.0000 </r>
       <r>    5.1263    1.0000 </r>
       <r>    5.5537    1.0000 </r>
       <r>    5.6180    1.0000 </r>
       <r>    5.8452    1.0001 </r>
       <r>    6.0209    1.0048 </r>
       <r>    6.5662    0.0890 </r>
       <r>    9.9615   -0.0000 </r>
       <r>   10.2637   -0.0000 </r>
       <r>   12.4331    0.0000 </r>
       <r>   12.6906    0.0000 </r>
       <r>   13.9956    0.0000 </r>
       <r>   16.2567    0.0000 </r>
       <r>   16.5743    0.0000 </r>
      </set>
      <set comment="kpoint 35">
       <r>   -2.4951    1.0000 </r>
       <r>    2.2907    1.0000 </r>
       <r>    2.4005    1.0000 </r>
       <r>    3.1005    1.0000 </r>
       <r>    3.3585    1.0000 </r>
       <r>    3.4865    1.0000 </r>
       <r>    3.7827    1.0000 </r>
       <r>    4.4407    1.0000 </r>
       <r>    4.8863    1.0000 </r>
       <r>    4.9097    1.0000 </r>
       <r>    5.4115    1.0000 </r>
       <r>    5.6954    1.0000 </r>
       <r>    5.7202    1.0000 </r>
       <r>    5.8940    1.0003 </r>
       <r>    6.0467    1.0076 </r>
       <r>    6.5390    0.1618 </r>
       <r>    6.6531   -0.0266 </r>
       <r>    7.7170   -0.0000 </r>
       <r>    9.9178   -0.0000 </r>
       <r>   12.6272    0.0000 </r>
       <r>   14.0257    0.0000 </r>
       <r>   16.4396    0.0000 </r>
       <r>   16.8398    0.0000 </r>
       <r>   16.9110    0.0000 </r>
      </set>
      <set comment="kpoint 36">
       <r>   -2.1734    1.0000 </r>
       <r>    1.9996    1.0000 </r>
       <r>    2.4948    1.0000 </r>
       <r>    3.1530    1.0000 </r>
       <r>    3.3722    1.0000 </r>
       <r>    3.5633    1.0000 </r>
       <r>    3.8806    1.0000 </r>
       <r>    4.3363    1.0000 </r>
       <r>    4.6899    1.0000 </r>
       <r>    4.9269    1.0000 </r>
       <r>    5.4069    1.0000 </r>
       <r>    5.5967    1.0000 </r>
       <r>    5.6054    1.0000 </r>
       <r>    5.8543    1.0001 </r>
       <r>    5.9563    1.0013 </r>
       <r>    6.4838    0.3595 </r>
       <r>    6.4895    0.3367 </r>
       <r>    7.8412   -0.0000 </r>
       <r>   10.3928   -0.0000 </r>
       <r>   11.8967   -0.0000 </r>
       <r>   14.0000    0.0000 </r>
       <r>   16.0669    0.0000 </r>
       <r>   16.7563    0.0000 </r>
       <r>   17.3204    0.0000 </r>
      </set>
      <set comment="kpoint 37">
       <r>   -1.7913    1.0000 </r>
       <r>    1.5334    1.0000 </r>
       <r>    2.6524    1.0000 </r>
       <r>    3.2000    1.0000 </r>
       <r>    3.3948    1.0000 </r>
       <r>    3.6871    1.0000 </r>
       <r>    3.9363    1.0000 </r>
       <r>    4.3069    1.0000 </r>
       <r>    4.5324    1.0000 </r>
       <r>    4.9641    1.0000 </r>
       <r>    5.2845    1.0000 </r>
       <r>    5.4650    1.0000 </r>
       <r>    5.5701    1.0000 </r>
       <r>    5.7630    1.0000 </r>
       <r>    5.9240    1.0006 </r>
       <r>    6.2925    0.9869 </r>
       <r>    6.4479    0.5094 </r>
       <r>    8.1203   -0.0000 </r>
       <r>   10.9271   -0.0000 </r>
       <r>   11.1697   -0.0000 </r>
       <r>   14.0492    0.0000 </r>
       <r>   15.2033    0.0000 </r>
       <r>   16.8110    0.0000 </r>
       <r>   17.5664    0.0000 </r>
      </set>
      <set comment="kpoint 38">
       <r>   -1.3609    1.0000 </r>
       <r>    1.0063    1.0000 </r>
       <r>    2.7993    1.0000 </r>
       <r>    3.2168    1.0000 </r>
       <r>    3.4220    1.0000 </r>
       <r>    3.8479    1.0000 </r>
       <r>    3.9197    1.0000 </r>
       <r>    4.3872    1.0000 </r>
       <r>    4.4132    1.0000 </r>
       <r>    5.0083    1.0000 </r>
       <r>    5.1020    1.0000 </r>
       <r>    5.3246    1.0000 </r>
       <r>    5.5728    1.0000 </r>
       <r>    5.6647    1.0000 </r>
       <r>    5.9252    1.0007 </r>
       <r>    6.1254    1.0220 </r>
       <r>    6.4261    0.6007 </r>
       <r>    8.4729   -0.0000 </r>
       <r>   10.4991   -0.0000 </r>
       <r>   11.5137   -0.0000 </r>
       <r>   14.1182    0.0000 </r>
       <r>   14.3834    0.0000 </r>
       <r>   16.7025    0.0000 </r>
       <r>   17.6166    0.0000 </r>
      </set>
      <set comment="kpoint 39">
       <r>   -0.9178    1.0000 </r>
       <r>    0.4906    1.0000 </r>
       <r>    2.9129    1.0000 </r>
       <r>    3.2068    1.0000 </r>
       <r>    3.4460    1.0000 </r>
       <r>    3.8802    1.0000 </r>
       <r>    4.0145    1.0000 </r>
       <r>    4.3146    1.0000 </r>
       <r>    4.5330    1.0000 </r>
       <r>    4.9091    1.0000 </r>
       <r>    5.0486    1.0000 </r>
       <r>    5.2019    1.0000 </r>
       <r>    5.5776    1.0000 </r>
       <r>    5.6103    1.0000 </r>
       <r>    5.9315    1.0008 </r>
       <r>    6.0034    1.0035 </r>
       <r>    6.4146    0.6478 </r>
       <r>    8.8788   -0.0000 </r>
       <r>    9.9009   -0.0000 </r>
       <r>   12.1426    0.0000 </r>
       <r>   13.6154    0.0000 </r>
       <r>   14.1770    0.0000 </r>
       <r>   16.5528    0.0000 </r>
       <r>   17.7123    0.0000 </r>
      </set>
      <set comment="kpoint 40">
       <r>   -0.6512    1.0000 </r>
       <r>    0.1976    1.0000 </r>
       <r>    2.9601    1.0000 </r>
       <r>    3.1949    1.0000 </r>
       <r>    3.4560    1.0000 </r>
       <r>    3.8624    1.0000 </r>
       <r>    4.1197    1.0000 </r>
       <r>    4.2423    1.0000 </r>
       <r>    4.6752    1.0000 </r>
       <r>    4.7529    1.0000 </r>
       <r>    5.0793    1.0000 </r>
       <r>    5.1360    1.0000 </r>
       <r>    5.5793    1.0000 </r>
       <r>    5.5981    1.0000 </r>
       <r>    5.9426    1.0010 </r>
       <r>    5.9470    1.0011 </r>
       <r>    6.4110    0.6622 </r>
       <r>    9.2574   -0.0000 </r>
       <r>    9.4578   -0.0000 </r>
       <r>   12.6677    0.0000 </r>
       <r>   13.0442    0.0000 </r>
       <r>   14.2003    0.0000 </r>
       <r>   16.4898    0.0000 </r>
       <r>   17.7593    0.0000 </r>
      </set>
      <set comment="kpoint 41">
       <r>   -1.8587    1.0000 </r>
       <r>    2.1517    1.0000 </r>
       <r>    2.1981    1.0000 </r>
       <r>    3.1885    1.0000 </r>
       <r>    3.3768    1.0000 </r>
       <r>    3.6267    1.0000 </r>
       <r>    4.0041    1.0000 </r>
       <r>    4.2175    1.0000 </r>
       <r>    4.5445    1.0000 </r>
       <r>    4.9470    1.0000 </r>
       <r>    5.4622    1.0000 </r>
       <r>    5.4820    1.0000 </r>
       <r>    5.5483    1.0000 </r>
       <r>    5.8137    1.0000 </r>
       <r>    5.8477    1.0001 </r>
       <r>    6.3936    0.7288 </r>
       <r>    6.4650    0.4371 </r>
       <r>    7.6923   -0.0000 </r>
       <r>   10.8392   -0.0000 </r>
       <r>   11.1117   -0.0000 </r>
       <r>   14.0769    0.0000 </r>
       <r>   16.1776    0.0000 </r>
       <r>   16.6311    0.0000 </r>
       <r>   17.3336    0.0000 </r>
      </set>
      <set comment="kpoint 42">
       <r>   -1.4859    1.0000 </r>
       <r>    1.7330    1.0000 </r>
       <r>    2.3587    1.0000 </r>
       <r>    3.2380    1.0000 </r>
       <r>    3.3899    1.0000 </r>
       <r>    3.7256    1.0000 </r>
       <r>    4.0492    1.0000 </r>
       <r>    4.2103    1.0000 </r>
       <r>    4.4203    1.0000 </r>
       <r>    4.9912    1.0000 </r>
       <r>    5.2954    1.0000 </r>
       <r>    5.4565    1.0000 </r>
       <r>    5.5347    1.0000 </r>
       <r>    5.7113    1.0000 </r>
       <r>    5.8145    1.0000 </r>
       <r>    6.3269    0.9270 </r>
       <r>    6.3334    0.9126 </r>
       <r>    7.7804   -0.0000 </r>
       <r>   10.3857   -0.0000 </r>
       <r>   11.3459   -0.0000 </r>
       <r>   14.1843    0.0000 </r>
       <r>   15.4886    0.0000 </r>
       <r>   16.8220    0.0000 </r>
       <r>   17.2519    0.0000 </r>
      </set>
      <set comment="kpoint 43">
       <r>   -1.0680    1.0000 </r>
       <r>    1.2354    1.0000 </r>
       <r>    2.5199    1.0000 </r>
       <r>    3.2678    1.0000 </r>
       <r>    3.4075    1.0000 </r>
       <r>    3.8589    1.0000 </r>
       <r>    3.9793    1.0000 </r>
       <r>    4.3245    1.0000 </r>
       <r>    4.3557    1.0000 </r>
       <r>    5.0356    1.0000 </r>
       <r>    5.1086    1.0000 </r>
       <r>    5.3379    1.0000 </r>
       <r>    5.5730    1.0000 </r>
       <r>    5.6093    1.0000 </r>
       <r>    5.8200    1.0000 </r>
       <r>    6.1837    1.0339 </r>
       <r>    6.2824    0.9993 </r>
       <r>    8.0074   -0.0000 </r>
       <r>    9.7410   -0.0000 </r>
       <r>   11.9049   -0.0000 </r>
       <r>   14.2970    0.0000 </r>
       <r>   14.7038    0.0000 </r>
       <r>   17.0158    0.0000 </r>
       <r>   17.1594    0.0000 </r>
      </set>
      <set comment="kpoint 44">
       <r>   -0.6421    1.0000 </r>
       <r>    0.7483    1.0000 </r>
       <r>    2.6350    1.0000 </r>
       <r>    3.2762    1.0000 </r>
       <r>    3.4233    1.0000 </r>
       <r>    3.9232    1.0000 </r>
       <r>    4.0061    1.0000 </r>
       <r>    4.2403    1.0000 </r>
       <r>    4.5294    1.0000 </r>
       <r>    4.9149    1.0000 </r>
       <r>    5.0640    1.0000 </r>
       <r>    5.2267    1.0000 </r>
       <r>    5.5611    1.0000 </r>
       <r>    5.5957    1.0000 </r>
       <r>    5.8299    1.0001 </r>
       <r>    6.0671    1.0104 </r>
       <r>    6.2570    1.0212 </r>
       <r>    8.3199   -0.0000 </r>
       <r>    9.1854   -0.0000 </r>
       <r>   12.5024    0.0000 </r>
       <r>   13.9666    0.0000 </r>
       <r>   14.3870    0.0000 </r>
       <r>   16.8087    0.0000 </r>
       <r>   17.4462    0.0000 </r>
      </set>
      <set comment="kpoint 45">
       <r>   -0.3923    1.0000 </r>
       <r>    0.4757    1.0000 </r>
       <r>    2.6774    1.0000 </r>
       <r>    3.2762    1.0000 </r>
       <r>    3.4298    1.0000 </r>
       <r>    3.9028    1.0000 </r>
       <r>    4.1364    1.0000 </r>
       <r>    4.1409    1.0000 </r>
       <r>    4.6905    1.0000 </r>
       <r>    4.7471    1.0000 </r>
       <r>    5.0766    1.0000 </r>
       <r>    5.1749    1.0000 </r>
       <r>    5.5529    1.0000 </r>
       <r>    5.6032    1.0000 </r>
       <r>    5.8353    1.0001 </r>
       <r>    6.0200    1.0048 </r>
       <r>    6.2488    1.0258 </r>
       <r>    8.6633   -0.0000 </r>
       <r>    8.7616   -0.0000 </r>
       <r>   12.9675    0.0000 </r>
       <r>   13.4547    0.0000 </r>
       <r>   14.4224    0.0000 </r>
       <r>   16.7289    0.0000 </r>
       <r>   17.5659    0.0000 </r>
      </set>
      <set comment="kpoint 46">
       <r>   -1.1255    1.0000 </r>
       <r>    1.8903    1.0000 </r>
       <r>    2.0096    1.0000 </r>
       <r>    3.2891    1.0000 </r>
       <r>    3.3916    1.0000 </r>
       <r>    3.7907    1.0000 </r>
       <r>    4.0641    1.0000 </r>
       <r>    4.2438    1.0000 </r>
       <r>    4.3259    1.0000 </r>
       <r>    5.0390    1.0000 </r>
       <r>    5.2108    1.0000 </r>
       <r>    5.4176    1.0000 </r>
       <r>    5.5504    1.0000 </r>
       <r>    5.6476    1.0000 </r>
       <r>    5.7126    1.0000 </r>
       <r>    6.2280    1.0331 </r>
       <r>    6.2852    0.9960 </r>
       <r>    7.6619   -0.0000 </r>
       <r>    9.6864   -0.0000 </r>
       <r>   11.8242   -0.0000 </r>
       <r>   14.3378    0.0000 </r>
       <r>   15.5867    0.0000 </r>
       <r>   16.2543    0.0000 </r>
       <r>   17.3874    0.0000 </r>
      </set>
      <set comment="kpoint 47">
       <r>   -0.7241    1.0000 </r>
       <r>    1.4823    1.0000 </r>
       <r>    2.1542    1.0000 </r>
       <r>    3.3150    1.0000 </r>
       <r>    3.3971    1.0000 </r>
       <r>    3.8871    1.0000 </r>
       <r>    4.0032    1.0000 </r>
       <r>    4.2542    1.0000 </r>
       <r>    4.3879    1.0000 </r>
       <r>    5.0683    1.0000 </r>
       <r>    5.0855    1.0000 </r>
       <r>    5.3415    1.0000 </r>
       <r>    5.5436    1.0000 </r>
       <r>    5.5851    1.0000 </r>
       <r>    5.6896    1.0000 </r>
       <r>    6.1558    1.0289 </r>
       <r>    6.1850    1.0341 </r>
       <r>    7.7285   -0.0000 </r>
       <r>    9.0881   -0.0000 </r>
       <r>   12.3535    0.0000 </r>
       <r>   14.4904    0.0000 </r>
       <r>   15.0292    0.0000 </r>
       <r>   16.3989    0.0000 </r>
       <r>   17.2679    0.0000 </r>
      </set>
      <set comment="kpoint 48">
       <r>   -0.3202    1.0000 </r>
       <r>    1.0342    1.0000 </r>
       <r>    2.2967    1.0000 </r>
       <r>    3.3160    1.0000 </r>
       <r>    3.4027    1.0000 </r>
       <r>    3.9591    1.0000 </r>
       <r>    3.9975    1.0000 </r>
       <r>    4.1940    1.0000 </r>
       <r>    4.5520    1.0000 </r>
       <r>    4.9019    1.0000 </r>
       <r>    5.1102    1.0000 </r>
       <r>    5.2498    1.0000 </r>
       <r>    5.4911    1.0000 </r>
       <r>    5.6126    1.0000 </r>
       <r>    5.6903    1.0000 </r>
       <r>    6.0926    1.0149 </r>
       <r>    6.1117    1.0189 </r>
       <r>    7.9200   -0.0000 </r>
       <r>    8.5971   -0.0000 </r>
       <r>   12.9165    0.0000 </r>
       <r>   14.3514    0.0000 </r>
       <r>   14.6106    0.0000 </r>
       <r>   16.6682    0.0000 </r>
       <r>   17.0796    0.0000 </r>
      </set>
      <set comment="kpoint 49">
       <r>   -0.0896    1.0000 </r>
       <r>    0.7866    1.0000 </r>
       <r>    2.3507    1.0000 </r>
       <r>    3.3123    1.0000 </r>
       <r>    3.4051    1.0000 </r>
       <r>    3.9435    1.0000 </r>
       <r>    4.0711    1.0000 </r>
       <r>    4.1460    1.0000 </r>
       <r>    4.7079    1.0000 </r>
       <r>    4.7443    1.0000 </r>
       <r>    5.1173    1.0000 </r>
       <r>    5.2040    1.0000 </r>
       <r>    5.4840    1.0000 </r>
       <r>    5.6227    1.0000 </r>
       <r>    5.6922    1.0000 </r>
       <r>    6.0546    1.0086 </r>
       <r>    6.0967    1.0157 </r>
       <r>    8.1959   -0.0000 </r>
       <r>    8.2240   -0.0000 </r>
       <r>   13.3313    0.0000 </r>
       <r>   13.8939    0.0000 </r>
       <r>   14.6578    0.0000 </r>
       <r>   16.7878    0.0000 </r>
       <r>   16.9989    0.0000 </r>
      </set>
      <set comment="kpoint 50">
       <r>   -0.3440    1.0000 </r>
       <r>    1.6640    1.0000 </r>
       <r>    1.7983    1.0000 </r>
       <r>    3.3177    1.0000 </r>
       <r>    3.3902    1.0000 </r>
       <r>    3.9469    1.0000 </r>
       <r>    3.9969    1.0000 </r>
       <r>    4.2037    1.0000 </r>
       <r>    4.4781    1.0000 </r>
       <r>    4.9837    1.0000 </r>
       <r>    5.1424    1.0000 </r>
       <r>    5.3184    1.0000 </r>
       <r>    5.4717    1.0000 </r>
       <r>    5.5767    1.0000 </r>
       <r>    5.6066    1.0000 </r>
       <r>    6.0573    1.0090 </r>
       <r>    6.1364    1.0245 </r>
       <r>    7.6360   -0.0000 </r>
       <r>    8.5568   -0.0000 </r>
       <r>   12.8509    0.0000 </r>
       <r>   14.6790    0.0000 </r>
       <r>   15.1514    0.0000 </r>
       <r>   15.9015    0.0000 </r>
       <r>   17.4105    0.0000 </r>
      </set>
      <set comment="kpoint 51">
       <r>    0.0332    1.0000 </r>
       <r>    1.3179    1.0000 </r>
       <r>    1.9250    1.0000 </r>
       <r>    3.2865    1.0000 </r>
       <r>    3.3863    1.0000 </r>
       <r>    3.9843    1.0000 </r>
       <r>    4.0235    1.0000 </r>
       <r>    4.1657    1.0000 </r>
       <r>    4.6000    1.0000 </r>
       <r>    4.8675    1.0000 </r>
       <r>    5.1776    1.0000 </r>
       <r>    5.2646    1.0000 </r>
       <r>    5.4123    1.0000 </r>
       <r>    5.5350    1.0000 </r>
       <r>    5.6278    1.0000 </r>
       <r>    5.9937    1.0029 </r>
       <r>    6.0757    1.0118 </r>
       <r>    7.6924   -0.0000 </r>
       <r>    8.1516   -0.0000 </r>
       <r>   13.3786    0.0000 </r>
       <r>   14.7170    0.0000 </r>
       <r>   14.8263    0.0000 </r>
       <r>   15.9682    0.0000 </r>
       <r>   17.3651    0.0000 </r>
      </set>
      <set comment="kpoint 52">
       <r>    0.2432    1.0000 </r>
       <r>    1.0992    1.0000 </r>
       <r>    1.9958    1.0000 </r>
       <r>    3.2668    1.0000 </r>
       <r>    3.3850    1.0000 </r>
       <r>    3.9789    1.0000 </r>
       <r>    4.0694    1.0000 </r>
       <r>    4.1407    1.0000 </r>
       <r>    4.7254    1.0000 </r>
       <r>    4.7438    1.0000 </r>
       <r>    5.1870    1.0000 </r>
       <r>    5.2268    1.0000 </r>
       <r>    5.4027    1.0000 </r>
       <r>    5.5276    1.0000 </r>
       <r>    5.6369    1.0000 </r>
       <r>    5.9712    1.0018 </r>
       <r>    6.0479    1.0077 </r>
       <r>    7.8662   -0.0000 </r>
       <r>    7.8663   -0.0000 </r>
       <r>   13.7578    0.0000 </r>
       <r>   14.3198    0.0000 </r>
       <r>   14.8841    0.0000 </r>
       <r>   16.0656    0.0000 </r>
       <r>   17.3109    0.0000 </r>
      </set>
      <set comment="kpoint 53">
       <r>    0.3810    1.0000 </r>
       <r>    1.5125    1.0000 </r>
       <r>    1.5968    1.0000 </r>
       <r>    3.2104    1.0000 </r>
       <r>    3.3755    1.0000 </r>
       <r>    3.9986    1.0000 </r>
       <r>    4.0755    1.0000 </r>
       <r>    4.1463    1.0000 </r>
       <r>    4.6668    1.0000 </r>
       <r>    4.8122    1.0000 </r>
       <r>    5.2367    1.0000 </r>
       <r>    5.2633    1.0000 </r>
       <r>    5.3435    1.0000 </r>
       <r>    5.4251    1.0000 </r>
       <r>    5.6401    1.0000 </r>
       <r>    5.9153    1.0005 </r>
       <r>    6.0366    1.0064 </r>
       <r>    7.6193   -0.0000 </r>
       <r>    7.8482   -0.0000 </r>
       <r>   13.8740    0.0000 </r>
       <r>   14.8840    0.0000 </r>
       <r>   14.9935    0.0000 </r>
       <r>   15.4674    0.0000 </r>
       <r>   17.5980    0.0000 </r>
      </set>
      <set comment="kpoint 54">
       <r>    0.5728    1.0000 </r>
       <r>    1.3545    1.0000 </r>
       <r>    1.6503    1.0000 </r>
       <r>    3.1678    1.0000 </r>
       <r>    3.3718    1.0000 </r>
       <r>    4.0032    1.0000 </r>
       <r>    4.1078    1.0000 </r>
       <r>    4.1334    1.0000 </r>
       <r>    4.7392    1.0000 </r>
       <r>    4.7442    1.0000 </r>
       <r>    5.2461    1.0000 </r>
       <r>    5.2573    1.0000 </r>
       <r>    5.3239    1.0000 </r>
       <r>    5.3957    1.0000 </r>
       <r>    5.6454    1.0000 </r>
       <r>    5.8874    1.0003 </r>
       <r>    6.0155    1.0044 </r>
       <r>    7.6732   -0.0000 </r>
       <r>    7.6752   -0.0000 </r>
       <r>   14.2456    0.0000 </r>
       <r>   14.6577    0.0000 </r>
       <r>   15.0586    0.0000 </r>
       <r>   15.4005    0.0000 </r>
       <r>   17.6639    0.0000 </r>
      </set>
      <set comment="kpoint 55">
       <r>    0.7578    1.0000 </r>
       <r>    1.4594    1.0000 </r>
       <r>    1.4594    1.0000 </r>
       <r>    3.1135    1.0000 </r>
       <r>    3.3672    1.0000 </r>
       <r>    4.0118    1.0000 </r>
       <r>    4.1302    1.0000 </r>
       <r>    4.1302    1.0000 </r>
       <r>    4.7445    1.0000 </r>
       <r>    4.7445    1.0000 </r>
       <r>    5.2540    1.0000 </r>
       <r>    5.2884    1.0000 </r>
       <r>    5.2884    1.0000 </r>
       <r>    5.3468    1.0000 </r>
       <r>    5.6482    1.0000 </r>
       <r>    5.8578    1.0001 </r>
       <r>    5.9962    1.0030 </r>
       <r>    7.6136   -0.0000 </r>
       <r>    7.6136   -0.0000 </r>
       <r>   14.7933    0.0000 </r>
       <r>   14.7938    0.0000 </r>
       <r>   14.7938    0.0000 </r>
       <r>   15.1264    0.0000 </r>
       <r>   17.9398    0.0000 </r>
      </set>
      <set comment="kpoint 56">
       <r>   -3.5749    1.0000 </r>
       <r>    2.1264    1.0000 </r>
       <r>    2.8419    1.0000 </r>
       <r>    2.8419    1.0000 </r>
       <r>    3.3259    1.0000 </r>
       <r>    3.3713    1.0000 </r>
       <r>    3.3713    1.0000 </r>
       <r>    5.1135    1.0000 </r>
       <r>    5.2407    1.0000 </r>
       <r>    5.2407    1.0000 </r>
       <r>    6.0140    1.0043 </r>
       <r>    6.0140    1.0043 </r>
       <r>    6.4181    0.6335 </r>
       <r>    6.4255    0.6033 </r>
       <r>    6.4255    0.6033 </r>
       <r>    6.7821   -0.0203 </r>
       <r>    7.3090   -0.0000 </r>
       <r>    7.6188   -0.0000 </r>
       <r>    7.6188   -0.0000 </r>
       <r>   13.4871    0.0000 </r>
       <r>   13.4871    0.0000 </r>
       <r>   14.3071    0.0000 </r>
       <r>   18.1244    0.0000 </r>
       <r>   18.5981    0.0000 </r>
      </set>
      <set comment="kpoint 57">
       <r>   -3.4605    1.0000 </r>
       <r>    2.1597    1.0000 </r>
       <r>    2.7644    1.0000 </r>
       <r>    2.9155    1.0000 </r>
       <r>    3.3243    1.0000 </r>
       <r>    3.3860    1.0000 </r>
       <r>    3.4149    1.0000 </r>
       <r>    5.0152    1.0000 </r>
       <r>    5.1736    1.0000 </r>
       <r>    5.2554    1.0000 </r>
       <r>    5.9346    1.0008 </r>
       <r>    6.0150    1.0044 </r>
       <r>    6.1755    1.0327 </r>
       <r>    6.2627    1.0173 </r>
       <r>    6.3801    0.7772 </r>
       <r>    6.7682   -0.0235 </r>
       <r>    7.0603   -0.0001 </r>
       <r>    7.8597   -0.0000 </r>
       <r>    7.9358   -0.0000 </r>
       <r>   13.4796    0.0000 </r>
       <r>   13.8119    0.0000 </r>
       <r>   14.6933    0.0000 </r>
       <r>   17.4797    0.0000 </r>
       <r>   17.7844    0.0000 </r>
      </set>
      <set comment="kpoint 58">
       <r>   -3.2710    1.0000 </r>
       <r>    2.1742    1.0000 </r>
       <r>    2.6485    1.0000 </r>
       <r>    3.0332    1.0000 </r>
       <r>    3.3341    1.0000 </r>
       <r>    3.4099    1.0000 </r>
       <r>    3.4721    1.0000 </r>
       <r>    4.9050    1.0000 </r>
       <r>    5.0757    1.0000 </r>
       <r>    5.2418    1.0000 </r>
       <r>    5.7419    1.0000 </r>
       <r>    5.9665    1.0017 </r>
       <r>    6.0080    1.0038 </r>
       <r>    6.0933    1.0151 </r>
       <r>    6.3164    0.9484 </r>
       <r>    6.6652   -0.0313 </r>
       <r>    6.7615   -0.0251 </r>
       <r>    8.2833   -0.0000 </r>
       <r>    8.3449   -0.0000 </r>
       <r>   13.4646    0.0000 </r>
       <r>   14.0008    0.0000 </r>
       <r>   15.4934    0.0000 </r>
       <r>   16.6642    0.0000 </r>
       <r>   16.8840    0.0000 </r>
      </set>
      <set comment="kpoint 59">
       <r>   -3.0087    1.0000 </r>
       <r>    2.0400    1.0000 </r>
       <r>    2.5934    1.0000 </r>
       <r>    3.1859    1.0000 </r>
       <r>    3.3528    1.0000 </r>
       <r>    3.4437    1.0000 </r>
       <r>    3.5396    1.0000 </r>
       <r>    4.7973    1.0000 </r>
       <r>    4.9635    1.0000 </r>
       <r>    5.2032    1.0000 </r>
       <r>    5.4555    1.0000 </r>
       <r>    5.8188    1.0000 </r>
       <r>    5.9075    1.0004 </r>
       <r>    6.0250    1.0052 </r>
       <r>    6.2327    1.0320 </r>
       <r>    6.3296    0.9211 </r>
       <r>    6.7582   -0.0258 </r>
       <r>    8.7707   -0.0000 </r>
       <r>    8.8120   -0.0000 </r>
       <r>   13.4360    0.0000 </r>
       <r>   14.1333    0.0000 </r>
       <r>   15.7542    0.0000 </r>
       <r>   16.0059    0.0000 </r>
       <r>   16.5146    0.0000 </r>
      </set>
      <set comment="kpoint 60">
       <r>   -2.6769    1.0000 </r>
       <r>    1.6789    1.0000 </r>
       <r>    2.6600    1.0000 </r>
       <r>    3.3484    1.0000 </r>
       <r>    3.3769    1.0000 </r>
       <r>    3.4995    1.0000 </r>
       <r>    3.6123    1.0000 </r>
       <r>    4.7044    1.0000 </r>
       <r>    4.8523    1.0000 </r>
       <r>    5.1388    1.0000 </r>
       <r>    5.2023    1.0000 </r>
       <r>    5.6752    1.0000 </r>
       <r>    5.7683    1.0000 </r>
       <r>    5.9912    1.0028 </r>
       <r>    6.0796    1.0125 </r>
       <r>    6.1501    1.0276 </r>
       <r>    6.7566   -0.0262 </r>
       <r>    9.3052   -0.0000 </r>
       <r>    9.3230   -0.0000 </r>
       <r>   13.3775    0.0000 </r>
       <r>   14.2718    0.0000 </r>
       <r>   14.9239    0.0000 </r>
       <r>   15.1960    0.0000 </r>
       <r>   17.0399    0.0000 </r>
      </set>
      <set comment="kpoint 61">
       <r>   -2.2815    1.0000 </r>
       <r>    1.1770    1.0000 </r>
       <r>    2.7731    1.0000 </r>
       <r>    3.4014    1.0000 </r>
       <r>    3.4478    1.0000 </r>
       <r>    3.6319    1.0000 </r>
       <r>    3.6820    1.0000 </r>
       <r>    4.6356    1.0000 </r>
       <r>    4.7528    1.0000 </r>
       <r>    4.9980    1.0000 </r>
       <r>    5.0926    1.0000 </r>
       <r>    5.5333    1.0000 </r>
       <r>    5.6516    1.0000 </r>
       <r>    5.8940    1.0003 </r>
       <r>    5.9019    1.0004 </r>
       <r>    6.1090    1.0183 </r>
       <r>    6.7558   -0.0264 </r>
       <r>    9.8690   -0.0000 </r>
       <r>    9.8809   -0.0000 </r>
       <r>   13.2404    0.0000 </r>
       <r>   14.1027    0.0000 </r>
       <r>   14.4335    0.0000 </r>
       <r>   14.5141    0.0000 </r>
       <r>   16.7727    0.0000 </r>
      </set>
      <set comment="kpoint 62">
       <r>   -1.8335    1.0000 </r>
       <r>    0.6115    1.0000 </r>
       <r>    2.8862    1.0000 </r>
       <r>    3.4206    1.0000 </r>
       <r>    3.4876    1.0000 </r>
       <r>    3.7392    1.0000 </r>
       <r>    3.8114    1.0000 </r>
       <r>    4.5997    1.0000 </r>
       <r>    4.6701    1.0000 </r>
       <r>    4.8824    1.0000 </r>
       <r>    5.0326    1.0000 </r>
       <r>    5.4066    1.0000 </r>
       <r>    5.5675    1.0000 </r>
       <r>    5.7596    1.0000 </r>
       <r>    5.7782    1.0000 </r>
       <r>    6.0992    1.0162 </r>
       <r>    6.7555   -0.0264 </r>
       <r>   10.4407   -0.0000 </r>
       <r>   10.4949   -0.0000 </r>
       <r>   12.9205    0.0000 </r>
       <r>   13.3127    0.0000 </r>
       <r>   14.0716    0.0000 </r>
       <r>   14.6185    0.0000 </r>
       <r>   16.3573    0.0000 </r>
      </set>
      <set comment="kpoint 63">
       <r>   -1.3651    1.0000 </r>
       <r>    0.0571    1.0000 </r>
       <r>    2.9703    1.0000 </r>
       <r>    3.4309    1.0000 </r>
       <r>    3.5078    1.0000 </r>
       <r>    3.7759    1.0000 </r>
       <r>    3.9605    1.0000 </r>
       <r>    4.5991    1.0000 </r>
       <r>    4.6085    1.0000 </r>
       <r>    4.8050    1.0000 </r>
       <r>    4.9986    1.0000 </r>
       <r>    5.3136    1.0000 </r>
       <r>    5.5247    1.0000 </r>
       <r>    5.6671    1.0000 </r>
       <r>    5.6759    1.0000 </r>
       <r>    6.0977    1.0159 </r>
       <r>    6.7554   -0.0265 </r>
       <r>   11.0153   -0.0000 </r>
       <r>   11.1448   -0.0000 </r>
       <r>   12.4173    0.0000 </r>
       <r>   12.5574    0.0000 </r>
       <r>   13.8881    0.0000 </r>
       <r>   14.8029    0.0000 </r>
       <r>   16.0097    0.0000 </r>
      </set>
      <set comment="kpoint 64">
       <r>   -1.0717    1.0000 </r>
       <r>   -0.2676    1.0000 </r>
       <r>    3.0019    1.0000 </r>
       <r>    3.4335    1.0000 </r>
       <r>    3.5144    1.0000 </r>
       <r>    3.7883    1.0000 </r>
       <r>    4.0212    1.0000 </r>
       <r>    4.5829    1.0000 </r>
       <r>    4.6092    1.0000 </r>
       <r>    4.7706    1.0000 </r>
       <r>    4.9899    1.0000 </r>
       <r>    5.2779    1.0000 </r>
       <r>    5.5176    1.0000 </r>
       <r>    5.6168    1.0000 </r>
       <r>    5.6474    1.0000 </r>
       <r>    6.0976    1.0159 </r>
       <r>    6.7554   -0.0265 </r>
       <r>   11.3995   -0.0000 </r>
       <r>   11.7772   -0.0000 </r>
       <r>   11.8899   -0.0000 </r>
       <r>   12.0405    0.0000 </r>
       <r>   13.8437    0.0000 </r>
       <r>   14.8962    0.0000 </r>
       <r>   15.8593    0.0000 </r>
      </set>
      <set comment="kpoint 65">
       <r>   -3.3466    1.0000 </r>
       <r>    2.1969    1.0000 </r>
       <r>    2.7630    1.0000 </r>
       <r>    2.9114    1.0000 </r>
       <r>    3.3109    1.0000 </r>
       <r>    3.4097    1.0000 </r>
       <r>    3.4589    1.0000 </r>
       <r>    4.9021    1.0000 </r>
       <r>    5.1376    1.0000 </r>
       <r>    5.2680    1.0000 </r>
       <r>    5.8485    1.0001 </r>
       <r>    5.9794    1.0022 </r>
       <r>    6.0133    1.0042 </r>
       <r>    6.1466    1.0269 </r>
       <r>    6.3263    0.9284 </r>
       <r>    6.7382   -0.0302 </r>
       <r>    7.1605   -0.0000 </r>
       <r>    7.7286   -0.0000 </r>
       <r>    8.1752   -0.0000 </r>
       <r>   13.6202    0.0000 </r>
       <r>   14.1768    0.0000 </r>
       <r>   14.9154    0.0000 </r>
       <r>   16.7320    0.0000 </r>
       <r>   17.6815    0.0000 </r>
      </set>
      <set comment="kpoint 66">
       <r>   -3.1582    1.0000 </r>
       <r>    2.2225    1.0000 </r>
       <r>    2.6668    1.0000 </r>
       <r>    3.0006    1.0000 </r>
       <r>    3.3098    1.0000 </r>
       <r>    3.4342    1.0000 </r>
       <r>    3.5238    1.0000 </r>
       <r>    4.7830    1.0000 </r>
       <r>    5.0519    1.0000 </r>
       <r>    5.2723    1.0000 </r>
       <r>    5.6045    1.0000 </r>
       <r>    5.8971    1.0003 </r>
       <r>    5.9538    1.0013 </r>
       <r>    6.0290    1.0056 </r>
       <r>    6.2613    1.0183 </r>
       <r>    6.7145   -0.0342 </r>
       <r>    6.8780   -0.0050 </r>
       <r>    7.9626   -0.0000 </r>
       <r>    8.5477   -0.0000 </r>
       <r>   13.6333    0.0000 </r>
       <r>   14.4897    0.0000 </r>
       <r>   15.5800    0.0000 </r>
       <r>   15.8683    0.0000 </r>
       <r>   16.9247    0.0000 </r>
      </set>
      <set comment="kpoint 67">
       <r>   -2.8975    1.0000 </r>
       <r>    2.1047    1.0000 </r>
       <r>    2.6085    1.0000 </r>
       <r>    3.1395    1.0000 </r>
       <r>    3.3207    1.0000 </r>
       <r>    3.4695    1.0000 </r>
       <r>    3.5982    1.0000 </r>
       <r>    4.6735    1.0000 </r>
       <r>    4.9494    1.0000 </r>
       <r>    5.2380    1.0000 </r>
       <r>    5.3476    1.0000 </r>
       <r>    5.7761    1.0000 </r>
       <r>    5.8464    1.0001 </r>
       <r>    5.9907    1.0027 </r>
       <r>    6.1813    1.0336 </r>
       <r>    6.5303    0.1889 </r>
       <r>    6.6993   -0.0354 </r>
       <r>    8.3601   -0.0000 </r>
       <r>    8.9908   -0.0000 </r>
       <r>   13.5856    0.0000 </r>
       <r>   14.6487    0.0000 </r>
       <r>   15.0453    0.0000 </r>
       <r>   16.0322    0.0000 </r>
       <r>   16.5843    0.0000 </r>
      </set>
      <set comment="kpoint 68">
       <r>   -2.5678    1.0000 </r>
       <r>    1.7518    1.0000 </r>
       <r>    2.6780    1.0000 </r>
       <r>    3.2749    1.0000 </r>
       <r>    3.3520    1.0000 </r>
       <r>    3.5308    1.0000 </r>
       <r>    3.6737    1.0000 </r>
       <r>    4.5861    1.0000 </r>
       <r>    4.8387    1.0000 </r>
       <r>    5.0880    1.0000 </r>
       <r>    5.2311    1.0000 </r>
       <r>    5.6378    1.0000 </r>
       <r>    5.7222    1.0000 </r>
       <r>    5.9614    1.0015 </r>
       <r>    6.0974    1.0159 </r>
       <r>    6.2558    1.0219 </r>
       <r>    6.6888   -0.0353 </r>
       <r>    8.8113   -0.0000 </r>
       <r>    9.4868   -0.0000 </r>
       <r>   13.3905    0.0000 </r>
       <r>   14.3794    0.0000 </r>
       <r>   14.7830    0.0000 </r>
       <r>   15.2802    0.0000 </r>
       <r>   17.2800    0.0000 </r>
      </set>
      <set comment="kpoint 69">
       <r>   -2.1751    1.0000 </r>
       <r>    1.2573    1.0000 </r>
       <r>    2.7961    1.0000 </r>
       <r>    3.3252    1.0000 </r>
       <r>    3.4234    1.0000 </r>
       <r>    3.6545    1.0000 </r>
       <r>    3.7389    1.0000 </r>
       <r>    4.5334    1.0000 </r>
       <r>    4.7188    1.0000 </r>
       <r>    4.9567    1.0000 </r>
       <r>    5.1631    1.0000 </r>
       <r>    5.4924    1.0000 </r>
       <r>    5.6222    1.0000 </r>
       <r>    5.8723    1.0002 </r>
       <r>    6.0249    1.0052 </r>
       <r>    6.0856    1.0136 </r>
       <r>    6.6823   -0.0348 </r>
       <r>    9.2964   -0.0000 </r>
       <r>   10.0249   -0.0000 </r>
       <r>   12.9227    0.0000 </r>
       <r>   13.9184    0.0000 </r>
       <r>   14.5455    0.0000 </r>
       <r>   15.0758    0.0000 </r>
       <r>   17.1711    0.0000 </r>
      </set>
      <set comment="kpoint 70">
       <r>   -1.7308    1.0000 </r>
       <r>    0.6994    1.0000 </r>
       <r>    2.9167    1.0000 </r>
       <r>    3.3348    1.0000 </r>
       <r>    3.4721    1.0000 </r>
       <r>    3.7796    1.0000 </r>
       <r>    3.8310    1.0000 </r>
       <r>    4.5275    1.0000 </r>
       <r>    4.6078    1.0000 </r>
       <r>    4.8740    1.0000 </r>
       <r>    5.1024    1.0000 </r>
       <r>    5.3567    1.0000 </r>
       <r>    5.5572    1.0000 </r>
       <r>    5.7551    1.0000 </r>
       <r>    5.8888    1.0003 </r>
       <r>    6.0630    1.0098 </r>
       <r>    6.6786   -0.0343 </r>
       <r>    9.8072   -0.0000 </r>
       <r>   10.5917   -0.0000 </r>
       <r>   12.3170    0.0000 </r>
       <r>   13.3302    0.0000 </r>
       <r>   14.3289    0.0000 </r>
       <r>   15.2524    0.0000 </r>
       <r>   16.7926    0.0000 </r>
      </set>
      <set comment="kpoint 71">
       <r>   -1.2677    1.0000 </r>
       <r>    0.1528    1.0000 </r>
       <r>    3.0117    1.0000 </r>
       <r>    3.3286    1.0000 </r>
       <r>    3.4986    1.0000 </r>
       <r>    3.8010    1.0000 </r>
       <r>    3.9887    1.0000 </r>
       <r>    4.5153    1.0000 </r>
       <r>    4.5716    1.0000 </r>
       <r>    4.7970    1.0000 </r>
       <r>    5.0719    1.0000 </r>
       <r>    5.2523    1.0000 </r>
       <r>    5.5317    1.0000 </r>
       <r>    5.6593    1.0000 </r>
       <r>    5.7858    1.0000 </r>
       <r>    6.0615    1.0096 </r>
       <r>    6.6767   -0.0340 </r>
       <r>   10.3297   -0.0000 </r>
       <r>   11.1173   -0.0000 </r>
       <r>   11.7840   -0.0000 </r>
       <r>   12.6604    0.0000 </r>
       <r>   14.2827    0.0000 </r>
       <r>   15.4551    0.0000 </r>
       <r>   16.4498    0.0000 </r>
      </set>
      <set comment="kpoint 72">
       <r>   -0.9803    1.0000 </r>
       <r>   -0.1650    1.0000 </r>
       <r>    3.0501    1.0000 </r>
       <r>    3.3217    1.0000 </r>
       <r>    3.5076    1.0000 </r>
       <r>    3.8063    1.0000 </r>
       <r>    4.0597    1.0000 </r>
       <r>    4.4759    1.0000 </r>
       <r>    4.6087    1.0000 </r>
       <r>    4.7474    1.0000 </r>
       <r>    5.0679    1.0000 </r>
       <r>    5.2094    1.0000 </r>
       <r>    5.5338    1.0000 </r>
       <r>    5.6151    1.0000 </r>
       <r>    5.7475    1.0000 </r>
       <r>    6.0617    1.0096 </r>
       <r>    6.6762   -0.0339 </r>
       <r>   10.7069   -0.0000 </r>
       <r>   11.1130   -0.0000 </r>
       <r>   11.8774   -0.0000 </r>
       <r>   12.1345    0.0000 </r>
       <r>   14.2766    0.0000 </r>
       <r>   15.5671    0.0000 </r>
       <r>   16.2893    0.0000 </r>
      </set>
      <set comment="kpoint 73">
       <r>   -2.9717    1.0000 </r>
       <r>    2.2776    1.0000 </r>
       <r>    2.6257    1.0000 </r>
       <r>    3.0060    1.0000 </r>
       <r>    3.3004    1.0000 </r>
       <r>    3.4571    1.0000 </r>
       <r>    3.5989    1.0000 </r>
       <r>    4.6568    1.0000 </r>
       <r>    4.9942    1.0000 </r>
       <r>    5.2477    1.0000 </r>
       <r>    5.4319    1.0000 </r>
       <r>    5.8456    1.0001 </r>
       <r>    5.8745    1.0002 </r>
       <r>    5.9685    1.0017 </r>
       <r>    6.1839    1.0340 </r>
       <r>    6.6674   -0.0319 </r>
       <r>    6.9357   -0.0016 </r>
       <r>    7.7602   -0.0000 </r>
       <r>    8.8797   -0.0000 </r>
       <r>   13.6272    0.0000 </r>
       <r>   15.0219    0.0000 </r>
       <r>   15.1922    0.0000 </r>
       <r>   15.8575    0.0000 </r>
       <r>   17.1023    0.0000 </r>
      </set>
      <set comment="kpoint 74">
       <r>   -2.7135    1.0000 </r>
       <r>    2.2051    1.0000 </r>
       <r>    2.5744    1.0000 </r>
       <r>    3.0882    1.0000 </r>
       <r>    3.3089    1.0000 </r>
       <r>    3.4917    1.0000 </r>
       <r>    3.6841    1.0000 </r>
       <r>    4.5425    1.0000 </r>
       <r>    4.9227    1.0000 </r>
       <r>    5.0818    1.0000 </r>
       <r>    5.3721    1.0000 </r>
       <r>    5.7453    1.0000 </r>
       <r>    5.7746    1.0000 </r>
       <r>    5.9386    1.0009 </r>
       <r>    6.0991    1.0162 </r>
       <r>    6.6263   -0.0080 </r>
       <r>    6.7055   -0.0351 </r>
       <r>    7.9321   -0.0000 </r>
       <r>    9.2867   -0.0000 </r>
       <r>   13.3919    0.0000 </r>
       <r>   14.4237    0.0000 </r>
       <r>   15.5168    0.0000 </r>
       <r>   16.2286    0.0000 </r>
       <r>   16.6793    0.0000 </r>
      </set>
      <set comment="kpoint 75">
       <r>   -2.3875    1.0000 </r>
       <r>    1.8679    1.0000 </r>
       <r>    2.6592    1.0000 </r>
       <r>    3.1855    1.0000 </r>
       <r>    3.3434    1.0000 </r>
       <r>    3.5548    1.0000 </r>
       <r>    3.7664    1.0000 </r>
       <r>    4.4559    1.0000 </r>
       <r>    4.7980    1.0000 </r>
       <r>    4.9572    1.0000 </r>
       <r>    5.3247    1.0000 </r>
       <r>    5.6179    1.0000 </r>
       <r>    5.6677    1.0000 </r>
       <r>    5.9103    1.0005 </r>
       <r>    6.0202    1.0048 </r>
       <r>    6.4202    0.6250 </r>
       <r>    6.6030    0.0196 </r>
       <r>    8.2714   -0.0000 </r>
       <r>    9.7490   -0.0000 </r>
       <r>   12.8184    0.0000 </r>
       <r>   14.2076    0.0000 </r>
       <r>   15.2793    0.0000 </r>
       <r>   15.8885    0.0000 </r>
       <r>   17.3001    0.0000 </r>
      </set>
      <set comment="kpoint 76">
       <r>   -1.9995    1.0000 </r>
       <r>    1.3862    1.0000 </r>
       <r>    2.7898    1.0000 </r>
       <r>    3.2339    1.0000 </r>
       <r>    3.4015    1.0000 </r>
       <r>    3.6725    1.0000 </r>
       <r>    3.8271    1.0000 </r>
       <r>    4.4190    1.0000 </r>
       <r>    4.6404    1.0000 </r>
       <r>    4.9172    1.0000 </r>
       <r>    5.2434    1.0000 </r>
       <r>    5.4768    1.0000 </r>
       <r>    5.5932    1.0000 </r>
       <r>    5.8251    1.0000 </r>
       <r>    5.9897    1.0027 </r>
       <r>    6.1962    1.0352 </r>
       <r>    6.5821    0.0549 </r>
       <r>    8.6708   -0.0000 </r>
       <r>   10.2471   -0.0000 </r>
       <r>   12.1419    0.0000 </r>
       <r>   14.0572    0.0000 </r>
       <r>   14.6811    0.0000 </r>
       <r>   16.0298    0.0000 </r>
       <r>   17.4119    0.0000 </r>
      </set>
      <set comment="kpoint 77">
       <r>   -1.5615    1.0000 </r>
       <r>    0.8419    1.0000 </r>
       <r>    2.9232    1.0000 </r>
       <r>    3.2367    1.0000 </r>
       <r>    3.4500    1.0000 </r>
       <r>    3.8240    1.0000 </r>
       <r>    3.8648    1.0000 </r>
       <r>    4.4508    1.0000 </r>
       <r>    4.5107    1.0000 </r>
       <r>    4.8790    1.0000 </r>
       <r>    5.1595    1.0000 </r>
       <r>    5.3366    1.0000 </r>
       <r>    5.5567    1.0000 </r>
       <r>    5.7199    1.0000 </r>
       <r>    5.9771    1.0021 </r>
       <r>    6.0374    1.0065 </r>
       <r>    6.5692    0.0821 </r>
       <r>    9.1076   -0.0000 </r>
       <r>   10.7099   -0.0000 </r>
       <r>   11.5633   -0.0000 </r>
       <r>   13.5490    0.0000 </r>
       <r>   14.4911    0.0000 </r>
       <r>   16.2207    0.0000 </r>
       <r>   17.1332    0.0000 </r>
      </set>
      <set comment="kpoint 78">
       <r>   -1.1075    1.0000 </r>
       <r>    0.3090    1.0000 </r>
       <r>    3.0420    1.0000 </r>
       <r>    3.2052    1.0000 </r>
       <r>    3.4812    1.0000 </r>
       <r>    3.8393    1.0000 </r>
       <r>    4.0138    1.0000 </r>
       <r>    4.4055    1.0000 </r>
       <r>    4.5391    1.0000 </r>
       <r>    4.7990    1.0000 </r>
       <r>    5.1238    1.0000 </r>
       <r>    5.2197    1.0000 </r>
       <r>    5.5490    1.0000 </r>
       <r>    5.6408    1.0000 </r>
       <r>    5.8971    1.0003 </r>
       <r>    6.0027    1.0035 </r>
       <r>    6.5622    0.0985 </r>
       <r>    9.5720   -0.0000 </r>
       <r>   10.6404   -0.0000 </r>
       <r>   11.6070   -0.0000 </r>
       <r>   12.8887    0.0000 </r>
       <r>   14.5016    0.0000 </r>
       <r>   16.4151    0.0000 </r>
       <r>   16.8410    0.0000 </r>
      </set>
      <set comment="kpoint 79">
       <r>   -0.8299    1.0000 </r>
       <r>    0.0027    1.0000 </r>
       <r>    3.1245    1.0000 </r>
       <r>    3.1528    1.0000 </r>
       <r>    3.4926    1.0000 </r>
       <r>    3.8350    1.0000 </r>
       <r>    4.1030    1.0000 </r>
       <r>    4.3457    1.0000 </r>
       <r>    4.6197    1.0000 </r>
       <r>    4.7201    1.0000 </r>
       <r>    5.1402    1.0000 </r>
       <r>    5.1511    1.0000 </r>
       <r>    5.5573    1.0000 </r>
       <r>    5.6061    1.0000 </r>
       <r>    5.8543    1.0001 </r>
       <r>    6.0019    1.0034 </r>
       <r>    6.5600    0.1040 </r>
       <r>    9.9406   -0.0000 </r>
       <r>   10.2771   -0.0000 </r>
       <r>   12.0184    0.0000 </r>
       <r>   12.3906    0.0000 </r>
       <r>   14.5163    0.0000 </r>
       <r>   16.6077    0.0000 </r>
       <r>   16.6137    0.0000 </r>
      </set>
      <set comment="kpoint 80">
       <r>   -2.4592    1.0000 </r>
       <r>    2.2998    1.0000 </r>
       <r>    2.4271    1.0000 </r>
       <r>    3.0977    1.0000 </r>
       <r>    3.3172    1.0000 </r>
       <r>    3.5252    1.0000 </r>
       <r>    3.7831    1.0000 </r>
       <r>    4.4213    1.0000 </r>
       <r>    4.8725    1.0000 </r>
       <r>    4.9063    1.0000 </r>
       <r>    5.4154    1.0000 </r>
       <r>    5.6704    1.0000 </r>
       <r>    5.6998    1.0000 </r>
       <r>    5.8919    1.0003 </r>
       <r>    6.0039    1.0035 </r>
       <r>    6.5634    0.0957 </r>
       <r>    6.7146   -0.0342 </r>
       <r>    7.7393   -0.0000 </r>
       <r>    9.6558   -0.0000 </r>
       <r>   12.7747    0.0000 </r>
       <r>   14.2518    0.0000 </r>
       <r>   16.2478    0.0000 </r>
       <r>   16.3371    0.0000 </r>
       <r>   16.6286    0.0000 </r>
      </set>
      <set comment="kpoint 81">
       <r>   -2.1384    1.0000 </r>
       <r>    2.0182    1.0000 </r>
       <r>    2.5076    1.0000 </r>
       <r>    3.1564    1.0000 </r>
       <r>    3.3460    1.0000 </r>
       <r>    3.5853    1.0000 </r>
       <r>    3.8787    1.0000 </r>
       <r>    4.3291    1.0000 </r>
       <r>    4.6846    1.0000 </r>
       <r>    4.9027    1.0000 </r>
       <r>    5.4071    1.0000 </r>
       <r>    5.5777    1.0000 </r>
       <r>    5.6059    1.0000 </r>
       <r>    5.8531    1.0001 </r>
       <r>    5.9194    1.0006 </r>
       <r>    6.4963    0.3102 </r>
       <r>    6.5437    0.1481 </r>
       <r>    7.8595   -0.0000 </r>
       <r>   10.0717   -0.0000 </r>
       <r>   12.0393    0.0000 </r>
       <r>   14.2658    0.0000 </r>
       <r>   15.5643    0.0000 </r>
       <r>   16.6810    0.0000 </r>
       <r>   16.9097    0.0000 </r>
      </set>
      <set comment="kpoint 82">
       <r>   -1.7574    1.0000 </r>
       <r>    1.5557    1.0000 </r>
       <r>    2.6557    1.0000 </r>
       <r>    3.2051    1.0000 </r>
       <r>    3.3897    1.0000 </r>
       <r>    3.6908    1.0000 </r>
       <r>    3.9347    1.0000 </r>
       <r>    4.3061    1.0000 </r>
       <r>    4.5325    1.0000 </r>
       <r>    4.9078    1.0000 </r>
       <r>    5.3071    1.0000 </r>
       <r>    5.4798    1.0000 </r>
       <r>    5.5552    1.0000 </r>
       <r>    5.7622    1.0000 </r>
       <r>    5.8997    1.0003 </r>
       <r>    6.3044    0.9695 </r>
       <r>    6.4757    0.3928 </r>
       <r>    8.1371   -0.0000 </r>
       <r>   10.4606   -0.0000 </r>
       <r>   11.4082   -0.0000 </r>
       <r>   14.2503    0.0000 </r>
       <r>   14.8801    0.0000 </r>
       <r>   16.9339    0.0000 </r>
       <r>   17.1888    0.0000 </r>
      </set>
      <set comment="kpoint 83">
       <r>   -1.3287    1.0000 </r>
       <r>    1.0321    1.0000 </r>
       <r>    2.7912    1.0000 </r>
       <r>    3.2238    1.0000 </r>
       <r>    3.4312    1.0000 </r>
       <r>    3.8355    1.0000 </r>
       <r>    3.9322    1.0000 </r>
       <r>    4.3690    1.0000 </r>
       <r>    4.4268    1.0000 </r>
       <r>    4.8876    1.0000 </r>
       <r>    5.1941    1.0000 </r>
       <r>    5.3496    1.0000 </r>
       <r>    5.5573    1.0000 </r>
       <r>    5.6680    1.0000 </r>
       <r>    5.9040    1.0004 </r>
       <r>    6.1260    1.0221 </r>
       <r>    6.4459    0.5179 </r>
       <r>    8.4863   -0.0000 </r>
       <r>   10.3781   -0.0000 </r>
       <r>   11.3563   -0.0000 </r>
       <r>   13.8267    0.0000 </r>
       <r>   14.6598    0.0000 </r>
       <r>   16.9983    0.0000 </r>
       <r>   17.5147    0.0000 </r>
      </set>
      <set comment="kpoint 84">
       <r>   -0.8879    1.0000 </r>
       <r>    0.5200    1.0000 </r>
       <r>    2.8917    1.0000 </r>
       <r>    3.2200    1.0000 </r>
       <r>    3.4607    1.0000 </r>
       <r>    3.8829    1.0000 </r>
       <r>    4.0206    1.0000 </r>
       <r>    4.3039    1.0000 </r>
       <r>    4.5195    1.0000 </r>
       <r>    4.8047    1.0000 </r>
       <r>    5.1326    1.0000 </r>
       <r>    5.2413    1.0000 </r>
       <r>    5.5643    1.0000 </r>
       <r>    5.6109    1.0000 </r>
       <r>    5.9110    1.0005 </r>
       <r>    6.0003    1.0033 </r>
       <r>    6.4292    0.5880 </r>
       <r>    8.8851   -0.0000 </r>
       <r>    9.8771   -0.0000 </r>
       <r>   11.8284   -0.0000 </r>
       <r>   13.1842    0.0000 </r>
       <r>   14.7009    0.0000 </r>
       <r>   16.9085    0.0000 </r>
       <r>   17.7441    0.0000 </r>
      </set>
      <set comment="kpoint 85">
       <r>   -0.6238    1.0000 </r>
       <r>    0.2299    1.0000 </r>
       <r>    2.9310    1.0000 </r>
       <r>    3.2134    1.0000 </r>
       <r>    3.4719    1.0000 </r>
       <r>    3.8720    1.0000 </r>
       <r>    4.1366    1.0000 </r>
       <r>    4.2171    1.0000 </r>
       <r>    4.6357    1.0000 </r>
       <r>    4.7010    1.0000 </r>
       <r>    5.1186    1.0000 </r>
       <r>    5.1948    1.0000 </r>
       <r>    5.5816    1.0000 </r>
       <r>    5.5823    1.0000 </r>
       <r>    5.9174    1.0005 </r>
       <r>    5.9485    1.0011 </r>
       <r>    6.4238    0.6102 </r>
       <r>    9.2429   -0.0000 </r>
       <r>    9.4692   -0.0000 </r>
       <r>   12.2342    0.0000 </r>
       <r>   12.7294    0.0000 </r>
       <r>   14.7290    0.0000 </r>
       <r>   16.8508    0.0000 </r>
       <r>   17.7931    0.0000 </r>
      </set>
      <set comment="kpoint 86">
       <r>   -1.8248    1.0000 </r>
       <r>    2.1794    1.0000 </r>
       <r>    2.1982    1.0000 </r>
       <r>    3.1978    1.0000 </r>
       <r>    3.3619    1.0000 </r>
       <r>    3.6354    1.0000 </r>
       <r>    3.9982    1.0000 </r>
       <r>    4.2208    1.0000 </r>
       <r>    4.5439    1.0000 </r>
       <r>    4.9076    1.0000 </r>
       <r>    5.4612    1.0000 </r>
       <r>    5.4750    1.0000 </r>
       <r>    5.5601    1.0000 </r>
       <r>    5.8038    1.0000 </r>
       <r>    5.8142    1.0000 </r>
       <r>    6.4270    0.5969 </r>
       <r>    6.5031    0.2843 </r>
       <r>    7.6979   -0.0000 </r>
       <r>   10.3764   -0.0000 </r>
       <r>   11.3535   -0.0000 </r>
       <r>   14.3756    0.0000 </r>
       <r>   15.7372    0.0000 </r>
       <r>   16.0312    0.0000 </r>
       <r>   17.8511    0.0000 </r>
      </set>
      <set comment="kpoint 87">
       <r>   -1.4533    1.0000 </r>
       <r>    1.7526    1.0000 </r>
       <r>    2.3630    1.0000 </r>
       <r>    3.2496    1.0000 </r>
       <r>    3.3894    1.0000 </r>
       <r>    3.7196    1.0000 </r>
       <r>    4.0497    1.0000 </r>
       <r>    4.2082    1.0000 </r>
       <r>    4.4280    1.0000 </r>
       <r>    4.9213    1.0000 </r>
       <r>    5.3296    1.0000 </r>
       <r>    5.4673    1.0000 </r>
       <r>    5.5334    1.0000 </r>
       <r>    5.6901    1.0000 </r>
       <r>    5.7987    1.0000 </r>
       <r>    6.3349    0.9091 </r>
       <r>    6.3817    0.7716 </r>
       <r>    7.7830   -0.0000 </r>
       <r>   10.2403   -0.0000 </r>
       <r>   11.2277   -0.0000 </r>
       <r>   14.4570    0.0000 </r>
       <r>   15.1224    0.0000 </r>
       <r>   16.2740    0.0000 </r>
       <r>   17.7634    0.0000 </r>
      </set>
      <set comment="kpoint 88">
       <r>   -1.0373    1.0000 </r>
       <r>    1.2588    1.0000 </r>
       <r>    2.5151    1.0000 </r>
       <r>    3.2807    1.0000 </r>
       <r>    3.4186    1.0000 </r>
       <r>    3.8382    1.0000 </r>
       <r>    3.9981    1.0000 </r>
       <r>    4.2874    1.0000 </r>
       <r>    4.3885    1.0000 </r>
       <r>    4.9013    1.0000 </r>
       <r>    5.2124    1.0000 </r>
       <r>    5.3668    1.0000 </r>
       <r>    5.5563    1.0000 </r>
       <r>    5.6050    1.0000 </r>
       <r>    5.7997    1.0000 </r>
       <r>    6.1830    1.0338 </r>
       <r>    6.3224    0.9366 </r>
       <r>    8.0093   -0.0000 </r>
       <r>    9.6992   -0.0000 </r>
       <r>   11.6355   -0.0000 </r>
       <r>   14.1515    0.0000 </r>
       <r>   14.8448    0.0000 </r>
       <r>   16.6276    0.0000 </r>
       <r>   17.5138    0.0000 </r>
      </set>
      <set comment="kpoint 89">
       <r>   -0.6142    1.0000 </r>
       <r>    0.7758    1.0000 </r>
       <r>    2.6209    1.0000 </r>
       <r>    3.2917    1.0000 </r>
       <r>    3.4400    1.0000 </r>
       <r>    3.9186    1.0000 </r>
       <r>    4.0109    1.0000 </r>
       <r>    4.2300    1.0000 </r>
       <r>    4.5214    1.0000 </r>
       <r>    4.8144    1.0000 </r>
       <r>    5.1418    1.0000 </r>
       <r>    5.2712    1.0000 </r>
       <r>    5.5391    1.0000 </r>
       <r>    5.6001    1.0000 </r>
       <r>    5.8044    1.0000 </r>
       <r>    6.0637    1.0099 </r>
       <r>    6.2912    0.9887 </r>
       <r>    8.3192   -0.0000 </r>
       <r>    9.1712   -0.0000 </r>
       <r>   12.1459    0.0000 </r>
       <r>   13.5373    0.0000 </r>
       <r>   14.9106    0.0000 </r>
       <r>   16.9344    0.0000 </r>
       <r>   17.2766    0.0000 </r>
      </set>
      <set comment="kpoint 90">
       <r>   -0.3671    1.0000 </r>
       <r>    0.5066    1.0000 </r>
       <r>    2.6592    1.0000 </r>
       <r>    3.2933    1.0000 </r>
       <r>    3.4481    1.0000 </r>
       <r>    3.9127    1.0000 </r>
       <r>    4.1091    1.0000 </r>
       <r>    4.1517    1.0000 </r>
       <r>    4.6562    1.0000 </r>
       <r>    4.6981    1.0000 </r>
       <r>    5.1188    1.0000 </r>
       <r>    5.2296    1.0000 </r>
       <r>    5.5353    1.0000 </r>
       <r>    5.6050    1.0000 </r>
       <r>    5.8069    1.0000 </r>
       <r>    6.0172    1.0045 </r>
       <r>    6.2809    1.0009 </r>
       <r>    8.6497   -0.0000 </r>
       <r>    8.7661   -0.0000 </r>
       <r>   12.5149    0.0000 </r>
       <r>   13.1258    0.0000 </r>
       <r>   14.9511    0.0000 </r>
       <r>   17.0700    0.0000 </r>
       <r>   17.1793    0.0000 </r>
      </set>
      <set comment="kpoint 91">
       <r>   -1.0946    1.0000 </r>
       <r>    1.9186    1.0000 </r>
       <r>    2.0050    1.0000 </r>
       <r>    3.3000    1.0000 </r>
       <r>    3.4000    1.0000 </r>
       <r>    3.7736    1.0000 </r>
       <r>    4.0855    1.0000 </r>
       <r>    4.2052    1.0000 </r>
       <r>    4.3579    1.0000 </r>
       <r>    4.9344    1.0000 </r>
       <r>    5.2908    1.0000 </r>
       <r>    5.4193    1.0000 </r>
       <r>    5.5538    1.0000 </r>
       <r>    5.6060    1.0000 </r>
       <r>    5.7205    1.0000 </r>
       <r>    6.2661    1.0147 </r>
       <r>    6.3029    0.9719 </r>
       <r>    7.6558   -0.0000 </r>
       <r>    9.6387   -0.0000 </r>
       <r>   11.5689   -0.0000 </r>
       <r>   14.6435    0.0000 </r>
       <r>   15.2067    0.0000 </r>
       <r>   15.7767    0.0000 </r>
       <r>   17.8901    0.0000 </r>
      </set>
      <set comment="kpoint 92">
       <r>   -0.6955    1.0000 </r>
       <r>    1.5032    1.0000 </r>
       <r>    2.1562    1.0000 </r>
       <r>    3.3227    1.0000 </r>
       <r>    3.4136    1.0000 </r>
       <r>    3.8579    1.0000 </r>
       <r>    4.0346    1.0000 </r>
       <r>    4.2263    1.0000 </r>
       <r>    4.4084    1.0000 </r>
       <r>    4.9084    1.0000 </r>
       <r>    5.2256    1.0000 </r>
       <r>    5.3578    1.0000 </r>
       <r>    5.5124    1.0000 </r>
       <r>    5.5859    1.0000 </r>
       <r>    5.6880    1.0000 </r>
       <r>    6.1759    1.0328 </r>
       <r>    6.2105    1.0353 </r>
       <r>    7.7203   -0.0000 </r>
       <r>    9.0652   -0.0000 </r>
       <r>   12.0279    0.0000 </r>
       <r>   14.5024    0.0000 </r>
       <r>   14.9949    0.0000 </r>
       <r>   15.9734    0.0000 </r>
       <r>   17.6894    0.0000 </r>
      </set>
      <set comment="kpoint 93">
       <r>   -0.2950    1.0000 </r>
       <r>    1.0597    1.0000 </r>
       <r>    2.2930    1.0000 </r>
       <r>    3.3241    1.0000 </r>
       <r>    3.4219    1.0000 </r>
       <r>    3.9363    1.0000 </r>
       <r>    4.0202    1.0000 </r>
       <r>    4.1841    1.0000 </r>
       <r>    4.5481    1.0000 </r>
       <r>    4.8221    1.0000 </r>
       <r>    5.1742    1.0000 </r>
       <r>    5.2839    1.0000 </r>
       <r>    5.4708    1.0000 </r>
       <r>    5.6118    1.0000 </r>
       <r>    5.6766    1.0000 </r>
       <r>    6.0866    1.0138 </r>
       <r>    6.1571    1.0292 </r>
       <r>    7.9113   -0.0000 </r>
       <r>    8.5837   -0.0000 </r>
       <r>   12.5234    0.0000 </r>
       <r>   13.9281    0.0000 </r>
       <r>   15.1012    0.0000 </r>
       <r>   16.2961    0.0000 </r>
       <r>   17.3950    0.0000 </r>
      </set>
      <set comment="kpoint 94">
       <r>   -0.0678    1.0000 </r>
       <r>    0.8162    1.0000 </r>
       <r>    2.3442    1.0000 </r>
       <r>    3.3214    1.0000 </r>
       <r>    3.4246    1.0000 </r>
       <r>    3.9498    1.0000 </r>
       <r>    4.0548    1.0000 </r>
       <r>    4.1489    1.0000 </r>
       <r>    4.6805    1.0000 </r>
       <r>    4.7083    1.0000 </r>
       <r>    5.1536    1.0000 </r>
       <r>    5.2456    1.0000 </r>
       <r>    5.4686    1.0000 </r>
       <r>    5.6232    1.0000 </r>
       <r>    5.6722    1.0000 </r>
       <r>    6.0497    1.0079 </r>
       <r>    6.1398    1.0253 </r>
       <r>    8.1809   -0.0000 </r>
       <r>    8.2193   -0.0000 </r>
       <r>   12.8567    0.0000 </r>
       <r>   13.5550    0.0000 </r>
       <r>   15.1567    0.0000 </r>
       <r>   16.4677    0.0000 </r>
       <r>   17.2399    0.0000 </r>
      </set>
      <set comment="kpoint 95">
       <r>   -0.3184    1.0000 </r>
       <r>    1.6926    1.0000 </r>
       <r>    1.7963    1.0000 </r>
       <r>    3.3166    1.0000 </r>
       <r>    3.4109    1.0000 </r>
       <r>    3.9112    1.0000 </r>
       <r>    4.0413    1.0000 </r>
       <r>    4.1852    1.0000 </r>
       <r>    4.4869    1.0000 </r>
       <r>    4.8833    1.0000 </r>
       <r>    5.2378    1.0000 </r>
       <r>    5.3217    1.0000 </r>
       <r>    5.4364    1.0000 </r>
       <r>    5.5930    1.0000 </r>
       <r>    5.6071    1.0000 </r>
       <r>    6.0975    1.0159 </r>
       <r>    6.1377    1.0248 </r>
       <r>    7.6226   -0.0000 </r>
       <r>    8.5399   -0.0000 </r>
       <r>   12.4767    0.0000 </r>
       <r>   14.8099    0.0000 </r>
       <r>   14.8583    0.0000 </r>
       <r>   15.7056    0.0000 </r>
       <r>   17.6385    0.0000 </r>
      </set>
      <set comment="kpoint 96">
       <r>    0.0543    1.0000 </r>
       <r>    1.3416    1.0000 </r>
       <r>    1.9314    1.0000 </r>
       <r>    3.2814    1.0000 </r>
       <r>    3.4066    1.0000 </r>
       <r>    3.9706    1.0000 </r>
       <r>    4.0484    1.0000 </r>
       <r>    4.1547    1.0000 </r>
       <r>    4.5977    1.0000 </r>
       <r>    4.8148    1.0000 </r>
       <r>    5.2279    1.0000 </r>
       <r>    5.2757    1.0000 </r>
       <r>    5.3929    1.0000 </r>
       <r>    5.5414    1.0000 </r>
       <r>    5.6275    1.0000 </r>
       <r>    6.0346    1.0062 </r>
       <r>    6.0727    1.0113 </r>
       <r>    7.6776   -0.0000 </r>
       <r>    8.1365   -0.0000 </r>
       <r>   12.9484    0.0000 </r>
       <r>   14.3189    0.0000 </r>
       <r>   15.0981    0.0000 </r>
       <r>   15.8599    0.0000 </r>
       <r>   17.3627    0.0000 </r>
      </set>
      <set comment="kpoint 97">
       <r>    0.2598    1.0000 </r>
       <r>    1.1276    1.0000 </r>
       <r>    2.0012    1.0000 </r>
       <r>    3.2608    1.0000 </r>
       <r>    3.4048    1.0000 </r>
       <r>    3.9896    1.0000 </r>
       <r>    4.0659    1.0000 </r>
       <r>    4.1370    1.0000 </r>
       <r>    4.7060    1.0000 </r>
       <r>    4.7222    1.0000 </r>
       <r>    5.2152    1.0000 </r>
       <r>    5.2448    1.0000 </r>
       <r>    5.3930    1.0000 </r>
       <r>    5.5273    1.0000 </r>
       <r>    5.6358    1.0000 </r>
       <r>    6.0146    1.0043 </r>
       <r>    6.0422    1.0070 </r>
       <r>    7.8494   -0.0000 </r>
       <r>    7.8534   -0.0000 </r>
       <r>   13.2550    0.0000 </r>
       <r>   13.9807    0.0000 </r>
       <r>   15.1954    0.0000 </r>
       <r>   15.9809    0.0000 </r>
       <r>   17.1990    0.0000 </r>
      </set>
      <set comment="kpoint 98">
       <r>    0.3957    1.0000 </r>
       <r>    1.5410    1.0000 </r>
       <r>    1.6074    1.0000 </r>
       <r>    3.1955    1.0000 </r>
       <r>    3.3956    1.0000 </r>
       <r>    4.0157    1.0000 </r>
       <r>    4.0801    1.0000 </r>
       <r>    4.1356    1.0000 </r>
       <r>    4.6627    1.0000 </r>
       <r>    4.7836    1.0000 </r>
       <r>    5.2495    1.0000 </r>
       <r>    5.2768    1.0000 </r>
       <r>    5.3339    1.0000 </r>
       <r>    5.4435    1.0000 </r>
       <r>    5.6382    1.0000 </r>
       <r>    5.9566    1.0013 </r>
       <r>    6.0312    1.0058 </r>
       <r>    7.6019   -0.0000 </r>
       <r>    7.8313   -0.0000 </r>
       <r>   13.3975    0.0000 </r>
       <r>   14.5649    0.0000 </r>
       <r>   14.7805    0.0000 </r>
       <r>   15.8612    0.0000 </r>
       <r>   17.0899    0.0000 </r>
      </set>
      <set comment="kpoint 99">
       <r>    0.5811    1.0000 </r>
       <r>    1.3827    1.0000 </r>
       <r>    1.6684    1.0000 </r>
       <r>    3.1496    1.0000 </r>
       <r>    3.3917    1.0000 </r>
       <r>    4.0324    1.0000 </r>
       <r>    4.1013    1.0000 </r>
       <r>    4.1256    1.0000 </r>
       <r>    4.7271    1.0000 </r>
       <r>    4.7322    1.0000 </r>
       <r>    5.2292    1.0000 </r>
       <r>    5.2798    1.0000 </r>
       <r>    5.3306    1.0000 </r>
       <r>    5.4116    1.0000 </r>
       <r>    5.6427    1.0000 </r>
       <r>    5.9291    1.0007 </r>
       <r>    6.0096    1.0039 </r>
       <r>    7.6557   -0.0000 </r>
       <r>    7.6570   -0.0000 </r>
       <r>   13.6957    0.0000 </r>
       <r>   14.3332    0.0000 </r>
       <r>   14.8324    0.0000 </r>
       <r>   15.9213    0.0000 </r>
       <r>   16.9317    0.0000 </r>
      </set>
      <set comment="kpoint 100">
       <r>    0.7573    1.0000 </r>
       <r>    1.4879    1.0000 </r>
       <r>    1.4879    1.0000 </r>
       <r>    3.0909    1.0000 </r>
       <r>    3.3872    1.0000 </r>
       <r>    4.0493    1.0000 </r>
       <r>    4.1211    1.0000 </r>
       <r>    4.1211    1.0000 </r>
       <r>    4.7357    1.0000 </r>
       <r>    4.7357    1.0000 </r>
       <r>    5.2144    1.0000 </r>
       <r>    5.3092    1.0000 </r>
       <r>    5.3092    1.0000 </r>
       <r>    5.3684    1.0000 </r>
       <r>    5.6448    1.0000 </r>
       <r>    5.8994    1.0003 </r>
       <r>    5.9903    1.0027 </r>
       <r>    7.5949   -0.0000 </r>
       <r>    7.5949   -0.0000 </r>
       <r>   14.0272    0.0000 </r>
       <r>   14.4820    0.0000 </r>
       <r>   14.4820    0.0000 </r>
       <r>   15.9590    0.0000 </r>
       <r>   16.7852    0.0000 </r>
      </set>
      <set comment="kpoint 101">
       <r>   -3.2335    1.0000 </r>
       <r>    2.2354    1.0000 </r>
       <r>    2.8362    1.0000 </r>
       <r>    2.8362    1.0000 </r>
       <r>    3.2834    1.0000 </r>
       <r>    3.4727    1.0000 </r>
       <r>    3.4727    1.0000 </r>
       <r>    4.7866    1.0000 </r>
       <r>    5.1894    1.0000 </r>
       <r>    5.1894    1.0000 </r>
       <r>    5.8398    1.0001 </r>
       <r>    5.8398    1.0001 </r>
       <r>    5.9913    1.0028 </r>
       <r>    5.9913    1.0028 </r>
       <r>    6.2591    1.0198 </r>
       <r>    6.7241   -0.0328 </r>
       <r>    7.2942   -0.0000 </r>
       <r>    7.9387   -0.0000 </r>
       <r>    7.9387   -0.0000 </r>
       <r>   14.1766    0.0000 </r>
       <r>   14.1766    0.0000 </r>
       <r>   15.1040    0.0000 </r>
       <r>   16.6602    0.0000 </r>
       <r>   17.0430    0.0000 </r>
      </set>
      <set comment="kpoint 102">
       <r>   -3.0462    1.0000 </r>
       <r>    2.2671    1.0000 </r>
       <r>    2.7130    1.0000 </r>
       <r>    2.9528    1.0000 </r>
       <r>    3.2682    1.0000 </r>
       <r>    3.4961    1.0000 </r>
       <r>    3.5464    1.0000 </r>
       <r>    4.6711    1.0000 </r>
       <r>    5.0790    1.0000 </r>
       <r>    5.2063    1.0000 </r>
       <r>    5.5865    1.0000 </r>
       <r>    5.8016    1.0000 </r>
       <r>    5.8896    1.0003 </r>
       <r>    5.9699    1.0018 </r>
       <r>    6.1860    1.0342 </r>
       <r>    6.7035   -0.0352 </r>
       <r>    7.0668   -0.0001 </r>
       <r>    8.0785   -0.0000 </r>
       <r>    8.2375   -0.0000 </r>
       <r>   14.1509    0.0000 </r>
       <r>   14.6252    0.0000 </r>
       <r>   15.6322    0.0000 </r>
       <r>   15.9313    0.0000 </r>
       <r>   16.1644    0.0000 </r>
      </set>
      <set comment="kpoint 103">
       <r>   -2.7870    1.0000 </r>
       <r>    2.1643    1.0000 </r>
       <r>    2.6380    1.0000 </r>
       <r>    3.1029    1.0000 </r>
       <r>    3.2649    1.0000 </r>
       <r>    3.5311    1.0000 </r>
       <r>    3.6255    1.0000 </r>
       <r>    4.5731    1.0000 </r>
       <r>    4.9546    1.0000 </r>
       <r>    5.1517    1.0000 </r>
       <r>    5.3726    1.0000 </r>
       <r>    5.7288    1.0000 </r>
       <r>    5.7740    1.0000 </r>
       <r>    5.9603    1.0015 </r>
       <r>    6.1142    1.0194 </r>
       <r>    6.6804   -0.0345 </r>
       <r>    6.6966   -0.0354 </r>
       <r>    8.4590   -0.0000 </r>
       <r>    8.5939   -0.0000 </r>
       <r>   14.0243    0.0000 </r>
       <r>   14.7743    0.0000 </r>
       <r>   15.0845    0.0000 </r>
       <r>   15.4535    0.0000 </r>
       <r>   16.5956    0.0000 </r>
      </set>
      <set comment="kpoint 104">
       <r>   -2.4596    1.0000 </r>
       <r>    1.8212    1.0000 </r>
       <r>    2.7008    1.0000 </r>
       <r>    3.2658    1.0000 </r>
       <r>    3.2691    1.0000 </r>
       <r>    3.5867    1.0000 </r>
       <r>    3.7017    1.0000 </r>
       <r>    4.5037    1.0000 </r>
       <r>    4.8282    1.0000 </r>
       <r>    4.9982    1.0000 </r>
       <r>    5.2829    1.0000 </r>
       <r>    5.6391    1.0000 </r>
       <r>    5.6444    1.0000 </r>
       <r>    5.9433    1.0010 </r>
       <r>    6.0475    1.0077 </r>
       <r>    6.3764    0.7896 </r>
       <r>    6.6588   -0.0291 </r>
       <r>    8.9153   -0.0000 </r>
       <r>    8.9891   -0.0000 </r>
       <r>   13.6552    0.0000 </r>
       <r>   14.1181    0.0000 </r>
       <r>   15.0665    0.0000 </r>
       <r>   15.1033    0.0000 </r>
       <r>   17.3122    0.0000 </r>
      </set>
      <set comment="kpoint 105">
       <r>   -2.0698    1.0000 </r>
       <r>    1.3347    1.0000 </r>
       <r>    2.8168    1.0000 </r>
       <r>    3.2730    1.0000 </r>
       <r>    3.3999    1.0000 </r>
       <r>    3.6887    1.0000 </r>
       <r>    3.7631    1.0000 </r>
       <r>    4.4717    1.0000 </r>
       <r>    4.7054    1.0000 </r>
       <r>    4.8598    1.0000 </r>
       <r>    5.2346    1.0000 </r>
       <r>    5.4954    1.0000 </r>
       <r>    5.5716    1.0000 </r>
       <r>    5.8757    1.0002 </r>
       <r>    6.0178    1.0046 </r>
       <r>    6.1291    1.0228 </r>
       <r>    6.6416   -0.0202 </r>
       <r>    9.4096   -0.0000 </r>
       <r>    9.4176   -0.0000 </r>
       <r>   13.0808    0.0000 </r>
       <r>   13.3344    0.0000 </r>
       <r>   14.9720    0.0000 </r>
       <r>   15.3051    0.0000 </r>
       <r>   17.5853    0.0000 </r>
      </set>
      <set comment="kpoint 106">
       <r>   -1.6293    1.0000 </r>
       <r>    0.7851    1.0000 </r>
       <r>    2.9391    1.0000 </r>
       <r>    3.2658    1.0000 </r>
       <r>    3.4736    1.0000 </r>
       <r>    3.8017    1.0000 </r>
       <r>    3.8481    1.0000 </r>
       <r>    4.4834    1.0000 </r>
       <r>    4.5861    1.0000 </r>
       <r>    4.7725    1.0000 </r>
       <r>    5.1925    1.0000 </r>
       <r>    5.3601    1.0000 </r>
       <r>    5.5272    1.0000 </r>
       <r>    5.7700    1.0000 </r>
       <r>    5.9513    1.0012 </r>
       <r>    6.0155    1.0044 </r>
       <r>    6.6298   -0.0111 </r>
       <r>    9.8387   -0.0000 </r>
       <r>    9.9562   -0.0000 </r>
       <r>   12.4796    0.0000 </r>
       <r>   12.5919    0.0000 </r>
       <r>   14.9937    0.0000 </r>
       <r>   15.5364    0.0000 </r>
       <r>   17.3715    0.0000 </r>
      </set>
      <set comment="kpoint 107">
       <r>   -1.1719    1.0000 </r>
       <r>    0.2469    1.0000 </r>
       <r>    3.0454    1.0000 </r>
       <r>    3.2390    1.0000 </r>
       <r>    3.5065    1.0000 </r>
       <r>    3.8208    1.0000 </r>
       <r>    4.0158    1.0000 </r>
       <r>    4.4715    1.0000 </r>
       <r>    4.5278    1.0000 </r>
       <r>    4.7170    1.0000 </r>
       <r>    5.1657    1.0000 </r>
       <r>    5.2538    1.0000 </r>
       <r>    5.5231    1.0000 </r>
       <r>    5.6636    1.0000 </r>
       <r>    5.8424    1.0001 </r>
       <r>    6.0177    1.0046 </r>
       <r>    6.6230   -0.0048 </r>
       <r>   10.2321   -0.0000 </r>
       <r>   10.5173   -0.0000 </r>
       <r>   11.9085   -0.0000 </r>
       <r>   11.9691    0.0000 </r>
       <r>   15.0367    0.0000 </r>
       <r>   15.7641    0.0000 </r>
       <r>   17.0467    0.0000 </r>
      </set>
      <set comment="kpoint 108">
       <r>   -0.8906    1.0000 </r>
       <r>   -0.0638    1.0000 </r>
       <r>    3.1000    1.0000 </r>
       <r>    3.2123    1.0000 </r>
       <r>    3.5161    1.0000 </r>
       <r>    3.8266    1.0000 </r>
       <r>    4.1043    1.0000 </r>
       <r>    4.4056    1.0000 </r>
       <r>    4.5594    1.0000 </r>
       <r>    4.6894    1.0000 </r>
       <r>    5.1641    1.0000 </r>
       <r>    5.2048    1.0000 </r>
       <r>    5.5478    1.0000 </r>
       <r>    5.5984    1.0000 </r>
       <r>    5.8055    1.0000 </r>
       <r>    6.0187    1.0047 </r>
       <r>    6.6209   -0.0026 </r>
       <r>   10.4282   -0.0000 </r>
       <r>   10.9321   -0.0000 </r>
       <r>   11.4530   -0.0000 </r>
       <r>   11.7324   -0.0000 </r>
       <r>   15.0562    0.0000 </r>
       <r>   15.8794    0.0000 </r>
       <r>   16.8900    0.0000 </r>
      </set>
      <set comment="kpoint 109">
       <r>   -2.8608    1.0000 </r>
       <r>    2.3172    1.0000 </r>
       <r>    2.7007    1.0000 </r>
       <r>    2.9454    1.0000 </r>
       <r>    3.2426    1.0000 </r>
       <r>    3.5368    1.0000 </r>
       <r>    3.6088    1.0000 </r>
       <r>    4.5596    1.0000 </r>
       <r>    5.0286    1.0000 </r>
       <r>    5.1323    1.0000 </r>
       <r>    5.4938    1.0000 </r>
       <r>    5.7003    1.0000 </r>
       <r>    5.8499    1.0001 </r>
       <r>    5.9259    1.0007 </r>
       <r>    6.0941    1.0152 </r>
       <r>    6.6815   -0.0347 </r>
       <r>    7.1247   -0.0000 </r>
       <r>    7.8894   -0.0000 </r>
       <r>    8.4471   -0.0000 </r>
       <r>   14.2404    0.0000 </r>
       <r>   15.1476    0.0000 </r>
       <r>   15.2000    0.0000 </r>
       <r>   15.8346    0.0000 </r>
       <r>   16.3376    0.0000 </r>
      </set>
      <set comment="kpoint 110">
       <r>   -2.6044    1.0000 </r>
       <r>    2.2539    1.0000 </r>
       <r>    2.6293    1.0000 </r>
       <r>    3.0541    1.0000 </r>
       <r>    3.2363    1.0000 </r>
       <r>    3.5715    1.0000 </r>
       <r>    3.6924    1.0000 </r>
       <r>    4.4675    1.0000 </r>
       <r>    4.9228    1.0000 </r>
       <r>    5.0110    1.0000 </r>
       <r>    5.4027    1.0000 </r>
       <r>    5.6429    1.0000 </r>
       <r>    5.7583    1.0000 </r>
       <r>    5.9109    1.0005 </r>
       <r>    6.0093    1.0039 </r>
       <r>    6.6501   -0.0251 </r>
       <r>    6.8616   -0.0066 </r>
       <r>    8.0419   -0.0000 </r>
       <r>    8.7824   -0.0000 </r>
       <r>   13.7958    0.0000 </r>
       <r>   14.7455    0.0000 </r>
       <r>   15.2529    0.0000 </r>
       <r>   15.8168    0.0000 </r>
       <r>   16.2984    0.0000 </r>
      </set>
      <set comment="kpoint 111">
       <r>   -2.2808    1.0000 </r>
       <r>    1.9306    1.0000 </r>
       <r>    2.6896    1.0000 </r>
       <r>    3.1819    1.0000 </r>
       <r>    3.2641    1.0000 </r>
       <r>    3.6216    1.0000 </r>
       <r>    3.7719    1.0000 </r>
       <r>    4.4072    1.0000 </r>
       <r>    4.7829    1.0000 </r>
       <r>    4.8864    1.0000 </r>
       <r>    5.3476    1.0000 </r>
       <r>    5.5862    1.0000 </r>
       <r>    5.6379    1.0000 </r>
       <r>    5.8940    1.0003 </r>
       <r>    5.9448    1.0010 </r>
       <r>    6.5276    0.1980 </r>
       <r>    6.6208   -0.0024 </r>
       <r>    8.3710   -0.0000 </r>
       <r>    9.1667   -0.0000 </r>
       <r>   13.0820    0.0000 </r>
       <r>   14.1795    0.0000 </r>
       <r>   15.1231    0.0000 </r>
       <r>   15.9678    0.0000 </r>
       <r>   16.6433    0.0000 </r>
      </set>
      <set comment="kpoint 112">
       <r>   -1.8960    1.0000 </r>
       <r>    1.4586    1.0000 </r>
       <r>    2.8014    1.0000 </r>
       <r>    3.2194    1.0000 </r>
       <r>    3.3730    1.0000 </r>
       <r>    3.7081    1.0000 </r>
       <r>    3.8297    1.0000 </r>
       <r>    4.3930    1.0000 </r>
       <r>    4.6371    1.0000 </r>
       <r>    4.7983    1.0000 </r>
       <r>    5.2978    1.0000 </r>
       <r>    5.5017    1.0000 </r>
       <r>    5.5451    1.0000 </r>
       <r>    5.8213    1.0000 </r>
       <r>    5.9351    1.0008 </r>
       <r>    6.2562    1.0217 </r>
       <r>    6.5870    0.0457 </r>
       <r>    8.7559   -0.0000 </r>
       <r>    9.5816   -0.0000 </r>
       <r>   12.3735    0.0000 </r>
       <r>   13.4655    0.0000 </r>
       <r>   15.1960    0.0000 </r>
       <r>   16.1732    0.0000 </r>
       <r>   17.0112    0.0000 </r>
      </set>
      <set comment="kpoint 113">
       <r>   -1.4622    1.0000 </r>
       <r>    0.9236    1.0000 </r>
       <r>    2.9146    1.0000 </r>
       <r>    3.2183    1.0000 </r>
       <r>    3.4607    1.0000 </r>
       <r>    3.8309    1.0000 </r>
       <r>    3.8760    1.0000 </r>
       <r>    4.4313    1.0000 </r>
       <r>    4.5070    1.0000 </r>
       <r>    4.7297    1.0000 </r>
       <r>    5.2497    1.0000 </r>
       <r>    5.3798    1.0000 </r>
       <r>    5.5206    1.0000 </r>
       <r>    5.7282    1.0000 </r>
       <r>    5.9402    1.0009 </r>
       <r>    6.0544    1.0086 </r>
       <r>    6.5623    0.0982 </r>
       <r>    9.1674   -0.0000 </r>
       <r>    9.9934   -0.0000 </r>
       <r>   11.7617   -0.0000 </r>
       <r>   12.7746    0.0000 </r>
       <r>   15.3187    0.0000 </r>
       <r>   16.3988    0.0000 </r>
       <r>   17.3458    0.0000 </r>
      </set>
      <set comment="kpoint 114">
       <r>   -1.0144    1.0000 </r>
       <r>    0.4002    1.0000 </r>
       <r>    3.0092    1.0000 </r>
       <r>    3.1971    1.0000 </r>
       <r>    3.5043    1.0000 </r>
       <r>    3.8565    1.0000 </r>
       <r>    4.0307    1.0000 </r>
       <r>    4.3763    1.0000 </r>
       <r>    4.5053    1.0000 </r>
       <r>    4.6696    1.0000 </r>
       <r>    5.2112    1.0000 </r>
       <r>    5.2897    1.0000 </r>
       <r>    5.5280    1.0000 </r>
       <r>    5.6399    1.0000 </r>
       <r>    5.9231    1.0006 </r>
       <r>    5.9485    1.0011 </r>
       <r>    6.5473    0.1377 </r>
       <r>    9.5777   -0.0000 </r>
       <r>   10.2752   -0.0000 </r>
       <r>   11.3881   -0.0000 </r>
       <r>   12.1614    0.0000 </r>
       <r>   15.4267    0.0000 </r>
       <r>   16.6204    0.0000 </r>
       <r>   17.4298    0.0000 </r>
      </set>
      <set comment="kpoint 115">
       <r>   -0.7434    1.0000 </r>
       <r>    0.1016    1.0000 </r>
       <r>    3.0546    1.0000 </r>
       <r>    3.1767    1.0000 </r>
       <r>    3.5173    1.0000 </r>
       <r>    3.8594    1.0000 </r>
       <r>    4.1538    1.0000 </r>
       <r>    4.2735    1.0000 </r>
       <r>    4.5582    1.0000 </r>
       <r>    4.6273    1.0000 </r>
       <r>    5.1950    1.0000 </r>
       <r>    5.2562    1.0000 </r>
       <r>    5.5699    1.0000 </r>
       <r>    5.5700    1.0000 </r>
       <r>    5.8799    1.0002 </r>
       <r>    5.9486    1.0011 </r>
       <r>    6.5423    0.1521 </r>
       <r>    9.8317   -0.0000 </r>
       <r>   10.2614   -0.0000 </r>
       <r>   11.4113   -0.0000 </r>
       <r>   11.7988   -0.0000 </r>
       <r>   15.4706    0.0000 </r>
       <r>   16.7411    0.0000 </r>
       <r>   17.3314    0.0000 </r>
      </set>
      <set comment="kpoint 116">
       <r>   -2.3521    1.0000 </r>
       <r>    2.3237    1.0000 </r>
       <r>    2.5055    1.0000 </r>
       <r>    3.0800    1.0000 </r>
       <r>    3.2378    1.0000 </r>
       <r>    3.6022    1.0000 </r>
       <r>    3.7844    1.0000 </r>
       <r>    4.3748    1.0000 </r>
       <r>    4.8330    1.0000 </r>
       <r>    4.8791    1.0000 </r>
       <r>    5.4262    1.0000 </r>
       <r>    5.5756    1.0000 </r>
       <r>    5.7122    1.0000 </r>
       <r>    5.8687    1.0002 </r>
       <r>    5.9026    1.0004 </r>
       <r>    6.6094    0.0109 </r>
       <r>    6.8686   -0.0059 </r>
       <r>    7.8055   -0.0000 </r>
       <r>    9.0829   -0.0000 </r>
       <r>   13.0429    0.0000 </r>
       <r>   14.8053    0.0000 </r>
       <r>   15.4122    0.0000 </r>
       <r>   15.6183    0.0000 </r>
       <r>   16.6375    0.0000 </r>
      </set>
      <set comment="kpoint 117">
       <r>   -2.0340    1.0000 </r>
       <r>    2.0694    1.0000 </r>
       <r>    2.5445    1.0000 </r>
       <r>    3.1679    1.0000 </r>
       <r>    3.2727    1.0000 </r>
       <r>    3.6434    1.0000 </r>
       <r>    3.8736    1.0000 </r>
       <r>    4.3109    1.0000 </r>
       <r>    4.6686    1.0000 </r>
       <r>    4.8295    1.0000 </r>
       <r>    5.4102    1.0000 </r>
       <r>    5.5320    1.0000 </r>
       <r>    5.6246    1.0000 </r>
       <r>    5.8086    1.0000 </r>
       <r>    5.8527    1.0001 </r>
       <r>    6.5555    0.1154 </r>
       <r>    6.6500   -0.0251 </r>
       <r>    7.9134   -0.0000 </r>
       <r>    9.4191   -0.0000 </r>
       <r>   12.2818    0.0000 </r>
       <r>   14.4646    0.0000 </r>
       <r>   15.1927    0.0000 </r>
       <r>   15.8519    0.0000 </r>
       <r>   17.0263    0.0000 </r>
      </set>
      <set comment="kpoint 118">
       <r>   -1.6566    1.0000 </r>
       <r>    1.6203    1.0000 </r>
       <r>    2.6607    1.0000 </r>
       <r>    3.2268    1.0000 </r>
       <r>    3.3597    1.0000 </r>
       <r>    3.7131    1.0000 </r>
       <r>    3.9286    1.0000 </r>
       <r>    4.3043    1.0000 </r>
       <r>    4.5326    1.0000 </r>
       <r>    4.7824    1.0000 </r>
       <r>    5.3447    1.0000 </r>
       <r>    5.5173    1.0000 </r>
       <r>    5.5251    1.0000 </r>
       <r>    5.7267    1.0000 </r>
       <r>    5.8500    1.0001 </r>
       <r>    6.3626    0.8340 </r>
       <r>    6.5274    0.1986 </r>
       <r>    8.1852   -0.0000 </r>
       <r>    9.7452   -0.0000 </r>
       <r>   11.6320   -0.0000 </r>
       <r>   13.7568    0.0000 </r>
       <r>   15.3219    0.0000 </r>
       <r>   16.2064    0.0000 </r>
       <r>   17.2700    0.0000 </r>
      </set>
      <set comment="kpoint 119">
       <r>   -1.2327    1.0000 </r>
       <r>    1.1079    1.0000 </r>
       <r>    2.7618    1.0000 </r>
       <r>    3.2539    1.0000 </r>
       <r>    3.4454    1.0000 </r>
       <r>    3.8230    1.0000 </r>
       <r>    3.9443    1.0000 </r>
       <r>    4.3484    1.0000 </r>
       <r>    4.4418    1.0000 </r>
       <r>    4.7266    1.0000 </r>
       <r>    5.2718    1.0000 </r>
       <r>    5.4221    1.0000 </r>
       <r>    5.5213    1.0000 </r>
       <r>    5.6571    1.0000 </r>
       <r>    5.8519    1.0001 </r>
       <r>    6.1479    1.0272 </r>
       <r>    6.4858    0.3516 </r>
       <r>    8.5213   -0.0000 </r>
       <r>    9.9233   -0.0000 </r>
       <r>   11.2455   -0.0000 </r>
       <r>   13.0640    0.0000 </r>
       <r>   15.4935    0.0000 </r>
       <r>   16.5913    0.0000 </r>
       <r>   17.4753    0.0000 </r>
      </set>
      <set comment="kpoint 120">
       <r>   -0.7990    1.0000 </r>
       <r>    0.6070    1.0000 </r>
       <r>    2.8294    1.0000 </r>
       <r>    3.2652    1.0000 </r>
       <r>    3.4948    1.0000 </r>
       <r>    3.8965    1.0000 </r>
       <r>    4.0145    1.0000 </r>
       <r>    4.2865    1.0000 </r>
       <r>    4.4934    1.0000 </r>
       <r>    4.6597    1.0000 </r>
       <r>    5.2127    1.0000 </r>
       <r>    5.3498    1.0000 </r>
       <r>    5.5244    1.0000 </r>
       <r>    5.6116    1.0000 </r>
       <r>    5.8545    1.0001 </r>
       <r>    6.0052    1.0036 </r>
       <r>    6.4599    0.4584 </r>
       <r>    8.8917   -0.0000 </r>
       <r>    9.7480   -0.0000 </r>
       <r>   11.3241   -0.0000 </r>
       <r>   12.4470    0.0000 </r>
       <r>   15.6369    0.0000 </r>
       <r>   16.9621    0.0000 </r>
       <r>   17.5833    0.0000 </r>
      </set>
      <set comment="kpoint 121">
       <r>   -0.5422    1.0000 </r>
       <r>    0.3256    1.0000 </r>
       <r>    2.8534    1.0000 </r>
       <r>    3.2675    1.0000 </r>
       <r>    3.5106    1.0000 </r>
       <r>    3.9013    1.0000 </r>
       <r>    4.1339    1.0000 </r>
       <r>    4.1846    1.0000 </r>
       <r>    4.5746    1.0000 </r>
       <r>    4.5911    1.0000 </r>
       <r>    5.1892    1.0000 </r>
       <r>    5.3193    1.0000 </r>
       <r>    5.5329    1.0000 </r>
       <r>    5.5935    1.0000 </r>
       <r>    5.8559    1.0001 </r>
       <r>    5.9530    1.0012 </r>
       <r>    6.4511    0.4957 </r>
       <r>    9.1802   -0.0000 </r>
       <r>    9.4789   -0.0000 </r>
       <r>   11.5597   -0.0000 </r>
       <r>   12.0771    0.0000 </r>
       <r>   15.6949    0.0000 </r>
       <r>   17.1779    0.0000 </r>
       <r>   17.5293    0.0000 </r>
      </set>
      <set comment="kpoint 122">
       <r>   -1.7234    1.0000 </r>
       <r>    2.1964    1.0000 </r>
       <r>    2.2611    1.0000 </r>
       <r>    3.2285    1.0000 </r>
       <r>    3.3033    1.0000 </r>
       <r>    3.6706    1.0000 </r>
       <r>    3.9814    1.0000 </r>
       <r>    4.2294    1.0000 </r>
       <r>    4.5415    1.0000 </r>
       <r>    4.8055    1.0000 </r>
       <r>    5.4616    1.0000 </r>
       <r>    5.4617    1.0000 </r>
       <r>    5.5869    1.0000 </r>
       <r>    5.7009    1.0000 </r>
       <r>    5.8062    1.0000 </r>
       <r>    6.4985    0.3017 </r>
       <r>    6.6097    0.0105 </r>
       <r>    7.7149   -0.0000 </r>
       <r>    9.6624   -0.0000 </r>
       <r>   11.5858   -0.0000 </r>
       <r>   14.7321    0.0000 </r>
       <r>   14.8884    0.0000 </r>
       <r>   15.5745    0.0000 </r>
       <r>   17.9750    0.0000 </r>
      </set>
      <set comment="kpoint 123">
       <r>   -1.3562    1.0000 </r>
       <r>    1.8062    1.0000 </r>
       <r>    2.3783    1.0000 </r>
       <r>    3.2845    1.0000 </r>
       <r>    3.3715    1.0000 </r>
       <r>    3.7196    1.0000 </r>
       <r>    4.0398    1.0000 </r>
       <r>    4.2136    1.0000 </r>
       <r>    4.4459    1.0000 </r>
       <r>    4.7808    1.0000 </r>
       <r>    5.3739    1.0000 </r>
       <r>    5.4855    1.0000 </r>
       <r>    5.5377    1.0000 </r>
       <r>    5.6157    1.0000 </r>
       <r>    5.7832    1.0000 </r>
       <r>    6.3963    0.7188 </r>
       <r>    6.4644    0.4397 </r>
       <r>    7.7905   -0.0000 </r>
       <r>    9.7537   -0.0000 </r>
       <r>   11.1647   -0.0000 </r>
       <r>   14.0969    0.0000 </r>
       <r>   15.1463    0.0000 </r>
       <r>   15.7566    0.0000 </r>
       <r>   18.2633    0.0000 </r>
      </set>
      <set comment="kpoint 124">
       <r>   -0.9460    1.0000 </r>
       <r>    1.3265    1.0000 </r>
       <r>    2.5014    1.0000 </r>
       <r>    3.3186    1.0000 </r>
       <r>    3.4412    1.0000 </r>
       <r>    3.8037    1.0000 </r>
       <r>    4.0226    1.0000 </r>
       <r>    4.2521    1.0000 </r>
       <r>    4.4242    1.0000 </r>
       <r>    4.7380    1.0000 </r>
       <r>    5.2862    1.0000 </r>
       <r>    5.4462    1.0000 </r>
       <r>    5.5021    1.0000 </r>
       <r>    5.5907    1.0000 </r>
       <r>    5.7688    1.0000 </r>
       <r>    6.2041    1.0355 </r>
       <r>    6.4001    0.7044 </r>
       <r>    8.0130   -0.0000 </r>
       <r>    9.5142   -0.0000 </r>
       <r>   11.2042   -0.0000 </r>
       <r>   13.4049    0.0000 </r>
       <r>   15.4630    0.0000 </r>
       <r>   16.0340    0.0000 </r>
       <r>   18.0268    0.0000 </r>
      </set>
      <set comment="kpoint 125">
       <r>   -0.5313    1.0000 </r>
       <r>    0.8572    1.0000 </r>
       <r>    2.5818    1.0000 </r>
       <r>    3.3375    1.0000 </r>
       <r>    3.4831    1.0000 </r>
       <r>    3.8983    1.0000 </r>
       <r>    4.0145    1.0000 </r>
       <r>    4.2192    1.0000 </r>
       <r>    4.5055    1.0000 </r>
       <r>    4.6753    1.0000 </r>
       <r>    5.2209    1.0000 </r>
       <r>    5.3702    1.0000 </r>
       <r>    5.4939    1.0000 </r>
       <r>    5.6052    1.0000 </r>
       <r>    5.7565    1.0000 </r>
       <r>    6.0615    1.0096 </r>
       <r>    6.3626    0.8339 </r>
       <r>    8.3111   -0.0000 </r>
       <r>    9.1049   -0.0000 </r>
       <r>   11.5308   -0.0000 </r>
       <r>   12.7923    0.0000 </r>
       <r>   15.6938    0.0000 </r>
       <r>   16.3576    0.0000 </r>
       <r>   17.6315    0.0000 </r>
      </set>
      <set comment="kpoint 126">
       <r>   -0.2928    1.0000 </r>
       <r>    0.5984    1.0000 </r>
       <r>    2.6096    1.0000 </r>
       <r>    3.3429    1.0000 </r>
       <r>    3.4971    1.0000 </r>
       <r>    3.9330    1.0000 </r>
       <r>    4.0369    1.0000 </r>
       <r>    4.1818    1.0000 </r>
       <r>    4.5976    1.0000 </r>
       <r>    4.6001    1.0000 </r>
       <r>    5.1981    1.0000 </r>
       <r>    5.3297    1.0000 </r>
       <r>    5.4997    1.0000 </r>
       <r>    5.6130    1.0000 </r>
       <r>    5.7508    1.0000 </r>
       <r>    6.0089    1.0039 </r>
       <r>    6.3496    0.8716 </r>
       <r>    8.5991   -0.0000 </r>
       <r>    8.7678   -0.0000 </r>
       <r>   11.8020   -0.0000 </r>
       <r>   12.4383    0.0000 </r>
       <r>   15.7792    0.0000 </r>
       <r>   16.5550    0.0000 </r>
       <r>   17.4037    0.0000 </r>
      </set>
      <set comment="kpoint 127">
       <r>   -1.0026    1.0000 </r>
       <r>    1.9917    1.0000 </r>
       <r>    2.0022    1.0000 </r>
       <r>    3.3219    1.0000 </r>
       <r>    3.4189    1.0000 </r>
       <r>    3.7472    1.0000 </r>
       <r>    4.1362    1.0000 </r>
       <r>    4.1397    1.0000 </r>
       <r>    4.4050    1.0000 </r>
       <r>    4.7754    1.0000 </r>
       <r>    5.3815    1.0000 </r>
       <r>    5.4188    1.0000 </r>
       <r>    5.5031    1.0000 </r>
       <r>    5.5734    1.0000 </r>
       <r>    5.7378    1.0000 </r>
       <r>    6.3531    0.8618 </r>
       <r>    6.3601    0.8414 </r>
       <r>    7.6372   -0.0000 </r>
       <r>    9.4368   -0.0000 </r>
       <r>   11.1615   -0.0000 </r>
       <r>   14.4281    0.0000 </r>
       <r>   14.5200    0.0000 </r>
       <r>   15.8857    0.0000 </r>
       <r>   18.1867    0.0000 </r>
      </set>
      <set comment="kpoint 128">
       <r>   -0.6107    1.0000 </r>
       <r>    1.5613    1.0000 </r>
       <r>    2.1660    1.0000 </r>
       <r>    3.3373    1.0000 </r>
       <r>    3.4588    1.0000 </r>
       <r>    3.8118    1.0000 </r>
       <r>    4.0862    1.0000 </r>
       <r>    4.1793    1.0000 </r>
       <r>    4.4446    1.0000 </r>
       <r>    4.7506    1.0000 </r>
       <r>    5.3078    1.0000 </r>
       <r>    5.3954    1.0000 </r>
       <r>    5.4460    1.0000 </r>
       <r>    5.5894    1.0000 </r>
       <r>    5.7036    1.0000 </r>
       <r>    6.2046    1.0355 </r>
       <r>    6.2963    0.9817 </r>
       <r>    7.6946   -0.0000 </r>
       <r>    8.9711   -0.0000 </r>
       <r>   11.4525   -0.0000 </r>
       <r>   13.7839    0.0000 </r>
       <r>   14.8717    0.0000 </r>
       <r>   16.1082    0.0000 </r>
       <r>   17.6855    0.0000 </r>
      </set>
      <set comment="kpoint 129">
       <r>   -0.2209    1.0000 </r>
       <r>    1.1345    1.0000 </r>
       <r>    2.2843    1.0000 </r>
       <r>    3.3434    1.0000 </r>
       <r>    3.4752    1.0000 </r>
       <r>    3.8902    1.0000 </r>
       <r>    4.0608    1.0000 </r>
       <r>    4.1680    1.0000 </r>
       <r>    4.5412    1.0000 </r>
       <r>    4.7022    1.0000 </r>
       <r>    5.2446    1.0000 </r>
       <r>    5.3258    1.0000 </r>
       <r>    5.4587    1.0000 </r>
       <r>    5.6089    1.0000 </r>
       <r>    5.6708    1.0000 </r>
       <r>    6.0807    1.0127 </r>
       <r>    6.2509    1.0247 </r>
       <r>    7.8824   -0.0000 </r>
       <r>    8.5319   -0.0000 </r>
       <r>   11.8457   -0.0000 </r>
       <r>   13.1816    0.0000 </r>
       <r>   15.2135    0.0000 </r>
       <r>   16.3388    0.0000 </r>
       <r>   17.1901    0.0000 </r>
      </set>
      <set comment="kpoint 130">
       <r>   -0.0041    1.0000 </r>
       <r>    0.9035    1.0000 </r>
       <r>    2.3270    1.0000 </r>
       <r>    3.3443    1.0000 </r>
       <r>    3.4797    1.0000 </r>
       <r>    3.9279    1.0000 </r>
       <r>    4.0539    1.0000 </r>
       <r>    4.1556    1.0000 </r>
       <r>    4.6325    1.0000 </r>
       <r>    4.6342    1.0000 </r>
       <r>    5.2286    1.0000 </r>
       <r>    5.2825    1.0000 </r>
       <r>    5.4705    1.0000 </r>
       <r>    5.6266    1.0000 </r>
       <r>    5.6478    1.0000 </r>
       <r>    6.0346    1.0062 </r>
       <r>    6.2342    1.0315 </r>
       <r>    8.1308   -0.0000 </r>
       <r>    8.1995   -0.0000 </r>
       <r>   12.1148    0.0000 </r>
       <r>   12.8454    0.0000 </r>
       <r>   15.3657    0.0000 </r>
       <r>   16.4936    0.0000 </r>
       <r>   16.9179    0.0000 </r>
      </set>
      <set comment="kpoint 131">
       <r>   -0.2430    1.0000 </r>
       <r>    1.7767    1.0000 </r>
       <r>    1.7916    1.0000 </r>
       <r>    3.3075    1.0000 </r>
       <r>    3.4675    1.0000 </r>
       <r>    3.8713    1.0000 </r>
       <r>    4.1144    1.0000 </r>
       <r>    4.1391    1.0000 </r>
       <r>    4.5071    1.0000 </r>
       <r>    4.7498    1.0000 </r>
       <r>    5.2935    1.0000 </r>
       <r>    5.3476    1.0000 </r>
       <r>    5.3896    1.0000 </r>
       <r>    5.6110    1.0000 </r>
       <r>    5.6457    1.0000 </r>
       <r>    6.1464    1.0268 </r>
       <r>    6.1920    1.0349 </r>
       <r>    7.5810   -0.0000 </r>
       <r>    8.4771   -0.0000 </r>
       <r>   11.8168   -0.0000 </r>
       <r>   14.0857    0.0000 </r>
       <r>   14.3032    0.0000 </r>
       <r>   16.3123    0.0000 </r>
       <r>   17.1523    0.0000 </r>
      </set>
      <set comment="kpoint 132">
       <r>    0.1155    1.0000 </r>
       <r>    1.4100    1.0000 </r>
       <r>    1.9536    1.0000 </r>
       <r>    3.2628    1.0000 </r>
       <r>    3.4646    1.0000 </r>
       <r>    3.9449    1.0000 </r>
       <r>    4.1073    1.0000 </r>
       <r>    4.1314    1.0000 </r>
       <r>    4.5936    1.0000 </r>
       <r>    4.7247    1.0000 </r>
       <r>    5.2316    1.0000 </r>
       <r>    5.3074    1.0000 </r>
       <r>    5.4059    1.0000 </r>
       <r>    5.5837    1.0000 </r>
       <r>    5.6292    1.0000 </r>
       <r>    6.0596    1.0093 </r>
       <r>    6.1354    1.0243 </r>
       <r>    7.6316   -0.0000 </r>
       <r>    8.0853   -0.0000 </r>
       <r>   12.2252    0.0000 </r>
       <r>   13.5861    0.0000 </r>
       <r>   14.5730    0.0000 </r>
       <r>   16.4218    0.0000 </r>
       <r>   16.7577    0.0000 </r>
      </set>
      <set comment="kpoint 133">
       <r>    0.3076    1.0000 </r>
       <r>    1.2115    1.0000 </r>
       <r>    2.0188    1.0000 </r>
       <r>    3.2408    1.0000 </r>
       <r>    3.4628    1.0000 </r>
       <r>    3.9777    1.0000 </r>
       <r>    4.1064    1.0000 </r>
       <r>    4.1256    1.0000 </r>
       <r>    4.6688    1.0000 </r>
       <r>    4.6757    1.0000 </r>
       <r>    5.2101    1.0000 </r>
       <r>    5.2797    1.0000 </r>
       <r>    5.4243    1.0000 </r>
       <r>    5.5560    1.0000 </r>
       <r>    5.6339    1.0000 </r>
       <r>    6.0244    1.0052 </r>
       <r>    6.1152    1.0197 </r>
       <r>    7.7960   -0.0000 </r>
       <r>    7.8120   -0.0000 </r>
       <r>   12.4879    0.0000 </r>
       <r>   13.2658    0.0000 </r>
       <r>   14.7381    0.0000 </r>
       <r>   16.3416    0.0000 </r>
       <r>   16.7077    0.0000 </r>
      </set>
      <set comment="kpoint 134">
       <r>    0.4370    1.0000 </r>
       <r>    1.6251    1.0000 </r>
       <r>    1.6408    1.0000 </r>
       <r>    3.1532    1.0000 </r>
       <r>    3.4545    1.0000 </r>
       <r>    4.0218    1.0000 </r>
       <r>    4.1068    1.0000 </r>
       <r>    4.1394    1.0000 </r>
       <r>    4.6534    1.0000 </r>
       <r>    4.7279    1.0000 </r>
       <r>    5.1715    1.0000 </r>
       <r>    5.3495    1.0000 </r>
       <r>    5.3596    1.0000 </r>
       <r>    5.5107    1.0000 </r>
       <r>    5.6335    1.0000 </r>
       <r>    6.0152    1.0044 </r>
       <r>    6.0548    1.0086 </r>
       <r>    7.5479   -0.0000 </r>
       <r>    7.7776   -0.0000 </r>
       <r>   12.6360    0.0000 </r>
       <r>   13.8753    0.0000 </r>
       <r>   14.0664    0.0000 </r>
       <r>   16.0599    0.0000 </r>
       <r>   16.8385    0.0000 </r>
      </set>
      <set comment="kpoint 135">
       <r>    0.6037    1.0000 </r>
       <r>    1.4658    1.0000 </r>
       <r>    1.7238    1.0000 </r>
       <r>    3.1001    1.0000 </r>
       <r>    3.4507    1.0000 </r>
       <r>    4.0562    1.0000 </r>
       <r>    4.1042    1.0000 </r>
       <r>    4.1449    1.0000 </r>
       <r>    4.7014    1.0000 </r>
       <r>    4.7052    1.0000 </r>
       <r>    5.1467    1.0000 </r>
       <r>    5.3358    1.0000 </r>
       <r>    5.3781    1.0000 </r>
       <r>    5.4725    1.0000 </r>
       <r>    5.6357    1.0000 </r>
       <r>    5.9914    1.0028 </r>
       <r>    6.0285    1.0055 </r>
       <r>    7.6004   -0.0000 </r>
       <r>    7.6016   -0.0000 </r>
       <r>   12.9011    0.0000 </r>
       <r>   13.6361    0.0000 </r>
       <r>   14.1512    0.0000 </r>
       <r>   15.8590    0.0000 </r>
       <r>   16.9127    0.0000 </r>
      </set>
      <set comment="kpoint 136">
       <r>    0.7557    1.0000 </r>
       <r>    1.5719    1.0000 </r>
       <r>    1.5719    1.0000 </r>
       <r>    3.0313    1.0000 </r>
       <r>    3.4463    1.0000 </r>
       <r>    4.0965    1.0000 </r>
       <r>    4.0965    1.0000 </r>
       <r>    4.1549    1.0000 </r>
       <r>    4.7156    1.0000 </r>
       <r>    4.7156    1.0000 </r>
       <r>    5.1208    1.0000 </r>
       <r>    5.3624    1.0000 </r>
       <r>    5.3624    1.0000 </r>
       <r>    5.4306    1.0000 </r>
       <r>    5.6351    1.0000 </r>
       <r>    5.9722    1.0019 </r>
       <r>    5.9988    1.0032 </r>
       <r>    7.5370   -0.0000 </r>
       <r>    7.5370   -0.0000 </r>
       <r>   13.1884    0.0000 </r>
       <r>   13.8043    0.0000 </r>
       <r>   13.8043    0.0000 </r>
       <r>   15.6515    0.0000 </r>
       <r>   16.9982    0.0000 </r>
      </set>
      <set comment="kpoint 137">
       <r>   -2.6775    1.0000 </r>
       <r>    2.3626    1.0000 </r>
       <r>    2.8205    1.0000 </r>
       <r>    2.8205    1.0000 </r>
       <r>    3.2048    1.0000 </r>
       <r>    3.6258    1.0000 </r>
       <r>    3.6258    1.0000 </r>
       <r>    4.4627    1.0000 </r>
       <r>    5.0075    1.0000 </r>
       <r>    5.0075    1.0000 </r>
       <r>    5.5324    1.0000 </r>
       <r>    5.5324    1.0000 </r>
       <r>    5.8552    1.0001 </r>
       <r>    5.8552    1.0001 </r>
       <r>    5.9896    1.0027 </r>
       <r>    6.6792   -0.0344 </r>
       <r>    7.2420   -0.0000 </r>
       <r>    8.0853   -0.0000 </r>
       <r>    8.0853   -0.0000 </r>
       <r>   14.8104    0.0000 </r>
       <r>   14.8104    0.0000 </r>
       <r>   15.0536    0.0000 </r>
       <r>   15.8142    0.0000 </r>
       <r>   15.8142    0.0000 </r>
      </set>
      <set comment="kpoint 138">
       <r>   -2.4242    1.0000 </r>
       <r>    2.3200    1.0000 </r>
       <r>    2.6893    1.0000 </r>
       <r>    2.9765    1.0000 </r>
       <r>    3.1942    1.0000 </r>
       <r>    3.6514    1.0000 </r>
       <r>    3.7169    1.0000 </r>
       <r>    4.3877    1.0000 </r>
       <r>    4.8783    1.0000 </r>
       <r>    4.9076    1.0000 </r>
       <r>    5.4312    1.0000 </r>
       <r>    5.5453    1.0000 </r>
       <r>    5.7604    1.0000 </r>
       <r>    5.8596    1.0001 </r>
       <r>    5.8938    1.0003 </r>
       <r>    6.6577   -0.0286 </r>
       <r>    7.0310   -0.0002 </r>
       <r>    8.1401   -0.0000 </r>
       <r>    8.3284   -0.0000 </r>
       <r>   14.0868    0.0000 </r>
       <r>   14.2187    0.0000 </r>
       <r>   15.2962    0.0000 </r>
       <r>   15.7676    0.0000 </r>
       <r>   16.0802    0.0000 </r>
      </set>
      <set comment="kpoint 139">
       <r>   -2.1046    1.0000 </r>
       <r>    2.0261    1.0000 </r>
       <r>    2.7019    1.0000 </r>
       <r>    3.1538    1.0000 </r>
       <r>    3.2042    1.0000 </r>
       <r>    3.6895    1.0000 </r>
       <r>    3.7969    1.0000 </r>
       <r>    4.3476    1.0000 </r>
       <r>    4.7480    1.0000 </r>
       <r>    4.7787    1.0000 </r>
       <r>    5.3816    1.0000 </r>
       <r>    5.5336    1.0000 </r>
       <r>    5.6492    1.0000 </r>
       <r>    5.8164    1.0000 </r>
       <r>    5.8627    1.0001 </r>
       <r>    6.6226   -0.0044 </r>
       <r>    6.6776   -0.0341 </r>
       <r>    8.4604   -0.0000 </r>
       <r>    8.6022   -0.0000 </r>
       <r>   13.3136    0.0000 </r>
       <r>   13.4126    0.0000 </r>
       <r>   15.6812    0.0000 </r>
       <r>   15.8787    0.0000 </r>
       <r>   16.2956    0.0000 </r>
      </set>
      <set comment="kpoint 140">
       <r>   -1.7253    1.0000 </r>
       <r>    1.5729    1.0000 </r>
       <r>    2.7761    1.0000 </r>
       <r>    3.2252    1.0000 </r>
       <r>    3.3262    1.0000 </r>
       <r>    3.7517    1.0000 </r>
       <r>    3.8502    1.0000 </r>
       <r>    4.3544    1.0000 </r>
       <r>    4.6173    1.0000 </r>
       <r>    4.6783    1.0000 </r>
       <r>    5.3434    1.0000 </r>
       <r>    5.5097    1.0000 </r>
       <r>    5.5367    1.0000 </r>
       <r>    5.7516    1.0000 </r>
       <r>    5.8651    1.0001 </r>
       <r>    6.3638    0.8301 </r>
       <r>    6.5827    0.0537 </r>
       <r>    8.8662   -0.0000 </r>
       <r>    8.8917   -0.0000 </r>
       <r>   12.6083    0.0000 </r>
       <r>   12.6493    0.0000 </r>
       <r>   16.0365    0.0000 </r>
       <r>   16.0771    0.0000 </r>
       <r>   16.5302    0.0000 </r>
      </set>
      <set comment="kpoint 141">
       <r>   -1.2989    1.0000 </r>
       <r>    1.0551    1.0000 </r>
       <r>    2.8477    1.0000 </r>
       <r>    3.2452    1.0000 </r>
       <r>    3.4553    1.0000 </r>
       <r>    3.8587    1.0000 </r>
       <r>    3.8772    1.0000 </r>
       <r>    4.4059    1.0000 </r>
       <r>    4.4833    1.0000 </r>
       <r>    4.6157    1.0000 </r>
       <r>    5.2966    1.0000 </r>
       <r>    5.4463    1.0000 </r>
       <r>    5.4934    1.0000 </r>
       <r>    5.6880    1.0000 </r>
       <r>    5.8676    1.0002 </r>
       <r>    6.1242    1.0217 </r>
       <r>    6.5470    0.1386 </r>
       <r>    9.1769   -0.0000 </r>
       <r>    9.3109   -0.0000 </r>
       <r>   11.9528    0.0000 </r>
       <r>   12.0157    0.0000 </r>
       <r>   16.1988    0.0000 </r>
       <r>   16.4689    0.0000 </r>
       <r>   16.8011    0.0000 </r>
      </set>
      <set comment="kpoint 142">
       <r>   -0.8618    1.0000 </r>
       <r>    0.5485    1.0000 </r>
       <r>    2.8975    1.0000 </r>
       <r>    3.2553    1.0000 </r>
       <r>    3.5218    1.0000 </r>
       <r>    3.8933    1.0000 </r>
       <r>    4.0094    1.0000 </r>
       <r>    4.3417    1.0000 </r>
       <r>    4.4745    1.0000 </r>
       <r>    4.5741    1.0000 </r>
       <r>    5.2480    1.0000 </r>
       <r>    5.3941    1.0000 </r>
       <r>    5.4977    1.0000 </r>
       <r>    5.6259    1.0000 </r>
       <r>    5.8697    1.0002 </r>
       <r>    5.9711    1.0018 </r>
       <r>    6.5228    0.2137 </r>
       <r>    9.4142   -0.0000 </r>
       <r>    9.7503   -0.0000 </r>
       <r>   11.3630   -0.0000 </r>
       <r>   11.5901   -0.0000 </r>
       <r>   16.3250    0.0000 </r>
       <r>   16.7824    0.0000 </r>
       <r>   17.1211    0.0000 </r>
      </set>
      <set comment="kpoint 143">
       <r>   -0.6019    1.0000 </r>
       <r>    0.2632    1.0000 </r>
       <r>    2.9154    1.0000 </r>
       <r>    3.2573    1.0000 </r>
       <r>    3.5408    1.0000 </r>
       <r>    3.9002    1.0000 </r>
       <r>    4.1422    1.0000 </r>
       <r>    4.2181    1.0000 </r>
       <r>    4.5276    1.0000 </r>
       <r>    4.5367    1.0000 </r>
       <r>    5.2269    1.0000 </r>
       <r>    5.3772    1.0000 </r>
       <r>    5.5102    1.0000 </r>
       <r>    5.5919    1.0000 </r>
       <r>    5.8705    1.0002 </r>
       <r>    5.9178    1.0005 </r>
       <r>    6.5144    0.2431 </r>
       <r>    9.5151   -0.0000 </r>
       <r>    9.9960   -0.0000 </r>
       <r>   11.0672   -0.0000 </r>
       <r>   11.4259   -0.0000 </r>
       <r>   16.3735    0.0000 </r>
       <r>   16.9036    0.0000 </r>
       <r>   17.3790    0.0000 </r>
      </set>
      <set comment="kpoint 144">
       <r>   -2.1752    1.0000 </r>
       <r>    2.3491    1.0000 </r>
       <r>    2.6316    1.0000 </r>
       <r>    2.9849    1.0000 </r>
       <r>    3.1974    1.0000 </r>
       <r>    3.6948    1.0000 </r>
       <r>    3.7871    1.0000 </r>
       <r>    4.3228    1.0000 </r>
       <r>    4.7727    1.0000 </r>
       <r>    4.8046    1.0000 </r>
       <r>    5.4420    1.0000 </r>
       <r>    5.5011    1.0000 </r>
       <r>    5.7296    1.0000 </r>
       <r>    5.7813    1.0000 </r>
       <r>    5.8185    1.0000 </r>
       <r>    6.6418   -0.0203 </r>
       <r>    7.0532   -0.0001 </r>
       <r>    7.9118   -0.0000 </r>
       <r>    8.4759   -0.0000 </r>
       <r>   13.3221    0.0000 </r>
       <r>   14.4674    0.0000 </r>
       <r>   14.4893    0.0000 </r>
       <r>   16.0095    0.0000 </r>
       <r>   16.7556    0.0000 </r>
      </set>
      <set comment="kpoint 145">
       <r>   -1.8617    1.0000 </r>
       <r>    2.1373    1.0000 </r>
       <r>    2.6008    1.0000 </r>
       <r>    3.1229    1.0000 </r>
       <r>    3.2293    1.0000 </r>
       <r>    3.7231    1.0000 </r>
       <r>    3.8681    1.0000 </r>
       <r>    4.2874    1.0000 </r>
       <r>    4.6420    1.0000 </r>
       <r>    4.7200    1.0000 </r>
       <r>    5.4190    1.0000 </r>
       <r>    5.4973    1.0000 </r>
       <r>    5.6492    1.0000 </r>
       <r>    5.6908    1.0000 </r>
       <r>    5.8111    1.0000 </r>
       <r>    6.6057    0.0158 </r>
       <r>    6.7971   -0.0171 </r>
       <r>    7.9984   -0.0000 </r>
       <r>    8.7326   -0.0000 </r>
       <r>   12.5428    0.0000 </r>
       <r>   13.6681    0.0000 </r>
       <r>   14.8342    0.0000 </r>
       <r>   16.1922    0.0000 </r>
       <r>   17.1852    0.0000 </r>
      </set>
      <set comment="kpoint 146">
       <r>   -1.4905    1.0000 </r>
       <r>    1.7186    1.0000 </r>
       <r>    2.6530    1.0000 </r>
       <r>    3.2756    1.0000 </r>
       <r>    3.2906    1.0000 </r>
       <r>    3.7614    1.0000 </r>
       <r>    3.9196    1.0000 </r>
       <r>    4.3003    1.0000 </r>
       <r>    4.5322    1.0000 </r>
       <r>    4.6442    1.0000 </r>
       <r>    5.3741    1.0000 </r>
       <r>    5.4898    1.0000 </r>
       <r>    5.5668    1.0000 </r>
       <r>    5.6352    1.0000 </r>
       <r>    5.8074    1.0000 </r>
       <r>    6.4681    0.4242 </r>
       <r>    6.5679    0.0849 </r>
       <r>    8.2569   -0.0000 </r>
       <r>    9.0085   -0.0000 </r>
       <r>   11.8645   -0.0000 </r>
       <r>   12.9225    0.0000 </r>
       <r>   15.2252    0.0000 </r>
       <r>   16.3972    0.0000 </r>
       <r>   17.4506    0.0000 </r>
      </set>
      <set comment="kpoint 147">
       <r>   -1.0752    1.0000 </r>
       <r>    1.2285    1.0000 </r>
       <r>    2.7017    1.0000 </r>
       <r>    3.3189    1.0000 </r>
       <r>    3.4383    1.0000 </r>
       <r>    3.8248    1.0000 </r>
       <r>    3.9436    1.0000 </r>
       <r>    4.3436    1.0000 </r>
       <r>    4.4480    1.0000 </r>
       <r>    4.5869    1.0000 </r>
       <r>    5.3150    1.0000 </r>
       <r>    5.4635    1.0000 </r>
       <r>    5.5126    1.0000 </r>
       <r>    5.6164    1.0000 </r>
       <r>    5.7980    1.0000 </r>
       <r>    6.2046    1.0355 </r>
       <r>    6.5198    0.2240 </r>
       <r>    8.5602   -0.0000 </r>
       <r>    9.2597   -0.0000 </r>
       <r>   11.3409   -0.0000 </r>
       <r>   12.2646    0.0000 </r>
       <r>   15.6342    0.0000 </r>
       <r>   16.6073    0.0000 </r>
       <r>   17.6563    0.0000 </r>
      </set>
      <set comment="kpoint 148">
       <r>   -0.6538    1.0000 </r>
       <r>    0.7479    1.0000 </r>
       <r>    2.7325    1.0000 </r>
       <r>    3.3446    1.0000 </r>
       <r>    3.5292    1.0000 </r>
       <r>    3.9111    1.0000 </r>
       <r>    3.9672    1.0000 </r>
       <r>    4.3060    1.0000 </r>
       <r>    4.4498    1.0000 </r>
       <r>    4.5532    1.0000 </r>
       <r>    5.2650    1.0000 </r>
       <r>    5.4297    1.0000 </r>
       <r>    5.4955    1.0000 </r>
       <r>    5.6146    1.0000 </r>
       <r>    5.7860    1.0000 </r>
       <r>    6.0255    1.0053 </r>
       <r>    6.4869    0.3471 </r>
       <r>    8.8532   -0.0000 </r>
       <r>    9.3971   -0.0000 </r>
       <r>   11.0640   -0.0000 </r>
       <r>   11.7336   -0.0000 </r>
       <r>   16.0076    0.0000 </r>
       <r>   16.7923    0.0000 </r>
       <r>   17.6193    0.0000 </r>
      </set>
      <set comment="kpoint 149">
       <r>   -0.4096    1.0000 </r>
       <r>    0.4816    1.0000 </r>
       <r>    2.7429    1.0000 </r>
       <r>    3.3521    1.0000 </r>
       <r>    3.5573    1.0000 </r>
       <r>    3.9472    1.0000 </r>
       <r>    3.9988    1.0000 </r>
       <r>    4.2568    1.0000 </r>
       <r>    4.4675    1.0000 </r>
       <r>    4.5439    1.0000 </r>
       <r>    5.2469    1.0000 </r>
       <r>    5.4124    1.0000 </r>
       <r>    5.4959    1.0000 </r>
       <r>    5.6152    1.0000 </r>
       <r>    5.7803    1.0000 </r>
       <r>    5.9603    1.0015 </r>
       <r>    6.4751    0.3953 </r>
       <r>    9.0106   -0.0000 </r>
       <r>    9.3959   -0.0000 </r>
       <r>   11.0379   -0.0000 </r>
       <r>   11.4773   -0.0000 </r>
       <r>   16.1851    0.0000 </r>
       <r>   16.8914    0.0000 </r>
       <r>   17.4408    0.0000 </r>
      </set>
      <set comment="kpoint 150">
       <r>   -1.5566    1.0000 </r>
       <r>    2.1871    1.0000 </r>
       <r>    2.3928    1.0000 </r>
       <r>    3.1819    1.0000 </r>
       <r>    3.2877    1.0000 </r>
       <r>    3.7364    1.0000 </r>
       <r>    3.9563    1.0000 </r>
       <r>    4.2399    1.0000 </r>
       <r>    4.5359    1.0000 </r>
       <r>    4.6787    1.0000 </r>
       <r>    5.4492    1.0000 </r>
       <r>    5.4645    1.0000 </r>
       <r>    5.5668    1.0000 </r>
       <r>    5.6306    1.0000 </r>
       <r>    5.7795    1.0000 </r>
       <r>    6.5674    0.0861 </r>
       <r>    6.7632   -0.0247 </r>
       <r>    7.7435   -0.0000 </r>
       <r>    8.9290   -0.0000 </r>
       <r>   11.8225   -0.0000 </r>
       <r>   13.9975    0.0000 </r>
       <r>   14.0352    0.0000 </r>
       <r>   16.4037    0.0000 </r>
       <r>   18.1221    0.0000 </r>
      </set>
      <set comment="kpoint 151">
       <r>   -1.1967    1.0000 </r>
       <r>    1.8771    1.0000 </r>
       <r>    2.4132    1.0000 </r>
       <r>    3.2762    1.0000 </r>
       <r>    3.3709    1.0000 </r>
       <r>    3.7529    1.0000 </r>
       <r>    4.0102    1.0000 </r>
       <r>    4.2355    1.0000 </r>
       <r>    4.4662    1.0000 </r>
       <r>    4.6390    1.0000 </r>
       <r>    5.3956    1.0000 </r>
       <r>    5.4627    1.0000 </r>
       <r>    5.5036    1.0000 </r>
       <r>    5.5955    1.0000 </r>
       <r>    5.7666    1.0000 </r>
       <r>    6.4937    0.3205 </r>
       <r>    6.5554    0.1156 </r>
       <r>    7.8021   -0.0000 </r>
       <r>    9.0811   -0.0000 </r>
       <r>   11.2751   -0.0000 </r>
       <r>   13.2641    0.0000 </r>
       <r>   14.4070    0.0000 </r>
       <r>   16.6252    0.0000 </r>
       <r>   18.1358    0.0000 </r>
      </set>
      <set comment="kpoint 152">
       <r>   -0.7968    1.0000 </r>
       <r>    1.4309    1.0000 </r>
       <r>    2.4817    1.0000 </r>
       <r>    3.3613    1.0000 </r>
       <r>    3.4604    1.0000 </r>
       <r>    3.7856    1.0000 </r>
       <r>    4.0229    1.0000 </r>
       <r>    4.2540    1.0000 </r>
       <r>    4.4511    1.0000 </r>
       <r>    4.6009    1.0000 </r>
       <r>    5.3217    1.0000 </r>
       <r>    5.4026    1.0000 </r>
       <r>    5.5242    1.0000 </r>
       <r>    5.5876    1.0000 </r>
       <r>    5.7501    1.0000 </r>
       <r>    6.2598    1.0193 </r>
       <r>    6.4750    0.3957 </r>
       <r>    8.0117   -0.0000 </r>
       <r>    9.0927   -0.0000 </r>
       <r>   11.0044   -0.0000 </r>
       <r>   12.5956    0.0000 </r>
       <r>   14.8205    0.0000 </r>
       <r>   16.8319    0.0000 </r>
       <r>   17.5900    0.0000 </r>
      </set>
      <set comment="kpoint 153">
       <r>   -0.3970    1.0000 </r>
       <r>    0.9881    1.0000 </r>
       <r>    2.5245    1.0000 </r>
       <r>    3.4072    1.0000 </r>
       <r>    3.5348    1.0000 </r>
       <r>    3.8305    1.0000 </r>
       <r>    4.0330    1.0000 </r>
       <r>    4.2379    1.0000 </r>
       <r>    4.4818    1.0000 </r>
       <r>    4.5729    1.0000 </r>
       <r>    5.2753    1.0000 </r>
       <r>    5.3456    1.0000 </r>
       <r>    5.5462    1.0000 </r>
       <r>    5.6099    1.0000 </r>
       <r>    5.7210    1.0000 </r>
       <r>    6.0683    1.0106 </r>
       <r>    6.4338    0.5687 </r>
       <r>    8.2761   -0.0000 </r>
       <r>    8.9182   -0.0000 </r>
       <r>   11.0496   -0.0000 </r>
       <r>   12.0381    0.0000 </r>
       <r>   15.2071    0.0000 </r>
       <r>   16.8856    0.0000 </r>
       <r>   17.2115    0.0000 </r>
      </set>
      <set comment="kpoint 154">
       <r>   -0.1731    1.0000 </r>
       <r>    0.7474    1.0000 </r>
       <r>    2.5386    1.0000 </r>
       <r>    3.4192    1.0000 </r>
       <r>    3.5644    1.0000 </r>
       <r>    3.8538    1.0000 </r>
       <r>    4.0408    1.0000 </r>
       <r>    4.2221    1.0000 </r>
       <r>    4.4959    1.0000 </r>
       <r>    4.5664    1.0000 </r>
       <r>    5.2675    1.0000 </r>
       <r>    5.3148    1.0000 </r>
       <r>    5.5576    1.0000 </r>
       <r>    5.6316    1.0000 </r>
       <r>    5.6982    1.0000 </r>
       <r>    5.9954    1.0030 </r>
       <r>    6.4188    0.6307 </r>
       <r>    8.4826   -0.0000 </r>
       <r>    8.7249   -0.0000 </r>
       <r>   11.1904   -0.0000 </r>
       <r>   11.7438   -0.0000 </r>
       <r>   15.3989    0.0000 </r>
       <r>   16.7428    0.0000 </r>
       <r>   17.1929    0.0000 </r>
      </set>
      <set comment="kpoint 155">
       <r>   -0.8522    1.0000 </r>
       <r>    1.9704    1.0000 </r>
       <r>    2.1368    1.0000 </r>
       <r>    3.2918    1.0000 </r>
       <r>    3.4659    1.0000 </r>
       <r>    3.7556    1.0000 </r>
       <r>    4.0713    1.0000 </r>
       <r>    4.1984    1.0000 </r>
       <r>    4.4468    1.0000 </r>
       <r>    4.6353    1.0000 </r>
       <r>    5.3661    1.0000 </r>
       <r>    5.4299    1.0000 </r>
       <r>    5.4319    1.0000 </r>
       <r>    5.6023    1.0000 </r>
       <r>    5.7480    1.0000 </r>
       <r>    6.4498    0.5014 </r>
       <r>    6.4611    0.4537 </r>
       <r>    7.6046   -0.0000 </r>
       <r>    8.9994   -0.0000 </r>
       <r>   10.9786   -0.0000 </r>
       <r>   13.5912    0.0000 </r>
       <r>   13.7124    0.0000 </r>
       <r>   16.8239    0.0000 </r>
       <r>   17.5743    0.0000 </r>
      </set>
      <set comment="kpoint 156">
       <r>   -0.4732    1.0000 </r>
       <r>    1.6419    1.0000 </r>
       <r>    2.1962    1.0000 </r>
       <r>    3.3239    1.0000 </r>
       <r>    3.5267    1.0000 </r>
       <r>    3.7896    1.0000 </r>
       <r>    4.0800    1.0000 </r>
       <r>    4.2002    1.0000 </r>
       <r>    4.4784    1.0000 </r>
       <r>    4.6259    1.0000 </r>
       <r>    5.2779    1.0000 </r>
       <r>    5.3701    1.0000 </r>
       <r>    5.4662    1.0000 </r>
       <r>    5.6100    1.0000 </r>
       <r>    5.7321    1.0000 </r>
       <r>    6.2603    1.0190 </r>
       <r>    6.3972    0.7155 </r>
       <r>    7.6484   -0.0000 </r>
       <r>    8.7384   -0.0000 </r>
       <r>   11.0096   -0.0000 </r>
       <r>   12.9714    0.0000 </r>
       <r>   14.0707    0.0000 </r>
       <r>   16.7070    0.0000 </r>
       <r>   17.3000    0.0000 </r>
      </set>
      <set comment="kpoint 157">
       <r>   -0.1025    1.0000 </r>
       <r>    1.2527    1.0000 </r>
       <r>    2.2765    1.0000 </r>
       <r>    3.3541    1.0000 </r>
       <r>    3.5534    1.0000 </r>
       <r>    3.8303    1.0000 </r>
       <r>    4.0986    1.0000 </r>
       <r>    4.1853    1.0000 </r>
       <r>    4.5353    1.0000 </r>
       <r>    4.6105    1.0000 </r>
       <r>    5.2232    1.0000 </r>
       <r>    5.3206    1.0000 </r>
       <r>    5.5088    1.0000 </r>
       <r>    5.6233    1.0000 </r>
       <r>    5.7013    1.0000 </r>
       <r>    6.0804    1.0126 </r>
       <r>    6.3535    0.8607 </r>
       <r>    7.8248   -0.0000 </r>
       <r>    8.4075   -0.0000 </r>
       <r>   11.2473   -0.0000 </r>
       <r>   12.4044    0.0000 </r>
       <r>   14.4592    0.0000 </r>
       <r>   16.2521    0.0000 </r>
       <r>   17.4226    0.0000 </r>
      </set>
      <set comment="kpoint 158">
       <r>    0.0966    1.0000 </r>
       <r>    1.0449    1.0000 </r>
       <r>    2.3048    1.0000 </r>
       <r>    3.3657    1.0000 </r>
       <r>    3.5622    1.0000 </r>
       <r>    3.8444    1.0000 </r>
       <r>    4.1287    1.0000 </r>
       <r>    4.1597    1.0000 </r>
       <r>    4.5654    1.0000 </r>
       <r>    4.5991    1.0000 </r>
       <r>    5.2079    1.0000 </r>
       <r>    5.3001    1.0000 </r>
       <r>    5.5309    1.0000 </r>
       <r>    5.6384    1.0000 </r>
       <r>    5.6736    1.0000 </r>
       <r>    6.0093    1.0039 </r>
       <r>    6.3368    0.9044 </r>
       <r>    8.0304   -0.0000 </r>
       <r>    8.1457   -0.0000 </r>
       <r>   11.4479   -0.0000 </r>
       <r>   12.1020    0.0000 </r>
       <r>   14.6548    0.0000 </r>
       <r>   16.0194    0.0000 </r>
       <r>   17.4920    0.0000 </r>
      </set>
      <set comment="kpoint 159">
       <r>   -0.1226    1.0000 </r>
       <r>    1.7879    1.0000 </r>
       <r>    1.9117    1.0000 </r>
       <r>    3.2694    1.0000 </r>
       <r>    3.5511    1.0000 </r>
       <r>    3.8556    1.0000 </r>
       <r>    4.0822    1.0000 </r>
       <r>    4.2083    1.0000 </r>
       <r>    4.5299    1.0000 </r>
       <r>    4.6465    1.0000 </r>
       <r>    5.1920    1.0000 </r>
       <r>    5.3959    1.0000 </r>
       <r>    5.4059    1.0000 </r>
       <r>    5.6237    1.0000 </r>
       <r>    5.7190    1.0000 </r>
       <r>    6.1785    1.0332 </r>
       <r>    6.3039    0.9702 </r>
       <r>    7.5081   -0.0000 </r>
       <r>    8.3330   -0.0000 </r>
       <r>   11.2327   -0.0000 </r>
       <r>   13.2959    0.0000 </r>
       <r>   13.4774    0.0000 </r>
       <r>   16.1248    0.0000 </r>
       <r>   17.4953    0.0000 </r>
      </set>
      <set comment="kpoint 160">
       <r>    0.2104    1.0000 </r>
       <r>    1.5140    1.0000 </r>
       <r>    2.0002    1.0000 </r>
       <r>    3.2219    1.0000 </r>
       <r>    3.5540    1.0000 </r>
       <r>    3.9166    1.0000 </r>
       <r>    4.0898    1.0000 </r>
       <r>    4.2203    1.0000 </r>
       <r>    4.5915    1.0000 </r>
       <r>    4.6519    1.0000 </r>
       <r>    5.1307    1.0000 </r>
       <r>    5.3586    1.0000 </r>
       <r>    5.4413    1.0000 </r>
       <r>    5.6311    1.0000 </r>
       <r>    5.6850    1.0000 </r>
       <r>    6.0497    1.0079 </r>
       <r>    6.2510    1.0247 </r>
       <r>    7.5497   -0.0000 </r>
       <r>    7.9803   -0.0000 </r>
       <r>   11.5562   -0.0000 </r>
       <r>   12.8025    0.0000 </r>
       <r>   13.7843    0.0000 </r>
       <r>   15.5997    0.0000 </r>
       <r>   17.6965    0.0000 </r>
      </set>
      <set comment="kpoint 161">
       <r>    0.3801    1.0000 </r>
       <r>    1.3463    1.0000 </r>
       <r>    2.0522    1.0000 </r>
       <r>    3.2025    1.0000 </r>
       <r>    3.5542    1.0000 </r>
       <r>    3.9328    1.0000 </r>
       <r>    4.1078    1.0000 </r>
       <r>    4.2190    1.0000 </r>
       <r>    4.6320    1.0000 </r>
       <r>    4.6388    1.0000 </r>
       <r>    5.1096    1.0000 </r>
       <r>    5.3480    1.0000 </r>
       <r>    5.4607    1.0000 </r>
       <r>    5.6362    1.0000 </r>
       <r>    5.6563    1.0000 </r>
       <r>    5.9937    1.0029 </r>
       <r>    6.2332    1.0318 </r>
       <r>    7.6978   -0.0000 </r>
       <r>    7.7331   -0.0000 </r>
       <r>   11.7804   -0.0000 </r>
       <r>   12.5000    0.0000 </r>
       <r>   13.9769    0.0000 </r>
       <r>   15.3568    0.0000 </r>
       <r>   17.7801    0.0000 </r>
      </set>
      <set comment="kpoint 162">
       <r>    0.4968    1.0000 </r>
       <r>    1.7012    1.0000 </r>
       <r>    1.7597    1.0000 </r>
       <r>    3.0895    1.0000 </r>
       <r>    3.5485    1.0000 </r>
       <r>    4.0025    1.0000 </r>
       <r>    4.0690    1.0000 </r>
       <r>    4.2705    1.0000 </r>
       <r>    4.6444    1.0000 </r>
       <r>    4.6789    1.0000 </r>
       <r>    5.0621    1.0000 </r>
       <r>    5.4003    1.0000 </r>
       <r>    5.4058    1.0000 </r>
       <r>    5.6300    1.0000 </r>
       <r>    5.6302    1.0000 </r>
       <r>    5.9899    1.0027 </r>
       <r>    6.1734    1.0324 </r>
       <r>    7.4537   -0.0000 </r>
       <r>    7.6780   -0.0000 </r>
       <r>   11.9195    0.0000 </r>
       <r>   13.1171    0.0000 </r>
       <r>   13.2703    0.0000 </r>
       <r>   15.0648    0.0000 </r>
       <r>   17.9189    0.0000 </r>
      </set>
      <set comment="kpoint 163">
       <r>    0.6344    1.0000 </r>
       <r>    1.5988    1.0000 </r>
       <r>    1.8181    1.0000 </r>
       <r>    3.0306    1.0000 </r>
       <r>    3.5459    1.0000 </r>
       <r>    4.0255    1.0000 </r>
       <r>    4.0755    1.0000 </r>
       <r>    4.2885    1.0000 </r>
       <r>    4.6770    1.0000 </r>
       <r>    4.6781    1.0000 </r>
       <r>    5.0368    1.0000 </r>
       <r>    5.4015    1.0000 </r>
       <r>    5.4225    1.0000 </r>
       <r>    5.5870    1.0000 </r>
       <r>    5.6272    1.0000 </r>
       <r>    5.9593    1.0014 </r>
       <r>    6.1486    1.0273 </r>
       <r>    7.5006   -0.0000 </r>
       <r>    7.5058   -0.0000 </r>
       <r>   12.1607    0.0000 </r>
       <r>   12.8743    0.0000 </r>
       <r>   13.3897    0.0000 </r>
       <r>   14.8236    0.0000 </r>
       <r>   18.0084    0.0000 </r>
      </set>
      <set comment="kpoint 164">
       <r>    0.7531    1.0000 </r>
       <r>    1.7064    1.0000 </r>
       <r>    1.7064    1.0000 </r>
       <r>    2.9509    1.0000 </r>
       <r>    3.5425    1.0000 </r>
       <r>    4.0647    1.0000 </r>
       <r>    4.0647    1.0000 </r>
       <r>    4.3143    1.0000 </r>
       <r>    4.6945    1.0000 </r>
       <r>    4.6945    1.0000 </r>
       <r>    5.0091    1.0000 </r>
       <r>    5.4287    1.0000 </r>
       <r>    5.4287    1.0000 </r>
       <r>    5.5258    1.0000 </r>
       <r>    5.6203    1.0000 </r>
       <r>    5.9401    1.0009 </r>
       <r>    6.1196    1.0207 </r>
       <r>    7.4365   -0.0000 </r>
       <r>    7.4365   -0.0000 </r>
       <r>   12.4241    0.0000 </r>
       <r>   13.0573    0.0000 </r>
       <r>   13.0573    0.0000 </r>
       <r>   14.5877    0.0000 </r>
       <r>   18.0996    0.0000 </r>
      </set>
      <set comment="kpoint 165">
       <r>   -1.9312    1.0000 </r>
       <r>    2.3408    1.0000 </r>
       <r>    2.7977    1.0000 </r>
       <r>    2.7977    1.0000 </r>
       <r>    3.2257    1.0000 </r>
       <r>    3.7917    1.0000 </r>
       <r>    3.7917    1.0000 </r>
       <r>    4.2806    1.0000 </r>
       <r>    4.6977    1.0000 </r>
       <r>    4.6977    1.0000 </r>
       <r>    5.4607    1.0000 </r>
       <r>    5.4607    1.0000 </r>
       <r>    5.6615    1.0000 </r>
       <r>    5.7485    1.0000 </r>
       <r>    5.7485    1.0000 </r>
       <r>    6.6467   -0.0233 </r>
       <r>    7.1451   -0.0000 </r>
       <r>    8.0502   -0.0000 </r>
       <r>    8.0502   -0.0000 </r>
       <r>   13.6177    0.0000 </r>
       <r>   13.6177    0.0000 </r>
       <r>   13.6589    0.0000 </r>
       <r>   16.9231    0.0000 </r>
       <r>   16.9231    0.0000 </r>
      </set>
      <set comment="kpoint 166">
       <r>   -1.6246    1.0000 </r>
       <r>    2.1897    1.0000 </r>
       <r>    2.6451    1.0000 </r>
       <r>    2.9924    1.0000 </r>
       <r>    3.2871    1.0000 </r>
       <r>    3.7982    1.0000 </r>
       <r>    3.8751    1.0000 </r>
       <r>    4.2629    1.0000 </r>
       <r>    4.6018    1.0000 </r>
       <r>    4.6137    1.0000 </r>
       <r>    5.4325    1.0000 </r>
       <r>    5.4754    1.0000 </r>
       <r>    5.5628    1.0000 </r>
       <r>    5.6723    1.0000 </r>
       <r>    5.7625    1.0000 </r>
       <r>    6.6245   -0.0062 </r>
       <r>    6.9358   -0.0016 </r>
       <r>    8.0470   -0.0000 </r>
       <r>    8.2087   -0.0000 </r>
       <r>   12.8358    0.0000 </r>
       <r>   12.8464    0.0000 </r>
       <r>   13.9831    0.0000 </r>
       <r>   17.1257    0.0000 </r>
       <r>   17.4957    0.0000 </r>
      </set>
      <set comment="kpoint 167">
       <r>   -1.2628    1.0000 </r>
       <r>    1.8342    1.0000 </r>
       <r>    2.6055    1.0000 </r>
       <r>    3.1988    1.0000 </r>
       <r>    3.3587    1.0000 </r>
       <r>    3.8059    1.0000 </r>
       <r>    3.9285    1.0000 </r>
       <r>    4.2856    1.0000 </r>
       <r>    4.5260    1.0000 </r>
       <r>    4.5428    1.0000 </r>
       <r>    5.3929    1.0000 </r>
       <r>    5.4397    1.0000 </r>
       <r>    5.5389    1.0000 </r>
       <r>    5.6126    1.0000 </r>
       <r>    5.7662    1.0000 </r>
       <r>    6.5831    0.0530 </r>
       <r>    6.5889    0.0422 </r>
       <r>    8.3057   -0.0000 </r>
       <r>    8.3734   -0.0000 </r>
       <r>   12.1144    0.0000 </r>
       <r>   12.1705    0.0000 </r>
       <r>   14.3758    0.0000 </r>
       <r>   17.3457    0.0000 </r>
       <r>   17.7074    0.0000 </r>
      </set>
      <set comment="kpoint 168">
       <r>   -0.8603    1.0000 </r>
       <r>    1.3838    1.0000 </r>
       <r>    2.6038    1.0000 </r>
       <r>    3.3934    1.0000 </r>
       <r>    3.4166    1.0000 </r>
       <r>    3.8131    1.0000 </r>
       <r>    3.9673    1.0000 </r>
       <r>    4.3291    1.0000 </r>
       <r>    4.4413    1.0000 </r>
       <r>    4.5223    1.0000 </r>
       <r>    5.3399    1.0000 </r>
       <r>    5.3793    1.0000 </r>
       <r>    5.5698    1.0000 </r>
       <r>    5.5875    1.0000 </r>
       <r>    5.7541    1.0000 </r>
       <r>    6.2804    1.0015 </r>
       <r>    6.5358    0.1716 </r>
       <r>    8.5266   -0.0000 </r>
       <r>    8.6335   -0.0000 </r>
       <r>   11.4768   -0.0000 </r>
       <r>   11.6497   -0.0000 </r>
       <r>   14.7952    0.0000 </r>
       <r>   17.4026    0.0000 </r>
       <r>   17.5553    0.0000 </r>
      </set>
      <set comment="kpoint 169">
       <r>   -0.4573    1.0000 </r>
       <r>    0.9360    1.0000 </r>
       <r>    2.6072    1.0000 </r>
       <r>    3.4472    1.0000 </r>
       <r>    3.5426    1.0000 </r>
       <r>    3.8172    1.0000 </r>
       <r>    4.0098    1.0000 </r>
       <r>    4.3486    1.0000 </r>
       <r>    4.3724    1.0000 </r>
       <r>    4.5320    1.0000 </r>
       <r>    5.2984    1.0000 </r>
       <r>    5.3393    1.0000 </r>
       <r>    5.5930    1.0000 </r>
       <r>    5.6118    1.0000 </r>
       <r>    5.7257    1.0000 </r>
       <r>    6.0581    1.0091 </r>
       <r>    6.4985    0.3017 </r>
       <r>    8.6419   -0.0000 </r>
       <r>    8.9392   -0.0000 </r>
       <r>   10.9894   -0.0000 </r>
       <r>   11.3093   -0.0000 </r>
       <r>   15.1937    0.0000 </r>
       <r>   16.9218    0.0000 </r>
       <r>   17.7130    0.0000 </r>
      </set>
      <set comment="kpoint 170">
       <r>   -0.2309    1.0000 </r>
       <r>    0.6921    1.0000 </r>
       <r>    2.6088    1.0000 </r>
       <r>    3.4555    1.0000 </r>
       <r>    3.6017    1.0000 </r>
       <r>    3.8178    1.0000 </r>
       <r>    4.0322    1.0000 </r>
       <r>    4.3436    1.0000 </r>
       <r>    4.3480    1.0000 </r>
       <r>    4.5419    1.0000 </r>
       <r>    5.2845    1.0000 </r>
       <r>    5.3256    1.0000 </r>
       <r>    5.6045    1.0000 </r>
       <r>    5.6413    1.0000 </r>
       <r>    5.7007    1.0000 </r>
       <r>    5.9699    1.0018 </r>
       <r>    6.4844    0.3573 </r>
       <r>    8.6862   -0.0000 </r>
       <r>    9.0812   -0.0000 </r>
       <r>   10.7873   -0.0000 </r>
       <r>   11.1892   -0.0000 </r>
       <r>   15.3978    0.0000 </r>
       <r>   16.6820    0.0000 </r>
       <r>   17.7729    0.0000 </r>
      </set>
      <set comment="kpoint 171">
       <r>   -1.3276    1.0000 </r>
       <r>    2.1611    1.0000 </r>
       <r>    2.5671    1.0000 </r>
       <r>    2.9996    1.0000 </r>
       <r>    3.3726    1.0000 </r>
       <r>    3.8176    1.0000 </r>
       <r>    3.9258    1.0000 </r>
       <r>    4.2481    1.0000 </r>
       <r>    4.5263    1.0000 </r>
       <r>    4.5707    1.0000 </r>
       <r>    5.4377    1.0000 </r>
       <r>    5.4490    1.0000 </r>
       <r>    5.4625    1.0000 </r>
       <r>    5.6639    1.0000 </r>
       <r>    5.7377    1.0000 </r>
       <r>    6.6112    0.0085 </r>
       <r>    6.9264   -0.0019 </r>
       <r>    7.7828   -0.0000 </r>
       <r>    8.2746   -0.0000 </r>
       <r>   12.1018    0.0000 </r>
       <r>   13.1663    0.0000 </r>
       <r>   13.2060    0.0000 </r>
       <r>   17.4780    0.0000 </r>
       <r>   18.0567    0.0000 </r>
      </set>
      <set comment="kpoint 172">
       <r>   -0.9789    1.0000 </r>
       <r>    1.9359    1.0000 </r>
       <r>    2.4803    1.0000 </r>
       <r>    3.1448    1.0000 </r>
       <r>    3.4612    1.0000 </r>
       <r>    3.8095    1.0000 </r>
       <r>    3.9736    1.0000 </r>
       <r>    4.2623    1.0000 </r>
       <r>    4.4842    1.0000 </r>
       <r>    4.5375    1.0000 </r>
       <r>    5.3461    1.0000 </r>
       <r>    5.4078    1.0000 </r>
       <r>    5.4844    1.0000 </r>
       <r>    5.6378    1.0000 </r>
       <r>    5.7397    1.0000 </r>
       <r>    6.5706    0.0788 </r>
       <r>    6.6670   -0.0318 </r>
       <r>    7.8149   -0.0000 </r>
       <r>    8.4083   -0.0000 </r>
       <r>   11.4915   -0.0000 </r>
       <r>   12.4739    0.0000 </r>
       <r>   13.5759    0.0000 </r>
       <r>   17.2925    0.0000 </r>
       <r>   17.8350    0.0000 </r>
      </set>
      <set comment="kpoint 173">
       <r>   -0.5946    1.0000 </r>
       <r>    1.5574    1.0000 </r>
       <r>    2.4593    1.0000 </r>
       <r>    3.3198    1.0000 </r>
       <r>    3.5275    1.0000 </r>
       <r>    3.7905    1.0000 </r>
       <r>    4.0188    1.0000 </r>
       <r>    4.2812    1.0000 </r>
       <r>    4.4647    1.0000 </r>
       <r>    4.5270    1.0000 </r>
       <r>    5.2713    1.0000 </r>
       <r>    5.3584    1.0000 </r>
       <r>    5.5245    1.0000 </r>
       <r>    5.6355    1.0000 </r>
       <r>    5.7326    1.0000 </r>
       <r>    6.3429    0.8893 </r>
       <r>    6.5291    0.1928 </r>
       <r>    7.9928   -0.0000 </r>
       <r>    8.5185   -0.0000 </r>
       <r>   11.0536   -0.0000 </r>
       <r>   11.8728   -0.0000 </r>
       <r>   13.9949    0.0000 </r>
       <r>   16.6714    0.0000 </r>
       <r>   18.0414    0.0000 </r>
      </set>
      <set comment="kpoint 174">
       <r>   -0.2177    1.0000 </r>
       <r>    1.1605    1.0000 </r>
       <r>    2.4554    1.0000 </r>
       <r>    3.4640    1.0000 </r>
       <r>    3.5756    1.0000 </r>
       <r>    3.7479    1.0000 </r>
       <r>    4.0861    1.0000 </r>
       <r>    4.2656    1.0000 </r>
       <r>    4.4469    1.0000 </r>
       <r>    4.5457    1.0000 </r>
       <r>    5.2253    1.0000 </r>
       <r>    5.3240    1.0000 </r>
       <r>    5.5751    1.0000 </r>
       <r>    5.6590    1.0000 </r>
       <r>    5.7112    1.0000 </r>
       <r>    6.0906    1.0145 </r>
       <r>    6.4873    0.3456 </r>
       <r>    8.1765   -0.0000 </r>
       <r>    8.5663   -0.0000 </r>
       <r>   10.8280   -0.0000 </r>
       <r>   11.4254   -0.0000 </r>
       <r>   14.3988    0.0000 </r>
       <r>   16.1278    0.0000 </r>
       <r>   18.2185    0.0000 </r>
      </set>
      <set comment="kpoint 175">
       <r>   -0.0147    1.0000 </r>
       <r>    0.9477    1.0000 </r>
       <r>    2.4549    1.0000 </r>
       <r>    3.5094    1.0000 </r>
       <r>    3.6376    1.0000 </r>
       <r>    3.6924    1.0000 </r>
       <r>    4.1331    1.0000 </r>
       <r>    4.2400    1.0000 </r>
       <r>    4.4377    1.0000 </r>
       <r>    4.5577    1.0000 </r>
       <r>    5.2101    1.0000 </r>
       <r>    5.3136    1.0000 </r>
       <r>    5.6120    1.0000 </r>
       <r>    5.6593    1.0000 </r>
       <r>    5.7144    1.0000 </r>
       <r>    5.9774    1.0021 </r>
       <r>    6.4712    0.4111 </r>
       <r>    8.2663   -0.0000 </r>
       <r>    8.5627   -0.0000 </r>
       <r>   10.7818   -0.0000 </r>
       <r>   11.2385   -0.0000 </r>
       <r>   14.6097    0.0000 </r>
       <r>   15.8691    0.0000 </r>
       <r>   18.2882    0.0000 </r>
      </set>
      <set comment="kpoint 176">
       <r>   -0.6484    1.0000 </r>
       <r>    1.9425    1.0000 </r>
       <r>    2.3142    1.0000 </r>
       <r>    3.1659    1.0000 </r>
       <r>    3.5577    1.0000 </r>
       <r>    3.8048    1.0000 </r>
       <r>    4.0069    1.0000 </r>
       <r>    4.2650    1.0000 </r>
       <r>    4.4815    1.0000 </r>
       <r>    4.5437    1.0000 </r>
       <r>    5.2465    1.0000 </r>
       <r>    5.4165    1.0000 </r>
       <r>    5.4468    1.0000 </r>
       <r>    5.6413    1.0000 </r>
       <r>    5.7407    1.0000 </r>
       <r>    6.5324    0.1824 </r>
       <r>    6.5948    0.0321 </r>
       <r>    7.5573   -0.0000 </r>
       <r>    8.4175   -0.0000 </r>
       <r>   11.0372   -0.0000 </r>
       <r>   12.8127    0.0000 </r>
       <r>   12.8924    0.0000 </r>
       <r>   16.5964    0.0000 </r>
       <r>   18.0987    0.0000 </r>
      </set>
      <set comment="kpoint 177">
       <r>   -0.2895    1.0000 </r>
       <r>    1.7205    1.0000 </r>
       <r>    2.2662    1.0000 </r>
       <r>    3.2409    1.0000 </r>
       <r>    3.6162    1.0000 </r>
       <r>    3.8078    1.0000 </r>
       <r>    4.0376    1.0000 </r>
       <r>    4.2828    1.0000 </r>
       <r>    4.5059    1.0000 </r>
       <r>    4.5537    1.0000 </r>
       <r>    5.1657    1.0000 </r>
       <r>    5.3788    1.0000 </r>
       <r>    5.4686    1.0000 </r>
       <r>    5.6475    1.0000 </r>
       <r>    5.7461    1.0000 </r>
       <r>    6.3510    0.8677 </r>
       <r>    6.4868    0.3475 </r>
       <r>    7.5783   -0.0000 </r>
       <r>    8.3342   -0.0000 </r>
       <r>   10.8280   -0.0000 </r>
       <r>   12.2233    0.0000 </r>
       <r>   13.2671    0.0000 </r>
       <r>   15.9288    0.0000 </r>
       <r>   18.3553    0.0000 </r>
      </set>
      <set comment="kpoint 178">
       <r>    0.0519    1.0000 </r>
       <r>    1.4043    1.0000 </r>
       <r>    2.2776    1.0000 </r>
       <r>    3.3195    1.0000 </r>
       <r>    3.6454    1.0000 </r>
       <r>    3.7909    1.0000 </r>
       <r>    4.1040    1.0000 </r>
       <r>    4.2754    1.0000 </r>
       <r>    4.5253    1.0000 </r>
       <r>    4.5733    1.0000 </r>
       <r>    5.1143    1.0000 </r>
       <r>    5.3528    1.0000 </r>
       <r>    5.5075    1.0000 </r>
       <r>    5.6603    1.0000 </r>
       <r>    5.7555    1.0000 </r>
       <r>    6.1012    1.0166 </r>
       <r>    6.4434    0.5284 </r>
       <r>    7.7254   -0.0000 </r>
       <r>    8.1683   -0.0000 </r>
       <r>   10.8485   -0.0000 </r>
       <r>   11.7243   -0.0000 </r>
       <r>   13.6684    0.0000 </r>
       <r>   15.3700    0.0000 </r>
       <r>   18.5567    0.0000 </r>
      </set>
      <set comment="kpoint 179">
       <r>    0.2255    1.0000 </r>
       <r>    1.2334    1.0000 </r>
       <r>    2.2840    1.0000 </r>
       <r>    3.3524    1.0000 </r>
       <r>    3.6607    1.0000 </r>
       <r>    3.7725    1.0000 </r>
       <r>    4.1521    1.0000 </r>
       <r>    4.2556    1.0000 </r>
       <r>    4.5280    1.0000 </r>
       <r>    4.5855    1.0000 </r>
       <r>    5.0970    1.0000 </r>
       <r>    5.3482    1.0000 </r>
       <r>    5.5288    1.0000 </r>
       <r>    5.6617    1.0000 </r>
       <r>    5.7847    1.0000 </r>
       <r>    5.9732    1.0019 </r>
       <r>    6.4263    0.5998 </r>
       <r>    7.8611   -0.0000 </r>
       <r>    8.0238   -0.0000 </r>
       <r>   10.9371   -0.0000 </r>
       <r>   11.4826   -0.0000 </r>
       <r>   13.8815    0.0000 </r>
       <r>   15.1041    0.0000 </r>
       <r>   18.6363    0.0000 </r>
      </set>
      <set comment="kpoint 180">
       <r>    0.0342    1.0000 </r>
       <r>    1.7912    1.0000 </r>
       <r>    2.0888    1.0000 </r>
       <r>    3.1823    1.0000 </r>
       <r>    3.6526    1.0000 </r>
       <r>    3.8718    1.0000 </r>
       <r>    4.0285    1.0000 </r>
       <r>    4.3325    1.0000 </r>
       <r>    4.5516    1.0000 </r>
       <r>    4.5860    1.0000 </r>
       <r>    5.0773    1.0000 </r>
       <r>    5.4027    1.0000 </r>
       <r>    5.4235    1.0000 </r>
       <r>    5.6486    1.0000 </r>
       <r>    5.7633    1.0000 </r>
       <r>    6.2531    1.0235 </r>
       <r>    6.4118    0.6589 </r>
       <r>    7.4006   -0.0000 </r>
       <r>    8.0677   -0.0000 </r>
       <r>   10.8508   -0.0000 </r>
       <r>   12.5638    0.0000 </r>
       <r>   12.6794    0.0000 </r>
       <r>   15.2496    0.0000 </r>
       <r>   18.6354    0.0000 </r>
      </set>
      <set comment="kpoint 181">
       <r>    0.3280    1.0000 </r>
       <r>    1.6389    1.0000 </r>
       <r>    2.0835    1.0000 </r>
       <r>    3.1516    1.0000 </r>
       <r>    3.6661    1.0000 </r>
       <r>    3.8988    1.0000 </r>
       <r>    4.0601    1.0000 </r>
       <r>    4.3706    1.0000 </r>
       <r>    4.5917    1.0000 </r>
       <r>    4.6111    1.0000 </r>
       <r>    5.0187    1.0000 </r>
       <r>    5.3924    1.0000 </r>
       <r>    5.4480    1.0000 </r>
       <r>    5.6496    1.0000 </r>
       <r>    5.7760    1.0000 </r>
       <r>    6.0627    1.0097 </r>
       <r>    6.3634    0.8315 </r>
       <r>    7.4269   -0.0000 </r>
       <r>    7.7979   -0.0000 </r>
       <r>   11.0369   -0.0000 </r>
       <r>   12.0892    0.0000 </r>
       <r>   13.0181    0.0000 </r>
       <r>   14.6867    0.0000 </r>
       <r>   18.8519    0.0000 </r>
      </set>
      <set comment="kpoint 182">
       <r>    0.4667    1.0000 </r>
       <r>    1.5241    1.0000 </r>
       <r>    2.1056    1.0000 </r>
       <r>    3.1428    1.0000 </r>
       <r>    3.6709    1.0000 </r>
       <r>    3.8963    1.0000 </r>
       <r>    4.0884    1.0000 </r>
       <r>    4.3819    1.0000 </r>
       <r>    4.6053    1.0000 </r>
       <r>    4.6220    1.0000 </r>
       <r>    4.9983    1.0000 </r>
       <r>    5.3961    1.0000 </r>
       <r>    5.4641    1.0000 </r>
       <r>    5.6486    1.0000 </r>
       <r>    5.7979    1.0000 </r>
       <r>    5.9486    1.0011 </r>
       <r>    6.3467    0.8794 </r>
       <r>    7.5456   -0.0000 </r>
       <r>    7.6031   -0.0000 </r>
       <r>   11.1968   -0.0000 </r>
       <r>   11.8212   -0.0000 </r>
       <r>   13.2276    0.0000 </r>
       <r>   14.4191    0.0000 </r>
       <r>   18.9374    0.0000 </r>
      </set>
      <set comment="kpoint 183">
       <r>    0.5636    1.0000 </r>
       <r>    1.7933    1.0000 </r>
       <r>    1.9358    1.0000 </r>
       <r>    3.0112    1.0000 </r>
       <r>    3.6715    1.0000 </r>
       <r>    3.9858    1.0000 </r>
       <r>    4.0352    1.0000 </r>
       <r>    4.4496    1.0000 </r>
       <r>    4.6384    1.0000 </r>
       <r>    4.6472    1.0000 </r>
       <r>    4.9514    1.0000 </r>
       <r>    5.4285    1.0000 </r>
       <r>    5.4407    1.0000 </r>
       <r>    5.6339    1.0000 </r>
       <r>    5.7562    1.0000 </r>
       <r>    5.9675    1.0017 </r>
       <r>    6.2919    0.9877 </r>
       <r>    7.3161   -0.0000 </r>
       <r>    7.5213   -0.0000 </r>
       <r>   11.3188   -0.0000 </r>
       <r>   12.4165    0.0000 </r>
       <r>   12.5179    0.0000 </r>
       <r>   14.1262    0.0000 </r>
       <r>   19.0774    0.0000 </r>
      </set>
      <set comment="kpoint 184">
       <r>    0.6661    1.0000 </r>
       <r>    1.7724    1.0000 </r>
       <r>    1.9499    1.0000 </r>
       <r>    2.9522    1.0000 </r>
       <r>    3.6725    1.0000 </r>
       <r>    3.9977    1.0000 </r>
       <r>    4.0507    1.0000 </r>
       <r>    4.4777    1.0000 </r>
       <r>    4.6585    1.0000 </r>
       <r>    4.6597    1.0000 </r>
       <r>    4.9266    1.0000 </r>
       <r>    5.4535    1.0000 </r>
       <r>    5.4536    1.0000 </r>
       <r>    5.6229    1.0000 </r>
       <r>    5.7271    1.0000 </r>
       <r>    5.9112    1.0005 </r>
       <r>    6.2687    1.0126 </r>
       <r>    7.3535   -0.0000 </r>
       <r>    7.3631   -0.0000 </r>
       <r>   11.5199   -0.0000 </r>
       <r>   12.1767    0.0000 </r>
       <r>   12.6718    0.0000 </r>
       <r>   13.8628    0.0000 </r>
       <r>   19.1657    0.0000 </r>
      </set>
      <set comment="kpoint 185">
       <r>    0.7497    1.0000 </r>
       <r>    1.8819    1.0000 </r>
       <r>    1.8819    1.0000 </r>
       <r>    2.8641    1.0000 </r>
       <r>    3.6719    1.0000 </r>
       <r>    4.0384    1.0000 </r>
       <r>    4.0384    1.0000 </r>
       <r>    4.5120    1.0000 </r>
       <r>    4.6776    1.0000 </r>
       <r>    4.6776    1.0000 </r>
       <r>    4.8988    1.0000 </r>
       <r>    5.4884    1.0000 </r>
       <r>    5.4884    1.0000 </r>
       <r>    5.6022    1.0000 </r>
       <r>    5.6456    1.0000 </r>
       <r>    5.8919    1.0003 </r>
       <r>    6.2408    1.0293 </r>
       <r>    7.2904   -0.0000 </r>
       <r>    7.2904   -0.0000 </r>
       <r>   11.7467   -0.0000 </r>
       <r>   12.3678    0.0000 </r>
       <r>   12.3678    0.0000 </r>
       <r>   13.6058    0.0000 </r>
       <r>   19.2549    0.0000 </r>
      </set>
      <set comment="kpoint 186">
       <r>   -1.0420    1.0000 </r>
       <r>    2.0988    1.0000 </r>
       <r>    2.7725    1.0000 </r>
       <r>    2.7725    1.0000 </r>
       <r>    3.4752    1.0000 </r>
       <r>    3.8911    1.0000 </r>
       <r>    3.8911    1.0000 </r>
       <r>    4.2605    1.0000 </r>
       <r>    4.5124    1.0000 </r>
       <r>    4.5125    1.0000 </r>
       <r>    5.3290    1.0000 </r>
       <r>    5.4456    1.0000 </r>
       <r>    5.4456    1.0000 </r>
       <r>    5.6957    1.0000 </r>
       <r>    5.6957    1.0000 </r>
       <r>    6.6209   -0.0025 </r>
       <r>    6.9924   -0.0004 </r>
       <r>    7.8295   -0.0000 </r>
       <r>    7.8295   -0.0000 </r>
       <r>   12.4228    0.0000 </r>
       <r>   12.4370    0.0000 </r>
       <r>   12.4370    0.0000 </r>
       <r>   17.2802    0.0000 </r>
       <r>   18.5429    0.0000 </r>
      </set>
      <set comment="kpoint 187">
       <r>   -0.7094    1.0000 </r>
       <r>    1.9532    1.0000 </r>
       <r>    2.5595    1.0000 </r>
       <r>    2.9928    1.0000 </r>
       <r>    3.5720    1.0000 </r>
       <r>    3.8515    1.0000 </r>
       <r>    3.9489    1.0000 </r>
       <r>    4.2916    1.0000 </r>
       <r>    4.4961    1.0000 </r>
       <r>    4.5035    1.0000 </r>
       <r>    5.2321    1.0000 </r>
       <r>    5.4090    1.0000 </r>
       <r>    5.4612    1.0000 </r>
       <r>    5.6733    1.0000 </r>
       <r>    5.7157    1.0000 </r>
       <r>    6.5980    0.0271 </r>
       <r>    6.7707   -0.0229 </r>
       <r>    7.7873   -0.0000 </r>
       <r>    7.8773   -0.0000 </r>
       <r>   11.7343   -0.0000 </r>
       <r>   11.8382   -0.0000 </r>
       <r>   12.8108    0.0000 </r>
       <r>   16.5448    0.0000 </r>
       <r>   18.7855    0.0000 </r>
      </set>
      <set comment="kpoint 188">
       <r>   -0.3478    1.0000 </r>
       <r>    1.6829    1.0000 </r>
       <r>    2.4319    1.0000 </r>
       <r>    3.2058    1.0000 </r>
       <r>    3.6322    1.0000 </r>
       <r>    3.8035    1.0000 </r>
       <r>    4.0220    1.0000 </r>
       <r>    4.3186    1.0000 </r>
       <r>    4.4803    1.0000 </r>
       <r>    4.5259    1.0000 </r>
       <r>    5.1579    1.0000 </r>
       <r>    5.3684    1.0000 </r>
       <r>    5.4920    1.0000 </r>
       <r>    5.6843    1.0000 </r>
       <r>    5.7170    1.0000 </r>
       <r>    6.4260    0.6011 </r>
       <r>    6.5555    0.1156 </r>
       <r>    7.9187   -0.0000 </r>
       <r>    7.9654   -0.0000 </r>
       <r>   11.1590   -0.0000 </r>
       <r>   11.3928   -0.0000 </r>
       <r>   13.2245    0.0000 </r>
       <r>   15.8660    0.0000 </r>
       <r>   19.0127    0.0000 </r>
      </set>
      <set comment="kpoint 189">
       <r>   -0.0036    1.0000 </r>
       <r>    1.3620    1.0000 </r>
       <r>    2.3783    1.0000 </r>
       <r>    3.3824    1.0000 </r>
       <r>    3.6528    1.0000 </r>
       <r>    3.7453    1.0000 </r>
       <r>    4.1218    1.0000 </r>
       <r>    4.3046    1.0000 </r>
       <r>    4.4688    1.0000 </r>
       <r>    4.5548    1.0000 </r>
       <r>    5.1108    1.0000 </r>
       <r>    5.3472    1.0000 </r>
       <r>    5.5324    1.0000 </r>
       <r>    5.6989    1.0000 </r>
       <r>    5.7410    1.0000 </r>
       <r>    6.1265    1.0222 </r>
       <r>    6.5149    0.2412 </r>
       <r>    7.9470   -0.0000 </r>
       <r>    8.1510   -0.0000 </r>
       <r>   10.7549   -0.0000 </r>
       <r>   11.1185   -0.0000 </r>
       <r>   13.6315    0.0000 </r>
       <r>   15.2985    0.0000 </r>
       <r>   19.1811    0.0000 </r>
      </set>
      <set comment="kpoint 190">
       <r>    0.1716    1.0000 </r>
       <r>    1.1896    1.0000 </r>
       <r>    2.3639    1.0000 </r>
       <r>    3.4649    1.0000 </r>
       <r>    3.6562    1.0000 </r>
       <r>    3.7062    1.0000 </r>
       <r>    4.1955    1.0000 </r>
       <r>    4.2648    1.0000 </r>
       <r>    4.4647    1.0000 </r>
       <r>    4.5664    1.0000 </r>
       <r>    5.0945    1.0000 </r>
       <r>    5.3439    1.0000 </r>
       <r>    5.5565    1.0000 </r>
       <r>    5.6828    1.0000 </r>
       <r>    5.8236    1.0000 </r>
       <r>    5.9552    1.0013 </r>
       <r>    6.4983    0.3026 </r>
       <r>    7.9570   -0.0000 </r>
       <r>    8.2311   -0.0000 </r>
       <r>   10.6035   -0.0000 </r>
       <r>   11.0259   -0.0000 </r>
       <r>   13.8511    0.0000 </r>
       <r>   15.0251    0.0000 </r>
       <r>   19.2445    0.0000 </r>
      </set>
      <set comment="kpoint 191">
       <r>   -0.3994    1.0000 </r>
       <r>    1.9091    1.0000 </r>
       <r>    2.5214    1.0000 </r>
       <r>    2.9716    1.0000 </r>
       <r>    3.6708    1.0000 </r>
       <r>    3.8595    1.0000 </r>
       <r>    3.9507    1.0000 </r>
       <r>    4.3416    1.0000 </r>
       <r>    4.5098    1.0000 </r>
       <r>    4.5148    1.0000 </r>
       <r>    5.1321    1.0000 </r>
       <r>    5.4074    1.0000 </r>
       <r>    5.4343    1.0000 </r>
       <r>    5.6799    1.0000 </r>
       <r>    5.7221    1.0000 </r>
       <r>    6.5856    0.0482 </r>
       <r>    6.7284   -0.0321 </r>
       <r>    7.4982   -0.0000 </r>
       <r>    7.8449   -0.0000 </r>
       <r>   11.2389   -0.0000 </r>
       <r>   12.1417    0.0000 </r>
       <r>   12.1435    0.0000 </r>
       <r>   15.7906    0.0000 </r>
       <r>   19.2460    0.0000 </r>
      </set>
      <set comment="kpoint 192">
       <r>   -0.0702    1.0000 </r>
       <r>    1.7771    1.0000 </r>
       <r>    2.3823    1.0000 </r>
       <r>    3.0954    1.0000 </r>
       <r>    3.7217    1.0000 </r>
       <r>    3.8409    1.0000 </r>
       <r>    4.0049    1.0000 </r>
       <r>    4.3955    1.0000 </r>
       <r>    4.5228    1.0000 </r>
       <r>    4.5456    1.0000 </r>
       <r>    5.0540    1.0000 </r>
       <r>    5.3810    1.0000 </r>
       <r>    5.4467    1.0000 </r>
       <r>    5.6868    1.0000 </r>
       <r>    5.7367    1.0000 </r>
       <r>    6.4569    0.4711 </r>
       <r>    6.5500    0.1301 </r>
       <r>    7.4848   -0.0000 </r>
       <r>    7.8383   -0.0000 </r>
       <r>   10.8660   -0.0000 </r>
       <r>   11.5994   -0.0000 </r>
       <r>   12.5374    0.0000 </r>
       <r>   15.1038    0.0000 </r>
       <r>   19.5220    0.0000 </r>
      </set>
      <set comment="kpoint 193">
       <r>    0.2287    1.0000 </r>
       <r>    1.5743    1.0000 </r>
       <r>    2.2950    1.0000 </r>
       <r>    3.2184    1.0000 </r>
       <r>    3.7416    1.0000 </r>
       <r>    3.8039    1.0000 </r>
       <r>    4.0890    1.0000 </r>
       <r>    4.4206    1.0000 </r>
       <r>    4.5296    1.0000 </r>
       <r>    4.5763    1.0000 </r>
       <r>    5.0038    1.0000 </r>
       <r>    5.3710    1.0000 </r>
       <r>    5.4745    1.0000 </r>
       <r>    5.6933    1.0000 </r>
       <r>    5.7809    1.0000 </r>
       <r>    6.1536    1.0284 </r>
       <r>    6.5089    0.2629 </r>
       <r>    7.5724   -0.0000 </r>
       <r>    7.8174   -0.0000 </r>
       <r>   10.6695   -0.0000 </r>
       <r>   11.2217   -0.0000 </r>
       <r>   12.9363    0.0000 </r>
       <r>   14.5297    0.0000 </r>
       <r>   19.7176    0.0000 </r>
      </set>
      <set comment="kpoint 194">
       <r>    0.3696    1.0000 </r>
       <r>    1.4584    1.0000 </r>
       <r>    2.2701    1.0000 </r>
       <r>    3.2683    1.0000 </r>
       <r>    3.7624    1.0000 </r>
       <r>    3.7704    1.0000 </r>
       <r>    4.1301    1.0000 </r>
       <r>    4.4233    1.0000 </r>
       <r>    4.5315    1.0000 </r>
       <r>    4.5870    1.0000 </r>
       <r>    4.9864    1.0000 </r>
       <r>    5.3739    1.0000 </r>
       <r>    5.4901    1.0000 </r>
       <r>    5.6876    1.0000 </r>
       <r>    5.9091    1.0004 </r>
       <r>    5.9266    1.0007 </r>
       <r>    6.4917    0.3280 </r>
       <r>    7.6219   -0.0000 </r>
       <r>    7.7993   -0.0000 </r>
       <r>   10.6172   -0.0000 </r>
       <r>   11.0780   -0.0000 </r>
       <r>   13.1585    0.0000 </r>
       <r>   14.2492    0.0000 </r>
       <r>   19.7915    0.0000 </r>
      </set>
      <set comment="kpoint 195">
       <r>    0.2133    1.0000 </r>
       <r>    1.8101    1.0000 </r>
       <r>    2.2934    1.0000 </r>
       <r>    3.0469    1.0000 </r>
       <r>    3.7634    1.0000 </r>
       <r>    3.9087    1.0000 </r>
       <r>    3.9896    1.0000 </r>
       <r>    4.4927    1.0000 </r>
       <r>    4.5682    1.0000 </r>
       <r>    4.5717    1.0000 </r>
       <r>    4.9700    1.0000 </r>
       <r>    5.3972    1.0000 </r>
       <r>    5.4142    1.0000 </r>
       <r>    5.6780    1.0000 </r>
       <r>    5.7601    1.0000 </r>
       <r>    6.3601    0.8415 </r>
       <r>    6.5026    0.2862 </r>
       <r>    7.2613   -0.0000 </r>
       <r>    7.6903   -0.0000 </r>
       <r>   10.6995   -0.0000 </r>
       <r>   11.9423    0.0000 </r>
       <r>   11.9646    0.0000 </r>
       <r>   14.4161    0.0000 </r>
       <r>   19.8342    0.0000 </r>
      </set>
      <set comment="kpoint 196">
       <r>    0.4525    1.0000 </r>
       <r>    1.7717    1.0000 </r>
       <r>    2.2094    1.0000 </r>
       <r>    3.0524    1.0000 </r>
       <r>    3.7883    1.0000 </r>
       <r>    3.9061    1.0000 </r>
       <r>    4.0434    1.0000 </r>
       <r>    4.5595    1.0000 </r>
       <r>    4.5919    1.0000 </r>
       <r>    4.6049    1.0000 </r>
       <r>    4.9142    1.0000 </r>
       <r>    5.4037    1.0000 </r>
       <r>    5.4309    1.0000 </r>
       <r>    5.6728    1.0000 </r>
       <r>    5.7954    1.0000 </r>
       <r>    6.1297    1.0230 </r>
       <r>    6.4599    0.4586 </r>
       <r>    7.2639   -0.0000 </r>
       <r>    7.5284   -0.0000 </r>
       <r>   10.7075   -0.0000 </r>
       <r>   11.5043   -0.0000 </r>
       <r>   12.3307    0.0000 </r>
       <r>   13.8430    0.0000 </r>
       <r>   20.0523    0.0000 </r>
      </set>
      <set comment="kpoint 197">
       <r>    0.5548    1.0000 </r>
       <r>    1.7323    1.0000 </r>
       <r>    2.1806    1.0000 </r>
       <r>    3.0619    1.0000 </r>
       <r>    3.8011    1.0000 </r>
       <r>    3.8920    1.0000 </r>
       <r>    4.0766    1.0000 </r>
       <r>    4.5829    1.0000 </r>
       <r>    4.5987    1.0000 </r>
       <r>    4.6161    1.0000 </r>
       <r>    4.8944    1.0000 </r>
       <r>    5.4161    1.0000 </r>
       <r>    5.4433    1.0000 </r>
       <r>    5.6680    1.0000 </r>
       <r>    5.8874    1.0003 </r>
       <r>    5.9380    1.0009 </r>
       <r>    6.4434    0.5284 </r>
       <r>    7.3407   -0.0000 </r>
       <r>    7.4097   -0.0000 </r>
       <r>   10.7672   -0.0000 </r>
       <r>   11.3003   -0.0000 </r>
       <r>   12.5480    0.0000 </r>
       <r>   13.5606    0.0000 </r>
       <r>   20.1349    0.0000 </r>
      </set>
      <set comment="kpoint 198">
       <r>    0.6255    1.0000 </r>
       <r>    1.9181    1.0000 </r>
       <r>    2.1377    1.0000 </r>
       <r>    2.9241    1.0000 </r>
       <r>    3.8131    1.0000 </r>
       <r>    3.9894    1.0000 </r>
       <r>    4.0203    1.0000 </r>
       <r>    4.6302    1.0000 </r>
       <r>    4.6355    1.0000 </r>
       <r>    4.6641    1.0000 </r>
       <r>    4.8511    1.0000 </r>
       <r>    5.4345    1.0000 </r>
       <r>    5.4487    1.0000 </r>
       <r>    5.6441    1.0000 </r>
       <r>    5.7995    1.0000 </r>
       <r>    6.0096    1.0039 </r>
       <r>    6.3989    0.7089 </r>
       <r>    7.1387   -0.0000 </r>
       <r>    7.3042   -0.0000 </r>
       <r>   10.8671   -0.0000 </r>
       <r>   11.8277   -0.0000 </r>
       <r>   11.8566   -0.0000 </r>
       <r>   13.2753    0.0000 </r>
       <r>   20.2826    0.0000 </r>
      </set>
      <set comment="kpoint 199">
       <r>    0.6931    1.0000 </r>
       <r>    1.9715    1.0000 </r>
       <r>    2.1105    1.0000 </r>
       <r>    2.8736    1.0000 </r>
       <r>    3.8215    1.0000 </r>
       <r>    3.9924    1.0000 </r>
       <r>    4.0441    1.0000 </r>
       <r>    4.6475    1.0000 </r>
       <r>    4.6481    1.0000 </r>
       <r>    4.6952    1.0000 </r>
       <r>    4.8272    1.0000 </r>
       <r>    5.4632    1.0000 </r>
       <r>    5.4742    1.0000 </r>
       <r>    5.6256    1.0000 </r>
       <r>    5.8449    1.0001 </r>
       <r>    5.8718    1.0002 </r>
       <r>    6.3774    0.7862 </r>
       <r>    7.1631   -0.0000 </r>
       <r>    7.1744   -0.0000 </r>
       <r>   11.0004   -0.0000 </r>
       <r>   11.6013   -0.0000 </r>
       <r>   12.0462    0.0000 </r>
       <r>   12.9962    0.0000 </r>
       <r>   20.3694    0.0000 </r>
      </set>
      <set comment="kpoint 200">
       <r>    0.7457    1.0000 </r>
       <r>    2.0828    1.0000 </r>
       <r>    2.0828    1.0000 </r>
       <r>    2.7815    1.0000 </r>
       <r>    3.8274    1.0000 </r>
       <r>    4.0335    1.0000 </r>
       <r>    4.0335    1.0000 </r>
       <r>    4.6654    1.0000 </r>
       <r>    4.6654    1.0000 </r>
       <r>    4.7291    1.0000 </r>
       <r>    4.8001    1.0000 </r>
       <r>    5.5226    1.0000 </r>
       <r>    5.5226    1.0000 </r>
       <r>    5.5831    1.0000 </r>
       <r>    5.7826    1.0000 </r>
       <r>    5.8256    1.0000 </r>
       <r>    6.3513    0.8669 </r>
       <r>    7.1040   -0.0000 </r>
       <r>    7.1040   -0.0000 </r>
       <r>   11.1678   -0.0000 </r>
       <r>   11.7903   -0.0000 </r>
       <r>   11.7903   -0.0000 </r>
       <r>   12.7217    0.0000 </r>
       <r>   20.4575    0.0000 </r>
      </set>
      <set comment="kpoint 201">
       <r>   -0.1191    1.0000 </r>
       <r>    1.8689    1.0000 </r>
       <r>    2.7381    1.0000 </r>
       <r>    2.7381    1.0000 </r>
       <r>    3.7761    1.0000 </r>
       <r>    3.9062    1.0000 </r>
       <r>    3.9062    1.0000 </r>
       <r>    4.4389    1.0000 </r>
       <r>    4.5323    1.0000 </r>
       <r>    4.5323    1.0000 </r>
       <r>    5.0334    1.0000 </r>
       <r>    5.4047    1.0000 </r>
       <r>    5.4047    1.0000 </r>
       <r>    5.7074    1.0000 </r>
       <r>    5.7074    1.0000 </r>
       <r>    6.5998    0.0243 </r>
       <r>    6.7609   -0.0252 </r>
       <r>    7.4370   -0.0000 </r>
       <r>    7.4370   -0.0000 </r>
       <r>   11.4191   -0.0000 </r>
       <r>   11.6069   -0.0000 </r>
       <r>   11.6069   -0.0000 </r>
       <r>   15.0283    0.0000 </r>
       <r>   20.3035    0.0000 </r>
      </set>
      <set comment="kpoint 202">
       <r>    0.1672    1.0000 </r>
       <r>    1.8158    1.0000 </r>
       <r>    2.5043    1.0000 </r>
       <r>    2.9353    1.0000 </r>
       <r>    3.8259    1.0000 </r>
       <r>    3.8757    1.0000 </r>
       <r>    3.9823    1.0000 </r>
       <r>    4.5366    1.0000 </r>
       <r>    4.5497    1.0000 </r>
       <r>    4.5666    1.0000 </r>
       <r>    4.9559    1.0000 </r>
       <r>    5.3802    1.0000 </r>
       <r>    5.4121    1.0000 </r>
       <r>    5.7149    1.0000 </r>
       <r>    5.7160    1.0000 </r>
       <r>    6.5281    0.1962 </r>
       <r>    6.5774    0.0644 </r>
       <r>    7.3685   -0.0000 </r>
       <r>    7.3878   -0.0000 </r>
       <r>   10.9501   -0.0000 </r>
       <r>   11.2235   -0.0000 </r>
       <r>   11.9134    0.0000 </r>
       <r>   14.3402    0.0000 </r>
       <r>   20.5393    0.0000 </r>
      </set>
      <set comment="kpoint 203">
       <r>    0.4087    1.0000 </r>
       <r>    1.7467    1.0000 </r>
       <r>    2.3292    1.0000 </r>
       <r>    3.0763    1.0000 </r>
       <r>    3.8340    1.0000 </r>
       <r>    3.8596    1.0000 </r>
       <r>    4.0671    1.0000 </r>
       <r>    4.5612    1.0000 </r>
       <r>    4.5847    1.0000 </r>
       <r>    4.6062    1.0000 </r>
       <r>    4.9052    1.0000 </r>
       <r>    5.3824    1.0000 </r>
       <r>    5.4277    1.0000 </r>
       <r>    5.7066    1.0000 </r>
       <r>    5.7718    1.0000 </r>
       <r>    6.2104    1.0353 </r>
       <r>    6.5415    0.1544 </r>
       <r>    7.3589   -0.0000 </r>
       <r>    7.4433   -0.0000 </r>
       <r>   10.6059   -0.0000 </r>
       <r>   10.9956   -0.0000 </r>
       <r>   12.2907    0.0000 </r>
       <r>   13.7640    0.0000 </r>
       <r>   20.7117    0.0000 </r>
      </set>
      <set comment="kpoint 204">
       <r>    0.5117    1.0000 </r>
       <r>    1.7052    1.0000 </r>
       <r>    2.2663    1.0000 </r>
       <r>    3.1278    1.0000 </r>
       <r>    3.8343    1.0000 </r>
       <r>    3.8551    1.0000 </r>
       <r>    4.1034    1.0000 </r>
       <r>    4.5655    1.0000 </r>
       <r>    4.5946    1.0000 </r>
       <r>    4.6220    1.0000 </r>
       <r>    4.8872    1.0000 </r>
       <r>    5.3915    1.0000 </r>
       <r>    5.4370    1.0000 </r>
       <r>    5.6981    1.0000 </r>
       <r>    5.8703    1.0002 </r>
       <r>    6.0083    1.0038 </r>
       <r>    6.5247    0.2075 </r>
       <r>    7.3499   -0.0000 </r>
       <r>    7.4824   -0.0000 </r>
       <r>   10.4828   -0.0000 </r>
       <r>   10.9203   -0.0000 </r>
       <r>   12.5133    0.0000 </r>
       <r>   13.4757    0.0000 </r>
       <r>   20.7759    0.0000 </r>
      </set>
      <set comment="kpoint 205">
       <r>    0.3940    1.0000 </r>
       <r>    1.8558    1.0000 </r>
       <r>    2.5028    1.0000 </r>
       <r>    2.8767    1.0000 </r>
       <r>    3.8762    1.0000 </r>
       <r>    3.9495    1.0000 </r>
       <r>    3.9749    1.0000 </r>
       <r>    4.5818    1.0000 </r>
       <r>    4.5903    1.0000 </r>
       <r>    4.6812    1.0000 </r>
       <r>    4.8774    1.0000 </r>
       <r>    5.3833    1.0000 </r>
       <r>    5.3878    1.0000 </r>
       <r>    5.6973    1.0000 </r>
       <r>    5.7288    1.0000 </r>
       <r>    6.4550    0.4793 </r>
       <r>    6.5645    0.0930 </r>
       <r>    7.1081   -0.0000 </r>
       <r>    7.2810   -0.0000 </r>
       <r>   10.7200   -0.0000 </r>
       <r>   11.3804   -0.0000 </r>
       <r>   11.4577   -0.0000 </r>
       <r>   13.6576    0.0000 </r>
       <r>   21.0225    0.0000 </r>
      </set>
      <set comment="kpoint 206">
       <r>    0.5663    1.0000 </r>
       <r>    1.9119    1.0000 </r>
       <r>    2.3602    1.0000 </r>
       <r>    2.9327    1.0000 </r>
       <r>    3.9059    1.0000 </r>
       <r>    3.9470    1.0000 </r>
       <r>    4.0481    1.0000 </r>
       <r>    4.6013    1.0000 </r>
       <r>    4.6118    1.0000 </r>
       <r>    4.7776    1.0000 </r>
       <r>    4.8243    1.0000 </r>
       <r>    5.3921    1.0000 </r>
       <r>    5.3997    1.0000 </r>
       <r>    5.6860    1.0000 </r>
       <r>    5.7542    1.0000 </r>
       <r>    6.2163    1.0349 </r>
       <r>    6.5309    0.1872 </r>
       <r>    7.0786   -0.0000 </r>
       <r>    7.2046   -0.0000 </r>
       <r>   10.5500   -0.0000 </r>
       <r>   11.0922   -0.0000 </r>
       <r>   11.7521   -0.0000 </r>
       <r>   13.0880    0.0000 </r>
       <r>   21.2479    0.0000 </r>
      </set>
      <set comment="kpoint 207">
       <r>    0.6324    1.0000 </r>
       <r>    1.9539    1.0000 </r>
       <r>    2.2718    1.0000 </r>
       <r>    2.9635    1.0000 </r>
       <r>    3.9293    1.0000 </r>
       <r>    3.9315    1.0000 </r>
       <r>    4.0828    1.0000 </r>
       <r>    4.6093    1.0000 </r>
       <r>    4.6173    1.0000 </r>
       <r>    4.8049    1.0000 </r>
       <r>    4.8068    1.0000 </r>
       <r>    5.3985    1.0000 </r>
       <r>    5.4172    1.0000 </r>
       <r>    5.6782    1.0000 </r>
       <r>    5.8090    1.0000 </r>
       <r>    6.0544    1.0086 </r>
       <r>    6.5145    0.2427 </r>
       <r>    7.1092   -0.0000 </r>
       <r>    7.1606   -0.0000 </r>
       <r>   10.4980   -0.0000 </r>
       <r>   10.9764   -0.0000 </r>
       <r>   11.9637    0.0000 </r>
       <r>   12.7984    0.0000 </r>
       <r>   21.3262    0.0000 </r>
      </set>
      <set comment="kpoint 208">
       <r>    0.6747    1.0000 </r>
       <r>    2.0681    1.0000 </r>
       <r>    2.3418    1.0000 </r>
       <r>    2.8321    1.0000 </r>
       <r>    3.9569    1.0000 </r>
       <r>    4.0276    1.0000 </r>
       <r>    4.0392    1.0000 </r>
       <r>    4.6297    1.0000 </r>
       <r>    4.6346    1.0000 </r>
       <r>    4.7670    1.0000 </r>
       <r>    4.8909    1.0000 </r>
       <r>    5.4123    1.0000 </r>
       <r>    5.4301    1.0000 </r>
       <r>    5.6448    1.0000 </r>
       <r>    5.7459    1.0000 </r>
       <r>    6.1130    1.0192 </r>
       <r>    6.4871    0.3463 </r>
       <r>    6.9416   -0.0014 </r>
       <r>    7.0478   -0.0001 </r>
       <r>   10.5680   -0.0000 </r>
       <r>   11.3243   -0.0000 </r>
       <r>   11.3746   -0.0000 </r>
       <r>   12.5299    0.0000 </r>
       <r>   21.5128    0.0000 </r>
      </set>
      <set comment="kpoint 209">
       <r>    0.7132    1.0000 </r>
       <r>    2.1744    1.0000 </r>
       <r>    2.2808    1.0000 </r>
       <r>    2.8005    1.0000 </r>
       <r>    3.9788    1.0000 </r>
       <r>    4.0257    1.0000 </r>
       <r>    4.0711    1.0000 </r>
       <r>    4.6412    1.0000 </r>
       <r>    4.6433    1.0000 </r>
       <r>    4.7446    1.0000 </r>
       <r>    4.9190    1.0000 </r>
       <r>    5.4386    1.0000 </r>
       <r>    5.4624    1.0000 </r>
       <r>    5.6223    1.0000 </r>
       <r>    5.7600    1.0000 </r>
       <r>    6.0069    1.0037 </r>
       <r>    6.4675    0.4268 </r>
       <r>    6.9528   -0.0011 </r>
       <r>    6.9572   -0.0010 </r>
       <r>   10.6106   -0.0000 </r>
       <r>   11.1773   -0.0000 </r>
       <r>   11.5394   -0.0000 </r>
       <r>   12.2442    0.0000 </r>
       <r>   21.6033    0.0000 </r>
      </set>
      <set comment="kpoint 210">
       <r>    0.7416    1.0000 </r>
       <r>    2.2851    1.0000 </r>
       <r>    2.2851    1.0000 </r>
       <r>    2.7105    1.0000 </r>
       <r>    3.9970    1.0000 </r>
       <r>    4.0670    1.0000 </r>
       <r>    4.0670    1.0000 </r>
       <r>    4.6556    1.0000 </r>
       <r>    4.6556    1.0000 </r>
       <r>    4.7188    1.0000 </r>
       <r>    4.9400    1.0000 </r>
       <r>    5.5108    1.0000 </r>
       <r>    5.5108    1.0000 </r>
       <r>    5.5653    1.0000 </r>
       <r>    5.7423    1.0000 </r>
       <r>    5.9308    1.0007 </r>
       <r>    6.4437    0.5272 </r>
       <r>    6.9002   -0.0033 </r>
       <r>    6.9002   -0.0033 </r>
       <r>   10.6995   -0.0000 </r>
       <r>   11.3479   -0.0000 </r>
       <r>   11.3479   -0.0000 </r>
       <r>   11.9590    0.0000 </r>
       <r>   21.6975    0.0000 </r>
      </set>
      <set comment="kpoint 211">
       <r>    0.5498    1.0000 </r>
       <r>    1.9400    1.0000 </r>
       <r>    2.6856    1.0000 </r>
       <r>    2.6856    1.0000 </r>
       <r>    3.9786    1.0000 </r>
       <r>    3.9893    1.0000 </r>
       <r>    3.9893    1.0000 </r>
       <r>    4.6075    1.0000 </r>
       <r>    4.6075    1.0000 </r>
       <r>    4.8034    1.0000 </r>
       <r>    4.8659    1.0000 </r>
       <r>    5.3664    1.0000 </r>
       <r>    5.3664    1.0000 </r>
       <r>    5.6954    1.0000 </r>
       <r>    5.6954    1.0000 </r>
       <r>    6.4452    0.5207 </r>
       <r>    6.5840    0.0513 </r>
       <r>    6.9815   -0.0006 </r>
       <r>    6.9815   -0.0006 </r>
       <r>   10.6932   -0.0000 </r>
       <r>   11.1185   -0.0000 </r>
       <r>   11.1185   -0.0000 </r>
       <r>   12.9885    0.0000 </r>
       <r>   22.0983    0.0000 </r>
      </set>
      <set comment="kpoint 212">
       <r>    0.6543    1.0000 </r>
       <r>    2.0651    1.0000 </r>
       <r>    2.4908    1.0000 </r>
       <r>    2.8091    1.0000 </r>
       <r>    4.0045    1.0000 </r>
       <r>    4.0219    1.0000 </r>
       <r>    4.0732    1.0000 </r>
       <r>    4.6219    1.0000 </r>
       <r>    4.6226    1.0000 </r>
       <r>    4.7526    1.0000 </r>
       <r>    4.9874    1.0000 </r>
       <r>    5.3513    1.0000 </r>
       <r>    5.3873    1.0000 </r>
       <r>    5.6763    1.0000 </r>
       <r>    5.6917    1.0000 </r>
       <r>    6.2565    1.0215 </r>
       <r>    6.5644    0.0932 </r>
       <r>    6.9060   -0.0029 </r>
       <r>    6.9174   -0.0023 </r>
       <r>   10.4675   -0.0000 </r>
       <r>   10.9208   -0.0000 </r>
       <r>   11.3097   -0.0000 </r>
       <r>   12.4352    0.0000 </r>
       <r>   22.2775    0.0000 </r>
      </set>
      <set comment="kpoint 213">
       <r>    0.6908    1.0000 </r>
       <r>    2.1688    1.0000 </r>
       <r>    2.3633    1.0000 </r>
       <r>    2.8523    1.0000 </r>
       <r>    4.0121    1.0000 </r>
       <r>    4.0401    1.0000 </r>
       <r>    4.1096    1.0000 </r>
       <r>    4.6244    1.0000 </r>
       <r>    4.6284    1.0000 </r>
       <r>    4.7333    1.0000 </r>
       <r>    5.0207    1.0000 </r>
       <r>    5.3447    1.0000 </r>
       <r>    5.4143    1.0000 </r>
       <r>    5.6644    1.0000 </r>
       <r>    5.7185    1.0000 </r>
       <r>    6.1240    1.0217 </r>
       <r>    6.5490    0.1330 </r>
       <r>    6.9020   -0.0032 </r>
       <r>    6.9076   -0.0028 </r>
       <r>   10.3706   -0.0000 </r>
       <r>   10.8562   -0.0000 </r>
       <r>   11.4944   -0.0000 </r>
       <r>   12.1481    0.0000 </r>
       <r>   22.3438    0.0000 </r>
      </set>
      <set comment="kpoint 214">
       <r>    0.7083    1.0000 </r>
       <r>    2.2276    1.0000 </r>
       <r>    2.5169    1.0000 </r>
       <r>    2.7359    1.0000 </r>
       <r>    4.0797    1.0000 </r>
       <r>    4.1004    1.0000 </r>
       <r>    4.1063    1.0000 </r>
       <r>    4.6345    1.0000 </r>
       <r>    4.6345    1.0000 </r>
       <r>    4.7023    1.0000 </r>
       <r>    5.1087    1.0000 </r>
       <r>    5.3624    1.0000 </r>
       <r>    5.3860    1.0000 </r>
       <r>    5.6244    1.0000 </r>
       <r>    5.6660    1.0000 </r>
       <r>    6.1913    1.0348 </r>
       <r>    6.5499    0.1304 </r>
       <r>    6.7661   -0.0240 </r>
       <r>    6.8088   -0.0147 </r>
       <r>   10.3818   -0.0000 </r>
       <r>   10.9781   -0.0000 </r>
       <r>   11.0616   -0.0000 </r>
       <r>   11.9072   -0.0000 </r>
       <r>   22.7277    0.0000 </r>
      </set>
      <set comment="kpoint 215">
       <r>    0.7263    1.0000 </r>
       <r>    2.3555    1.0000 </r>
       <r>    2.4322    1.0000 </r>
       <r>    2.7347    1.0000 </r>
       <r>    4.1054    1.0000 </r>
       <r>    4.1215    1.0000 </r>
       <r>    4.1425    1.0000 </r>
       <r>    4.6351    1.0000 </r>
       <r>    4.6417    1.0000 </r>
       <r>    4.6819    1.0000 </r>
       <r>    5.1220    1.0000 </r>
       <r>    5.3709    1.0000 </r>
       <r>    5.4224    1.0000 </r>
       <r>    5.6014    1.0000 </r>
       <r>    5.6632    1.0000 </r>
       <r>    6.1166    1.0200 </r>
       <r>    6.5332    0.1798 </r>
       <r>    6.7545   -0.0267 </r>
       <r>    6.7668   -0.0238 </r>
       <r>   10.3453   -0.0000 </r>
       <r>   10.9165   -0.0000 </r>
       <r>   11.1684   -0.0000 </r>
       <r>   11.6310   -0.0000 </r>
       <r>   22.8319    0.0000 </r>
      </set>
      <set comment="kpoint 216">
       <r>    0.7381    1.0000 </r>
       <r>    2.4578    1.0000 </r>
       <r>    2.4578    1.0000 </r>
       <r>    2.6565    1.0000 </r>
       <r>    4.1505    1.0000 </r>
       <r>    4.1505    1.0000 </r>
       <r>    4.1610    1.0000 </r>
       <r>    4.6442    1.0000 </r>
       <r>    4.6442    1.0000 </r>
       <r>    4.6584    1.0000 </r>
       <r>    5.1145    1.0000 </r>
       <r>    5.4377    1.0000 </r>
       <r>    5.4377    1.0000 </r>
       <r>    5.5508    1.0000 </r>
       <r>    5.6503    1.0000 </r>
       <r>    6.0788    1.0123 </r>
       <r>    6.5131    0.2477 </r>
       <r>    6.7216   -0.0332 </r>
       <r>    6.7216   -0.0332 </r>
       <r>   10.3543   -0.0000 </r>
       <r>   11.0436   -0.0000 </r>
       <r>   11.0436   -0.0000 </r>
       <r>   11.3529   -0.0000 </r>
       <r>   22.9541    0.0000 </r>
      </set>
      <set comment="kpoint 217">
       <r>    0.7274    1.0000 </r>
       <r>    2.3790    1.0000 </r>
       <r>    2.6331    1.0000 </r>
       <r>    2.6331    1.0000 </r>
       <r>    4.1785    1.0000 </r>
       <r>    4.1862    1.0000 </r>
       <r>    4.1862    1.0000 </r>
       <r>    4.6341    1.0000 </r>
       <r>    4.6341    1.0000 </r>
       <r>    4.6583    1.0000 </r>
       <r>    5.2601    1.0000 </r>
       <r>    5.3220    1.0000 </r>
       <r>    5.3220    1.0000 </r>
       <r>    5.5968    1.0000 </r>
       <r>    5.5968    1.0000 </r>
       <r>    6.2009    1.0354 </r>
       <r>    6.5740    0.0715 </r>
       <r>    6.6643   -0.0310 </r>
       <r>    6.6643   -0.0310 </r>
       <r>   10.2493   -0.0000 </r>
       <r>   10.8809   -0.0000 </r>
       <r>   10.8809   -0.0000 </r>
       <r>   11.4288   -0.0000 </r>
       <r>   23.8051    0.0000 </r>
      </set>
      <set comment="kpoint 218">
       <r>    0.7335    1.0000 </r>
       <r>    2.4945    1.0000 </r>
       <r>    2.5356    1.0000 </r>
       <r>    2.6732    1.0000 </r>
       <r>    4.2112    1.0000 </r>
       <r>    4.2321    1.0000 </r>
       <r>    4.2322    1.0000 </r>
       <r>    4.6282    1.0000 </r>
       <r>    4.6348    1.0000 </r>
       <r>    4.6400    1.0000 </r>
       <r>    5.2612    1.0000 </r>
       <r>    5.2859    1.0000 </r>
       <r>    5.3605    1.0000 </r>
       <r>    5.5710    1.0000 </r>
       <r>    5.5852    1.0000 </r>
       <r>    6.1811    1.0336 </r>
       <r>    6.5650    0.0917 </r>
       <r>    6.6277   -0.0093 </r>
       <r>    6.6472   -0.0236 </r>
       <r>   10.1925   -0.0000 </r>
       <r>   10.8221   -0.0000 </r>
       <r>   10.9435   -0.0000 </r>
       <r>   11.1835   -0.0000 </r>
       <r>   23.8803    0.0000 </r>
      </set>
      <set comment="kpoint 219">
       <r>    0.7358    1.0000 </r>
       <r>    2.5719    1.0000 </r>
       <r>    2.5719    1.0000 </r>
       <r>    2.6227    1.0000 </r>
       <r>    4.2684    1.0000 </r>
       <r>    4.2684    1.0000 </r>
       <r>    4.2879    1.0000 </r>
       <r>    4.6213    1.0000 </r>
       <r>    4.6255    1.0000 </r>
       <r>    4.6255    1.0000 </r>
       <r>    5.2272    1.0000 </r>
       <r>    5.3259    1.0000 </r>
       <r>    5.3259    1.0000 </r>
       <r>    5.5414    1.0000 </r>
       <r>    5.5710    1.0000 </r>
       <r>    6.1978    1.0353 </r>
       <r>    6.5561    0.1140 </r>
       <r>    6.6078    0.0129 </r>
       <r>    6.6078    0.0129 </r>
       <r>   10.1427   -0.0000 </r>
       <r>   10.8684   -0.0000 </r>
       <r>   10.8684   -0.0000 </r>
       <r>   10.9529   -0.0000 </r>
       <r>   24.1572    0.0000 </r>
      </set>
      <set comment="kpoint 220">
       <r>    0.7349    1.0000 </r>
       <r>    2.6113    1.0000 </r>
       <r>    2.6113    1.0000 </r>
       <r>    2.6113    1.0000 </r>
       <r>    4.3375    1.0000 </r>
       <r>    4.3375    1.0000 </r>
       <r>    4.3375    1.0000 </r>
       <r>    4.6088    1.0000 </r>
       <r>    4.6088    1.0000 </r>
       <r>    4.6088    1.0000 </r>
       <r>    5.2657    1.0000 </r>
       <r>    5.2657    1.0000 </r>
       <r>    5.2657    1.0000 </r>
       <r>    5.5381    1.0000 </r>
       <r>    5.5381    1.0000 </r>
       <r>    6.2450    1.0276 </r>
       <r>    6.5706    0.0789 </r>
       <r>    6.5706    0.0789 </r>
       <r>    6.5706    0.0789 </r>
       <r>   10.0713   -0.0000 </r>
       <r>   10.8115   -0.0000 </r>
       <r>   10.8115   -0.0000 </r>
       <r>   10.8115   -0.0000 </r>
       <r>   24.8640    0.0000 </r>
      </set>
     </set>
    </set>
   </array>
  </eigenvalues>
  <separator name="orbital magnetization" >
   <v name="MAGDIPOLOUT">      0.00000000      0.00000000      0.00000000</v>
  </separator>
  <dos>
   <i name="efermi">      6.45010949 </i>
   <total>
    <array>
     <dimension dim="1">gridpoints</dimension>
     <dimension dim="2">spin</dimension>
     <field>energy</field>
     <field>total</field>
     <field>integrated</field>
     <set>
      <set comment="spin 1">
       <r>    -5.6900     0.0000     0.0000 </r>
       <r>    -5.6737     0.0000     0.0000 </r>
       <r>    -5.6574     0.0000     0.0000 </r>
       <r>    -5.6411     0.0000     0.0000 </r>
       <r>    -5.6248     0.0000     0.0000 </r>
       <r>    -5.6085     0.0000     0.0000 </r>
       <r>    -5.5922     0.0000     0.0000 </r>
       <r>    -5.5758     0.0000     0.0000 </r>
       <r>    -5.5595     0.0000     0.0000 </r>
       <r>    -5.5432     0.0000     0.0000 </r>
       <r>    -5.5269     0.0000     0.0000 </r>
       <r>    -5.5106     0.0000     0.0000 </r>
       <r>    -5.4943     0.0000     0.0000 </r>
       <r>    -5.4780     0.0000     0.0000 </r>
       <r>    -5.4617     0.0000     0.0000 </r>
       <r>    -5.4454     0.0000     0.0000 </r>
       <r>    -5.4291     0.0000     0.0000 </r>
       <r>    -5.4128     0.0000     0.0000 </r>
       <r>    -5.3965     0.0000     0.0000 </r>
       <r>    -5.3802     0.0000     0.0000 </r>
       <r>    -5.3639     0.0000     0.0000 </r>
       <r>    -5.3476     0.0000     0.0000 </r>
       <r>    -5.3313     0.0000     0.0000 </r>
       <r>    -5.3150     0.0000     0.0000 </r>
       <r>    -5.2987     0.0000     0.0000 </r>
       <r>    -5.2824     0.0000     0.0000 </r>
       <r>    -5.2661    -0.0000    -0.0000 </r>
       <r>    -5.2498    -0.0000    -0.0000 </r>
       <r>    -5.2335    -0.0000    -0.0000 </r>
       <r>    -5.2172    -0.0000    -0.0000 </r>
       <r>    -5.2009    -0.0000    -0.0000 </r>
       <r>    -5.1846    -0.0000    -0.0000 </r>
       <r>    -5.1682    -0.0000    -0.0000 </r>
       <r>    -5.1519    -0.0000    -0.0000 </r>
       <r>    -5.1356    -0.0000    -0.0000 </r>
       <r>    -5.1193    -0.0000    -0.0000 </r>
       <r>    -5.1030    -0.0000    -0.0000 </r>
       <r>    -5.0867    -0.0000    -0.0000 </r>
       <r>    -5.0704    -0.0000    -0.0000 </r>
       <r>    -5.0541    -0.0000    -0.0000 </r>
       <r>    -5.0378    -0.0000    -0.0000 </r>
       <r>    -5.0215    -0.0000    -0.0000 </r>
       <r>    -5.0052    -0.0000    -0.0000 </r>
       <r>    -4.9889    -0.0000    -0.0000 </r>
       <r>    -4.9726    -0.0000    -0.0000 </r>
       <r>    -4.9563    -0.0000    -0.0000 </r>
       <r>    -4.9400    -0.0000    -0.0000 </r>
       <r>    -4.9237    -0.0000    -0.0000 </r>
       <r>    -4.9074    -0.0000    -0.0000 </r>
       <r>    -4.8911    -0.0000    -0.0000 </r>
       <r>    -4.8748    -0.0000    -0.0000 </r>
       <r>    -4.8585    -0.0000    -0.0000 </r>
       <r>    -4.8422    -0.0000    -0.0000 </r>
       <r>    -4.8259    -0.0000    -0.0000 </r>
       <r>    -4.8096    -0.0000    -0.0000 </r>
       <r>    -4.7933    -0.0000    -0.0000 </r>
       <r>    -4.7770    -0.0000    -0.0000 </r>
       <r>    -4.7606    -0.0000    -0.0000 </r>
       <r>    -4.7443    -0.0000    -0.0000 </r>
       <r>    -4.7280    -0.0000    -0.0000 </r>
       <r>    -4.7117    -0.0000    -0.0000 </r>
       <r>    -4.6954    -0.0000    -0.0000 </r>
       <r>    -4.6791    -0.0000    -0.0000 </r>
       <r>    -4.6628    -0.0000    -0.0000 </r>
       <r>    -4.6465    -0.0000    -0.0000 </r>
       <r>    -4.6302    -0.0000    -0.0000 </r>
       <r>    -4.6139    -0.0000    -0.0000 </r>
       <r>    -4.5976    -0.0000    -0.0000 </r>
       <r>    -4.5813    -0.0000    -0.0000 </r>
       <r>    -4.5650    -0.0000    -0.0000 </r>
       <r>    -4.5487    -0.0000    -0.0000 </r>
       <r>    -4.5324    -0.0000    -0.0000 </r>
       <r>    -4.5161    -0.0000    -0.0000 </r>
       <r>    -4.4998    -0.0000    -0.0000 </r>
       <r>    -4.4835    -0.0000    -0.0000 </r>
       <r>    -4.4672    -0.0000    -0.0000 </r>
       <r>    -4.4509    -0.0000    -0.0000 </r>
       <r>    -4.4346    -0.0000    -0.0000 </r>
       <r>    -4.4183    -0.0000    -0.0000 </r>
       <r>    -4.4020    -0.0000    -0.0000 </r>
       <r>    -4.3857    -0.0000    -0.0000 </r>
       <r>    -4.3694    -0.0000    -0.0000 </r>
       <r>    -4.3530    -0.0000    -0.0000 </r>
       <r>    -4.3367    -0.0000    -0.0000 </r>
       <r>    -4.3204    -0.0000    -0.0000 </r>
       <r>    -4.3041    -0.0000    -0.0000 </r>
       <r>    -4.2878    -0.0000    -0.0000 </r>
       <r>    -4.2715    -0.0000    -0.0000 </r>
       <r>    -4.2552    -0.0000    -0.0000 </r>
       <r>    -4.2389    -0.0000    -0.0000 </r>
       <r>    -4.2226    -0.0000    -0.0000 </r>
       <r>    -4.2063    -0.0000    -0.0000 </r>
       <r>    -4.1900    -0.0000    -0.0000 </r>
       <r>    -4.1737    -0.0000    -0.0000 </r>
       <r>    -4.1574    -0.0000    -0.0000 </r>
       <r>    -4.1411    -0.0000    -0.0000 </r>
       <r>    -4.1248    -0.0001    -0.0000 </r>
       <r>    -4.1085    -0.0001    -0.0000 </r>
       <r>    -4.0922    -0.0001    -0.0000 </r>
       <r>    -4.0759    -0.0002    -0.0000 </r>
       <r>    -4.0596    -0.0002    -0.0000 </r>
       <r>    -4.0433    -0.0003    -0.0000 </r>
       <r>    -4.0270    -0.0004    -0.0000 </r>
       <r>    -4.0107    -0.0005    -0.0000 </r>
       <r>    -3.9944    -0.0006    -0.0000 </r>
       <r>    -3.9781    -0.0007    -0.0001 </r>
       <r>    -3.9618    -0.0009    -0.0001 </r>
       <r>    -3.9454    -0.0011    -0.0001 </r>
       <r>    -3.9291    -0.0013    -0.0001 </r>
       <r>    -3.9128    -0.0014    -0.0001 </r>
       <r>    -3.8965    -0.0016    -0.0002 </r>
       <r>    -3.8802    -0.0017    -0.0002 </r>
       <r>    -3.8639    -0.0018    -0.0002 </r>
       <r>    -3.8476    -0.0018    -0.0002 </r>
       <r>    -3.8313    -0.0016    -0.0003 </r>
       <r>    -3.8150    -0.0013    -0.0003 </r>
       <r>    -3.7987    -0.0009    -0.0003 </r>
       <r>    -3.7824    -0.0001    -0.0003 </r>
       <r>    -3.7661     0.0008    -0.0003 </r>
       <r>    -3.7498     0.0021    -0.0003 </r>
       <r>    -3.7335     0.0037    -0.0002 </r>
       <r>    -3.7172     0.0056    -0.0001 </r>
       <r>    -3.7009     0.0079     0.0000 </r>
       <r>    -3.6846     0.0105     0.0002 </r>
       <r>    -3.6683     0.0134     0.0004 </r>
       <r>    -3.6520     0.0167     0.0007 </r>
       <r>    -3.6357     0.0201     0.0010 </r>
       <r>    -3.6194     0.0238     0.0014 </r>
       <r>    -3.6031     0.0277     0.0019 </r>
       <r>    -3.5868     0.0317     0.0024 </r>
       <r>    -3.5705     0.0357     0.0030 </r>
       <r>    -3.5541     0.0397     0.0036 </r>
       <r>    -3.5378     0.0437     0.0043 </r>
       <r>    -3.5215     0.0476     0.0051 </r>
       <r>    -3.5052     0.0514     0.0059 </r>
       <r>    -3.4889     0.0550     0.0068 </r>
       <r>    -3.4726     0.0585     0.0078 </r>
       <r>    -3.4563     0.0619     0.0088 </r>
       <r>    -3.4400     0.0651     0.0098 </r>
       <r>    -3.4237     0.0681     0.0110 </r>
       <r>    -3.4074     0.0710     0.0121 </r>
       <r>    -3.3911     0.0739     0.0133 </r>
       <r>    -3.3748     0.0766     0.0146 </r>
       <r>    -3.3585     0.0791     0.0159 </r>
       <r>    -3.3422     0.0816     0.0172 </r>
       <r>    -3.3259     0.0840     0.0186 </r>
       <r>    -3.3096     0.0862     0.0200 </r>
       <r>    -3.2933     0.0883     0.0214 </r>
       <r>    -3.2770     0.0903     0.0229 </r>
       <r>    -3.2607     0.0921     0.0244 </r>
       <r>    -3.2444     0.0938     0.0259 </r>
       <r>    -3.2281     0.0954     0.0275 </r>
       <r>    -3.2118     0.0970     0.0290 </r>
       <r>    -3.1955     0.0985     0.0307 </r>
       <r>    -3.1792     0.1000     0.0323 </r>
       <r>    -3.1629     0.1015     0.0339 </r>
       <r>    -3.1465     0.1032     0.0356 </r>
       <r>    -3.1302     0.1050     0.0373 </r>
       <r>    -3.1139     0.1070     0.0391 </r>
       <r>    -3.0976     0.1091     0.0409 </r>
       <r>    -3.0813     0.1114     0.0427 </r>
       <r>    -3.0650     0.1138     0.0445 </r>
       <r>    -3.0487     0.1163     0.0464 </r>
       <r>    -3.0324     0.1187     0.0484 </r>
       <r>    -3.0161     0.1210     0.0503 </r>
       <r>    -2.9998     0.1231     0.0523 </r>
       <r>    -2.9835     0.1249     0.0544 </r>
       <r>    -2.9672     0.1264     0.0564 </r>
       <r>    -2.9509     0.1276     0.0585 </r>
       <r>    -2.9346     0.1284     0.0606 </r>
       <r>    -2.9183     0.1290     0.0627 </r>
       <r>    -2.9020     0.1293     0.0648 </r>
       <r>    -2.8857     0.1295     0.0669 </r>
       <r>    -2.8694     0.1298     0.0690 </r>
       <r>    -2.8531     0.1301     0.0712 </r>
       <r>    -2.8368     0.1308     0.0733 </r>
       <r>    -2.8205     0.1318     0.0754 </r>
       <r>    -2.8042     0.1333     0.0776 </r>
       <r>    -2.7879     0.1352     0.0798 </r>
       <r>    -2.7716     0.1376     0.0821 </r>
       <r>    -2.7553     0.1405     0.0844 </r>
       <r>    -2.7389     0.1436     0.0867 </r>
       <r>    -2.7226     0.1469     0.0891 </r>
       <r>    -2.7063     0.1502     0.0915 </r>
       <r>    -2.6900     0.1534     0.0940 </r>
       <r>    -2.6737     0.1562     0.0966 </r>
       <r>    -2.6574     0.1587     0.0992 </r>
       <r>    -2.6411     0.1606     0.1018 </r>
       <r>    -2.6248     0.1619     0.1044 </r>
       <r>    -2.6085     0.1627     0.1071 </r>
       <r>    -2.5922     0.1630     0.1097 </r>
       <r>    -2.5759     0.1629     0.1124 </r>
       <r>    -2.5596     0.1625     0.1151 </r>
       <r>    -2.5433     0.1619     0.1177 </r>
       <r>    -2.5270     0.1614     0.1203 </r>
       <r>    -2.5107     0.1610     0.1230 </r>
       <r>    -2.4944     0.1609     0.1256 </r>
       <r>    -2.4781     0.1612     0.1282 </r>
       <r>    -2.4618     0.1619     0.1308 </r>
       <r>    -2.4455     0.1629     0.1335 </r>
       <r>    -2.4292     0.1644     0.1362 </r>
       <r>    -2.4129     0.1662     0.1389 </r>
       <r>    -2.3966     0.1684     0.1416 </r>
       <r>    -2.3803     0.1707     0.1444 </r>
       <r>    -2.3640     0.1732     0.1472 </r>
       <r>    -2.3477     0.1758     0.1501 </r>
       <r>    -2.3313     0.1784     0.1530 </r>
       <r>    -2.3150     0.1811     0.1560 </r>
       <r>    -2.2987     0.1838     0.1590 </r>
       <r>    -2.2824     0.1865     0.1620 </r>
       <r>    -2.2661     0.1893     0.1651 </r>
       <r>    -2.2498     0.1920     0.1682 </r>
       <r>    -2.2335     0.1946     0.1714 </r>
       <r>    -2.2172     0.1971     0.1746 </r>
       <r>    -2.2009     0.1995     0.1779 </r>
       <r>    -2.1846     0.2015     0.1811 </r>
       <r>    -2.1683     0.2032     0.1845 </r>
       <r>    -2.1520     0.2045     0.1878 </r>
       <r>    -2.1357     0.2052     0.1911 </r>
       <r>    -2.1194     0.2053     0.1945 </r>
       <r>    -2.1031     0.2048     0.1978 </r>
       <r>    -2.0868     0.2038     0.2011 </r>
       <r>    -2.0705     0.2023     0.2044 </r>
       <r>    -2.0542     0.2004     0.2077 </r>
       <r>    -2.0379     0.1984     0.2109 </r>
       <r>    -2.0216     0.1965     0.2142 </r>
       <r>    -2.0053     0.1950     0.2173 </r>
       <r>    -1.9890     0.1939     0.2205 </r>
       <r>    -1.9727     0.1936     0.2236 </r>
       <r>    -1.9564     0.1943     0.2268 </r>
       <r>    -1.9400     0.1960     0.2300 </r>
       <r>    -1.9237     0.1988     0.2333 </r>
       <r>    -1.9074     0.2026     0.2366 </r>
       <r>    -1.8911     0.2074     0.2399 </r>
       <r>    -1.8748     0.2130     0.2434 </r>
       <r>    -1.8585     0.2190     0.2470 </r>
       <r>    -1.8422     0.2253     0.2507 </r>
       <r>    -1.8259     0.2316     0.2544 </r>
       <r>    -1.8096     0.2374     0.2583 </r>
       <r>    -1.7933     0.2425     0.2623 </r>
       <r>    -1.7770     0.2467     0.2663 </r>
       <r>    -1.7607     0.2498     0.2703 </r>
       <r>    -1.7444     0.2517     0.2745 </r>
       <r>    -1.7281     0.2523     0.2786 </r>
       <r>    -1.7118     0.2518     0.2827 </r>
       <r>    -1.6955     0.2502     0.2867 </r>
       <r>    -1.6792     0.2478     0.2908 </r>
       <r>    -1.6629     0.2448     0.2948 </r>
       <r>    -1.6466     0.2415     0.2987 </r>
       <r>    -1.6303     0.2381     0.3026 </r>
       <r>    -1.6140     0.2350     0.3064 </r>
       <r>    -1.5977     0.2325     0.3102 </r>
       <r>    -1.5814     0.2307     0.3140 </r>
       <r>    -1.5651     0.2298     0.3177 </r>
       <r>    -1.5488     0.2300     0.3215 </r>
       <r>    -1.5324     0.2313     0.3253 </r>
       <r>    -1.5161     0.2336     0.3291 </r>
       <r>    -1.4998     0.2370     0.3329 </r>
       <r>    -1.4835     0.2413     0.3369 </r>
       <r>    -1.4672     0.2464     0.3409 </r>
       <r>    -1.4509     0.2520     0.3450 </r>
       <r>    -1.4346     0.2581     0.3492 </r>
       <r>    -1.4183     0.2642     0.3535 </r>
       <r>    -1.4020     0.2703     0.3579 </r>
       <r>    -1.3857     0.2761     0.3624 </r>
       <r>    -1.3694     0.2813     0.3670 </r>
       <r>    -1.3531     0.2859     0.3717 </r>
       <r>    -1.3368     0.2897     0.3764 </r>
       <r>    -1.3205     0.2927     0.3812 </r>
       <r>    -1.3042     0.2947     0.3860 </r>
       <r>    -1.2879     0.2960     0.3908 </r>
       <r>    -1.2716     0.2966     0.3956 </r>
       <r>    -1.2553     0.2967     0.4005 </r>
       <r>    -1.2390     0.2966     0.4053 </r>
       <r>    -1.2227     0.2965     0.4101 </r>
       <r>    -1.2064     0.2967     0.4150 </r>
       <r>    -1.1901     0.2974     0.4198 </r>
       <r>    -1.1738     0.2989     0.4247 </r>
       <r>    -1.1575     0.3011     0.4296 </r>
       <r>    -1.1412     0.3043     0.4346 </r>
       <r>    -1.1248     0.3082     0.4396 </r>
       <r>    -1.1085     0.3129     0.4447 </r>
       <r>    -1.0922     0.3180     0.4499 </r>
       <r>    -1.0759     0.3234     0.4551 </r>
       <r>    -1.0596     0.3286     0.4605 </r>
       <r>    -1.0433     0.3334     0.4659 </r>
       <r>    -1.0270     0.3375     0.4714 </r>
       <r>    -1.0107     0.3405     0.4770 </r>
       <r>    -0.9944     0.3424     0.4826 </r>
       <r>    -0.9781     0.3430     0.4882 </r>
       <r>    -0.9618     0.3423     0.4937 </r>
       <r>    -0.9455     0.3403     0.4993 </r>
       <r>    -0.9292     0.3373     0.5048 </r>
       <r>    -0.9129     0.3333     0.5102 </r>
       <r>    -0.8966     0.3287     0.5156 </r>
       <r>    -0.8803     0.3239     0.5209 </r>
       <r>    -0.8640     0.3190     0.5261 </r>
       <r>    -0.8477     0.3145     0.5312 </r>
       <r>    -0.8314     0.3106     0.5363 </r>
       <r>    -0.8151     0.3076     0.5413 </r>
       <r>    -0.7988     0.3056     0.5463 </r>
       <r>    -0.7825     0.3048     0.5512 </r>
       <r>    -0.7662     0.3051     0.5562 </r>
       <r>    -0.7499     0.3065     0.5612 </r>
       <r>    -0.7336     0.3089     0.5662 </r>
       <r>    -0.7172     0.3119     0.5713 </r>
       <r>    -0.7009     0.3153     0.5765 </r>
       <r>    -0.6846     0.3187     0.5817 </r>
       <r>    -0.6683     0.3217     0.5869 </r>
       <r>    -0.6520     0.3239     0.5922 </r>
       <r>    -0.6357     0.3250     0.5975 </r>
       <r>    -0.6194     0.3248     0.6028 </r>
       <r>    -0.6031     0.3231     0.6080 </r>
       <r>    -0.5868     0.3200     0.6133 </r>
       <r>    -0.5705     0.3156     0.6184 </r>
       <r>    -0.5542     0.3101     0.6235 </r>
       <r>    -0.5379     0.3039     0.6284 </r>
       <r>    -0.5216     0.2976     0.6333 </r>
       <r>    -0.5053     0.2915     0.6380 </r>
       <r>    -0.4890     0.2862     0.6427 </r>
       <r>    -0.4727     0.2821     0.6473 </r>
       <r>    -0.4564     0.2796     0.6518 </r>
       <r>    -0.4401     0.2788     0.6564 </r>
       <r>    -0.4238     0.2800     0.6610 </r>
       <r>    -0.4075     0.2830     0.6656 </r>
       <r>    -0.3912     0.2875     0.6703 </r>
       <r>    -0.3749     0.2934     0.6750 </r>
       <r>    -0.3586     0.3000     0.6799 </r>
       <r>    -0.3423     0.3070     0.6849 </r>
       <r>    -0.3259     0.3137     0.6901 </r>
       <r>    -0.3096     0.3199     0.6953 </r>
       <r>    -0.2933     0.3250     0.7006 </r>
       <r>    -0.2770     0.3288     0.7059 </r>
       <r>    -0.2607     0.3312     0.7113 </r>
       <r>    -0.2444     0.3321     0.7167 </r>
       <r>    -0.2281     0.3317     0.7222 </r>
       <r>    -0.2118     0.3302     0.7275 </r>
       <r>    -0.1955     0.3280     0.7329 </r>
       <r>    -0.1792     0.3255     0.7382 </r>
       <r>    -0.1629     0.3232     0.7435 </r>
       <r>    -0.1466     0.3214     0.7487 </r>
       <r>    -0.1303     0.3206     0.7539 </r>
       <r>    -0.1140     0.3211     0.7592 </r>
       <r>    -0.0977     0.3230     0.7644 </r>
       <r>    -0.0814     0.3264     0.7698 </r>
       <r>    -0.0651     0.3313     0.7752 </r>
       <r>    -0.0488     0.3376     0.7807 </r>
       <r>    -0.0325     0.3449     0.7863 </r>
       <r>    -0.0162     0.3531     0.7920 </r>
       <r>     0.0001     0.3617     0.7979 </r>
       <r>     0.0164     0.3705     0.8040 </r>
       <r>     0.0327     0.3790     0.8102 </r>
       <r>     0.0490     0.3871     0.8165 </r>
       <r>     0.0653     0.3944     0.8229 </r>
       <r>     0.0817     0.4008     0.8294 </r>
       <r>     0.0980     0.4063     0.8361 </r>
       <r>     0.1143     0.4106     0.8427 </r>
       <r>     0.1306     0.4140     0.8495 </r>
       <r>     0.1469     0.4164     0.8563 </r>
       <r>     0.1632     0.4179     0.8631 </r>
       <r>     0.1795     0.4186     0.8699 </r>
       <r>     0.1958     0.4187     0.8767 </r>
       <r>     0.2121     0.4182     0.8836 </r>
       <r>     0.2284     0.4174     0.8904 </r>
       <r>     0.2447     0.4164     0.8972 </r>
       <r>     0.2610     0.4154     0.9039 </r>
       <r>     0.2773     0.4145     0.9107 </r>
       <r>     0.2936     0.4139     0.9174 </r>
       <r>     0.3099     0.4139     0.9242 </r>
       <r>     0.3262     0.4146     0.9309 </r>
       <r>     0.3425     0.4163     0.9377 </r>
       <r>     0.3588     0.4192     0.9446 </r>
       <r>     0.3751     0.4235     0.9515 </r>
       <r>     0.3914     0.4294     0.9585 </r>
       <r>     0.4077     0.4369     0.9656 </r>
       <r>     0.4240     0.4460     0.9729 </r>
       <r>     0.4403     0.4568     0.9803 </r>
       <r>     0.4566     0.4692     0.9880 </r>
       <r>     0.4729     0.4827     0.9958 </r>
       <r>     0.4893     0.4973     1.0039 </r>
       <r>     0.5056     0.5124     1.0123 </r>
       <r>     0.5219     0.5275     1.0209 </r>
       <r>     0.5382     0.5422     1.0297 </r>
       <r>     0.5545     0.5558     1.0388 </r>
       <r>     0.5708     0.5677     1.0481 </r>
       <r>     0.5871     0.5774     1.0575 </r>
       <r>     0.6034     0.5844     1.0670 </r>
       <r>     0.6197     0.5883     1.0766 </r>
       <r>     0.6360     0.5887     1.0862 </r>
       <r>     0.6523     0.5853     1.0957 </r>
       <r>     0.6686     0.5782     1.1052 </r>
       <r>     0.6849     0.5675     1.1144 </r>
       <r>     0.7012     0.5533     1.1234 </r>
       <r>     0.7175     0.5360     1.1322 </r>
       <r>     0.7338     0.5161     1.1406 </r>
       <r>     0.7501     0.4943     1.1486 </r>
       <r>     0.7664     0.4711     1.1563 </r>
       <r>     0.7827     0.4473     1.1636 </r>
       <r>     0.7990     0.4236     1.1705 </r>
       <r>     0.8153     0.4007     1.1771 </r>
       <r>     0.8316     0.3792     1.1832 </r>
       <r>     0.8479     0.3598     1.1891 </r>
       <r>     0.8642     0.3430     1.1947 </r>
       <r>     0.8805     0.3290     1.2001 </r>
       <r>     0.8969     0.3181     1.2052 </r>
       <r>     0.9132     0.3105     1.2103 </r>
       <r>     0.9295     0.3062     1.2153 </r>
       <r>     0.9458     0.3049     1.2203 </r>
       <r>     0.9621     0.3066     1.2253 </r>
       <r>     0.9784     0.3108     1.2303 </r>
       <r>     0.9947     0.3174     1.2355 </r>
       <r>     1.0110     0.3258     1.2408 </r>
       <r>     1.0273     0.3358     1.2463 </r>
       <r>     1.0436     0.3469     1.2520 </r>
       <r>     1.0599     0.3588     1.2578 </r>
       <r>     1.0762     0.3713     1.2639 </r>
       <r>     1.0925     0.3840     1.2701 </r>
       <r>     1.1088     0.3968     1.2766 </r>
       <r>     1.1251     0.4096     1.2833 </r>
       <r>     1.1414     0.4222     1.2902 </r>
       <r>     1.1577     0.4345     1.2972 </r>
       <r>     1.1740     0.4466     1.3045 </r>
       <r>     1.1903     0.4584     1.3120 </r>
       <r>     1.2066     0.4699     1.3197 </r>
       <r>     1.2229     0.4811     1.3275 </r>
       <r>     1.2392     0.4919     1.3355 </r>
       <r>     1.2555     0.5025     1.3437 </r>
       <r>     1.2718     0.5127     1.3521 </r>
       <r>     1.2881     0.5228     1.3606 </r>
       <r>     1.3045     0.5326     1.3693 </r>
       <r>     1.3208     0.5423     1.3781 </r>
       <r>     1.3371     0.5520     1.3871 </r>
       <r>     1.3534     0.5619     1.3963 </r>
       <r>     1.3697     0.5721     1.4056 </r>
       <r>     1.3860     0.5828     1.4151 </r>
       <r>     1.4023     0.5943     1.4248 </r>
       <r>     1.4186     0.6067     1.4347 </r>
       <r>     1.4349     0.6203     1.4448 </r>
       <r>     1.4512     0.6351     1.4552 </r>
       <r>     1.4675     0.6514     1.4658 </r>
       <r>     1.4838     0.6690     1.4767 </r>
       <r>     1.5001     0.6881     1.4879 </r>
       <r>     1.5164     0.7085     1.4995 </r>
       <r>     1.5327     0.7299     1.5114 </r>
       <r>     1.5490     0.7522     1.5236 </r>
       <r>     1.5653     0.7749     1.5363 </r>
       <r>     1.5816     0.7977     1.5493 </r>
       <r>     1.5979     0.8200     1.5626 </r>
       <r>     1.6142     0.8414     1.5763 </r>
       <r>     1.6305     0.8614     1.5904 </r>
       <r>     1.6468     0.8797     1.6047 </r>
       <r>     1.6631     0.8959     1.6193 </r>
       <r>     1.6794     0.9096     1.6342 </r>
       <r>     1.6958     0.9208     1.6492 </r>
       <r>     1.7121     0.9293     1.6643 </r>
       <r>     1.7284     0.9354     1.6796 </r>
       <r>     1.7447     0.9392     1.6949 </r>
       <r>     1.7610     0.9410     1.7102 </r>
       <r>     1.7773     0.9413     1.7256 </r>
       <r>     1.7936     0.9406     1.7409 </r>
       <r>     1.8099     0.9394     1.7562 </r>
       <r>     1.8262     0.9385     1.7715 </r>
       <r>     1.8425     0.9384     1.7868 </r>
       <r>     1.8588     0.9399     1.8022 </r>
       <r>     1.8751     0.9435     1.8175 </r>
       <r>     1.8914     0.9499     1.8330 </r>
       <r>     1.9077     0.9596     1.8487 </r>
       <r>     1.9240     0.9730     1.8645 </r>
       <r>     1.9403     0.9905     1.8807 </r>
       <r>     1.9566     1.0121     1.8972 </r>
       <r>     1.9729     1.0378     1.9141 </r>
       <r>     1.9892     1.0672     1.9315 </r>
       <r>     2.0055     1.0999     1.9494 </r>
       <r>     2.0218     1.1350     1.9680 </r>
       <r>     2.0381     1.1715     1.9871 </r>
       <r>     2.0544     1.2081     2.0068 </r>
       <r>     2.0707     1.2435     2.0270 </r>
       <r>     2.0870     1.2762     2.0478 </r>
       <r>     2.1034     1.3048     2.0691 </r>
       <r>     2.1197     1.3280     2.0908 </r>
       <r>     2.1360     1.3448     2.1127 </r>
       <r>     2.1523     1.3545     2.1348 </r>
       <r>     2.1686     1.3566     2.1569 </r>
       <r>     2.1849     1.3514     2.1789 </r>
       <r>     2.2012     1.3393     2.2008 </r>
       <r>     2.2175     1.3213     2.2223 </r>
       <r>     2.2338     1.2990     2.2435 </r>
       <r>     2.2501     1.2739     2.2642 </r>
       <r>     2.2664     1.2481     2.2846 </r>
       <r>     2.2827     1.2236     2.3045 </r>
       <r>     2.2990     1.2024     2.3241 </r>
       <r>     2.3153     1.1863     2.3435 </r>
       <r>     2.3316     1.1768     2.3627 </r>
       <r>     2.3479     1.1750     2.3818 </r>
       <r>     2.3642     1.1814     2.4011 </r>
       <r>     2.3805     1.1961     2.4206 </r>
       <r>     2.3968     1.2185     2.4405 </r>
       <r>     2.4131     1.2477     2.4608 </r>
       <r>     2.4294     1.2820     2.4817 </r>
       <r>     2.4457     1.3196     2.5032 </r>
       <r>     2.4620     1.3583     2.5254 </r>
       <r>     2.4783     1.3961     2.5481 </r>
       <r>     2.4946     1.4306     2.5715 </r>
       <r>     2.5110     1.4601     2.5953 </r>
       <r>     2.5273     1.4830     2.6194 </r>
       <r>     2.5436     1.4980     2.6439 </r>
       <r>     2.5599     1.5045     2.6684 </r>
       <r>     2.5762     1.5024     2.6929 </r>
       <r>     2.5925     1.4919     2.7172 </r>
       <r>     2.6088     1.4738     2.7412 </r>
       <r>     2.6251     1.4491     2.7649 </r>
       <r>     2.6414     1.4194     2.7880 </r>
       <r>     2.6577     1.3860     2.8106 </r>
       <r>     2.6740     1.3506     2.8326 </r>
       <r>     2.6903     1.3148     2.8541 </r>
       <r>     2.7066     1.2801     2.8749 </r>
       <r>     2.7229     1.2481     2.8953 </r>
       <r>     2.7392     1.2201     2.9152 </r>
       <r>     2.7555     1.1977     2.9347 </r>
       <r>     2.7718     1.1822     2.9540 </r>
       <r>     2.7881     1.1752     2.9731 </r>
       <r>     2.8044     1.1784     2.9923 </r>
       <r>     2.8207     1.1936     3.0118 </r>
       <r>     2.8370     1.2229     3.0317 </r>
       <r>     2.8533     1.2684     3.0524 </r>
       <r>     2.8696     1.3321     3.0741 </r>
       <r>     2.8859     1.4161     3.0972 </r>
       <r>     2.9022     1.5222     3.1220 </r>
       <r>     2.9186     1.6516     3.1490 </r>
       <r>     2.9349     1.8051     3.1784 </r>
       <r>     2.9512     1.9825     3.2107 </r>
       <r>     2.9675     2.1827     3.2463 </r>
       <r>     2.9838     2.4039     3.2855 </r>
       <r>     3.0001     2.6430     3.3286 </r>
       <r>     3.0164     2.8960     3.3758 </r>
       <r>     3.0327     3.1580     3.4273 </r>
       <r>     3.0490     3.4237     3.4831 </r>
       <r>     3.0653     3.6871     3.5432 </r>
       <r>     3.0816     3.9421     3.6075 </r>
       <r>     3.0979     4.1827     3.6757 </r>
       <r>     3.1142     4.4033     3.7475 </r>
       <r>     3.1305     4.5988     3.8225 </r>
       <r>     3.1468     4.7649     3.9002 </r>
       <r>     3.1631     4.8983     3.9800 </r>
       <r>     3.1794     4.9970     4.0615 </r>
       <r>     3.1957     5.0599     4.1440 </r>
       <r>     3.2120     5.0874     4.2269 </r>
       <r>     3.2283     5.0809     4.3098 </r>
       <r>     3.2446     5.0430     4.3920 </r>
       <r>     3.2609     4.9774     4.4731 </r>
       <r>     3.2772     4.8885     4.5528 </r>
       <r>     3.2935     4.7813     4.6308 </r>
       <r>     3.3099     4.6613     4.7068 </r>
       <r>     3.3262     4.5341     4.7807 </r>
       <r>     3.3425     4.4051     4.8525 </r>
       <r>     3.3588     4.2794     4.9223 </r>
       <r>     3.3751     4.1615     4.9902 </r>
       <r>     3.3914     4.0548     5.0563 </r>
       <r>     3.4077     3.9622     5.1209 </r>
       <r>     3.4240     3.8854     5.1842 </r>
       <r>     3.4403     3.8250     5.2466 </r>
       <r>     3.4566     3.7808     5.3082 </r>
       <r>     3.4729     3.7518     5.3694 </r>
       <r>     3.4892     3.7360     5.4303 </r>
       <r>     3.5055     3.7313     5.4911 </r>
       <r>     3.5218     3.7351     5.5520 </r>
       <r>     3.5381     3.7448     5.6131 </r>
       <r>     3.5544     3.7579     5.6744 </r>
       <r>     3.5707     3.7722     5.7359 </r>
       <r>     3.5870     3.7857     5.7976 </r>
       <r>     3.6033     3.7971     5.8595 </r>
       <r>     3.6196     3.8054     5.9215 </r>
       <r>     3.6359     3.8098     5.9837 </r>
       <r>     3.6522     3.8102     6.0458 </r>
       <r>     3.6685     3.8065     6.1078 </r>
       <r>     3.6848     3.7987     6.1698 </r>
       <r>     3.7011     3.7870     6.2315 </r>
       <r>     3.7175     3.7714     6.2930 </r>
       <r>     3.7338     3.7520     6.3542 </r>
       <r>     3.7501     3.7286     6.4150 </r>
       <r>     3.7664     3.7010     6.4753 </r>
       <r>     3.7827     3.6688     6.5351 </r>
       <r>     3.7990     3.6315     6.5943 </r>
       <r>     3.8153     3.5890     6.6529 </r>
       <r>     3.8316     3.5411     6.7106 </r>
       <r>     3.8479     3.4879     6.7675 </r>
       <r>     3.8642     3.4299     6.8234 </r>
       <r>     3.8805     3.3680     6.8783 </r>
       <r>     3.8968     3.3035     6.9321 </r>
       <r>     3.9131     3.2384     6.9849 </r>
       <r>     3.9294     3.1752     7.0367 </r>
       <r>     3.9457     3.1166     7.0875 </r>
       <r>     3.9620     3.0662     7.1375 </r>
       <r>     3.9783     3.0273     7.1869 </r>
       <r>     3.9946     3.0039     7.2359 </r>
       <r>     4.0109     2.9994     7.2848 </r>
       <r>     4.0272     3.0172     7.3339 </r>
       <r>     4.0435     3.0600     7.3838 </r>
       <r>     4.0598     3.1299     7.4349 </r>
       <r>     4.0761     3.2275     7.4875 </r>
       <r>     4.0924     3.3524     7.5421 </r>
       <r>     4.1087     3.5029     7.5993 </r>
       <r>     4.1251     3.6756     7.6592 </r>
       <r>     4.1414     3.8656     7.7222 </r>
       <r>     4.1577     4.0667     7.7885 </r>
       <r>     4.1740     4.2718     7.8582 </r>
       <r>     4.1903     4.4728     7.9311 </r>
       <r>     4.2066     4.6613     8.0071 </r>
       <r>     4.2229     4.8289     8.0858 </r>
       <r>     4.2392     4.9679     8.1668 </r>
       <r>     4.2555     5.0716     8.2495 </r>
       <r>     4.2718     5.1348     8.3332 </r>
       <r>     4.2881     5.1540     8.4172 </r>
       <r>     4.3044     5.1277     8.5009 </r>
       <r>     4.3207     5.0565     8.5833 </r>
       <r>     4.3370     4.9431     8.6639 </r>
       <r>     4.3533     4.7919     8.7420 </r>
       <r>     4.3696     4.6089     8.8172 </r>
       <r>     4.3859     4.4013     8.8889 </r>
       <r>     4.4022     4.1769     8.9570 </r>
       <r>     4.4185     3.9437     9.0213 </r>
       <r>     4.4348     3.7093     9.0818 </r>
       <r>     4.4511     3.4809     9.1385 </r>
       <r>     4.4674     3.2646     9.1918 </r>
       <r>     4.4837     3.0650     9.2417 </r>
       <r>     4.5000     2.8856     9.2888 </r>
       <r>     4.5163     2.7284     9.3333 </r>
       <r>     4.5327     2.5939     9.3756 </r>
       <r>     4.5490     2.4816     9.4160 </r>
       <r>     4.5653     2.3900     9.4550 </r>
       <r>     4.5816     2.3168     9.4928 </r>
       <r>     4.5979     2.2594     9.5296 </r>
       <r>     4.6142     2.2148     9.5657 </r>
       <r>     4.6305     2.1805     9.6013 </r>
       <r>     4.6468     2.1540     9.6364 </r>
       <r>     4.6631     2.1333     9.6712 </r>
       <r>     4.6794     2.1171     9.7057 </r>
       <r>     4.6957     2.1047     9.7400 </r>
       <r>     4.7120     2.0958     9.7742 </r>
       <r>     4.7283     2.0911     9.8083 </r>
       <r>     4.7446     2.0913     9.8424 </r>
       <r>     4.7609     2.0979     9.8766 </r>
       <r>     4.7772     2.1124     9.9110 </r>
       <r>     4.7935     2.1364     9.9458 </r>
       <r>     4.8098     2.1715     9.9812 </r>
       <r>     4.8261     2.2191    10.0174 </r>
       <r>     4.8424     2.2804    10.0546 </r>
       <r>     4.8587     2.3562    10.0930 </r>
       <r>     4.8750     2.4469    10.1329 </r>
       <r>     4.8913     2.5526    10.1745 </r>
       <r>     4.9076     2.6731    10.2181 </r>
       <r>     4.9239     2.8080    10.2639 </r>
       <r>     4.9403     2.9565    10.3121 </r>
       <r>     4.9566     3.1181    10.3629 </r>
       <r>     4.9729     3.2922    10.4166 </r>
       <r>     4.9892     3.4782    10.4733 </r>
       <r>     5.0055     3.6759    10.5332 </r>
       <r>     5.0218     3.8851    10.5966 </r>
       <r>     5.0381     4.1055    10.6635 </r>
       <r>     5.0544     4.3369    10.7342 </r>
       <r>     5.0707     4.5789    10.8089 </r>
       <r>     5.0870     4.8305    10.8876 </r>
       <r>     5.1033     5.0904    10.9706 </r>
       <r>     5.1196     5.3563    11.0580 </r>
       <r>     5.1359     5.6252    11.1497 </r>
       <r>     5.1522     5.8935    11.2458 </r>
       <r>     5.1685     6.1567    11.3461 </r>
       <r>     5.1848     6.4097    11.4506 </r>
       <r>     5.2011     6.6473    11.5590 </r>
       <r>     5.2174     6.8643    11.6709 </r>
       <r>     5.2337     7.0555    11.7860 </r>
       <r>     5.2500     7.2165    11.9036 </r>
       <r>     5.2663     7.3438    12.0234 </r>
       <r>     5.2826     7.4347    12.1446 </r>
       <r>     5.2989     7.4879    12.2667 </r>
       <r>     5.3152     7.5029    12.3890 </r>
       <r>     5.3316     7.4807    12.5110 </r>
       <r>     5.3479     7.4229    12.6320 </r>
       <r>     5.3642     7.3323    12.7515 </r>
       <r>     5.3805     7.2121    12.8691 </r>
       <r>     5.3968     7.0659    12.9843 </r>
       <r>     5.4131     6.8977    13.0968 </r>
       <r>     5.4294     6.7114    13.2062 </r>
       <r>     5.4457     6.5112    13.3124 </r>
       <r>     5.4620     6.3011    13.4151 </r>
       <r>     5.4783     6.0850    13.5143 </r>
       <r>     5.4946     5.8666    13.6100 </r>
       <r>     5.5109     5.6497    13.7021 </r>
       <r>     5.5272     5.4378    13.7907 </r>
       <r>     5.5435     5.2342    13.8761 </r>
       <r>     5.5598     5.0421    13.9583 </r>
       <r>     5.5761     4.8644    14.0376 </r>
       <r>     5.5924     4.7036    14.1143 </r>
       <r>     5.6087     4.5617    14.1886 </r>
       <r>     5.6250     4.4402    14.2610 </r>
       <r>     5.6413     4.3397    14.3318 </r>
       <r>     5.6576     4.2604    14.4013 </r>
       <r>     5.6739     4.2014    14.4698 </r>
       <r>     5.6902     4.1610    14.5376 </r>
       <r>     5.7065     4.1369    14.6050 </r>
       <r>     5.7228     4.1258    14.6723 </r>
       <r>     5.7392     4.1242    14.7396 </r>
       <r>     5.7555     4.1281    14.8069 </r>
       <r>     5.7718     4.1335    14.8742 </r>
       <r>     5.7881     4.1365    14.9417 </r>
       <r>     5.8044     4.1338    15.0091 </r>
       <r>     5.8207     4.1226    15.0763 </r>
       <r>     5.8370     4.1010    15.1432 </r>
       <r>     5.8533     4.0682    15.2095 </r>
       <r>     5.8696     4.0244    15.2751 </r>
       <r>     5.8859     3.9707    15.3398 </r>
       <r>     5.9022     3.9092    15.4036 </r>
       <r>     5.9185     3.8426    15.4662 </r>
       <r>     5.9348     3.7739    15.5278 </r>
       <r>     5.9511     3.7064    15.5882 </r>
       <r>     5.9674     3.6430    15.6476 </r>
       <r>     5.9837     3.5859    15.7061 </r>
       <r>     6.0000     3.5370    15.7637 </r>
       <r>     6.0163     3.4967    15.8207 </r>
       <r>     6.0326     3.4648    15.8772 </r>
       <r>     6.0489     3.4399    15.9333 </r>
       <r>     6.0652     3.4198    15.9891 </r>
       <r>     6.0815     3.4013    16.0445 </r>
       <r>     6.0978     3.3811    16.0996 </r>
       <r>     6.1141     3.3555    16.1543 </r>
       <r>     6.1304     3.3208    16.2085 </r>
       <r>     6.1468     3.2739    16.2619 </r>
       <r>     6.1631     3.2121    16.3142 </r>
       <r>     6.1794     3.1335    16.3653 </r>
       <r>     6.1957     3.0372    16.4148 </r>
       <r>     6.2120     2.9231    16.4625 </r>
       <r>     6.2283     2.7921    16.5080 </r>
       <r>     6.2446     2.6459    16.5512 </r>
       <r>     6.2609     2.4868    16.5917 </r>
       <r>     6.2772     2.3179    16.6295 </r>
       <r>     6.2935     2.1422    16.6644 </r>
       <r>     6.3098     1.9634    16.6964 </r>
       <r>     6.3261     1.7847    16.7255 </r>
       <r>     6.3424     1.6095    16.7518 </r>
       <r>     6.3587     1.4407    16.7753 </r>
       <r>     6.3750     1.2810    16.7961 </r>
       <r>     6.3913     1.1326    16.8146 </r>
       <r>     6.4076     0.9970    16.8309 </r>
       <r>     6.4239     0.8755    16.8451 </r>
       <r>     6.4402     0.7686    16.8577 </r>
       <r>     6.4565     0.6765    16.8687 </r>
       <r>     6.4728     0.5989    16.8785 </r>
       <r>     6.4891     0.5352    16.8872 </r>
       <r>     6.5054     0.4843    16.8951 </r>
       <r>     6.5217     0.4450    16.9023 </r>
       <r>     6.5380     0.4158    16.9091 </r>
       <r>     6.5544     0.3954    16.9156 </r>
       <r>     6.5707     0.3821    16.9218 </r>
       <r>     6.5870     0.3745    16.9279 </r>
       <r>     6.6033     0.3711    16.9340 </r>
       <r>     6.6196     0.3709    16.9400 </r>
       <r>     6.6359     0.3725    16.9461 </r>
       <r>     6.6522     0.3753    16.9522 </r>
       <r>     6.6685     0.3784    16.9584 </r>
       <r>     6.6848     0.3813    16.9646 </r>
       <r>     6.7011     0.3836    16.9708 </r>
       <r>     6.7174     0.3852    16.9771 </r>
       <r>     6.7337     0.3860    16.9834 </r>
       <r>     6.7500     0.3859    16.9897 </r>
       <r>     6.7663     0.3850    16.9960 </r>
       <r>     6.7826     0.3834    17.0022 </r>
       <r>     6.7989     0.3814    17.0084 </r>
       <r>     6.8152     0.3792    17.0146 </r>
       <r>     6.8315     0.3768    17.0208 </r>
       <r>     6.8478     0.3745    17.0269 </r>
       <r>     6.8641     0.3725    17.0330 </r>
       <r>     6.8804     0.3710    17.0390 </r>
       <r>     6.8967     0.3699    17.0450 </r>
       <r>     6.9130     0.3696    17.0511 </r>
       <r>     6.9293     0.3700    17.0571 </r>
       <r>     6.9457     0.3712    17.0631 </r>
       <r>     6.9620     0.3732    17.0692 </r>
       <r>     6.9783     0.3760    17.0754 </r>
       <r>     6.9946     0.3798    17.0815 </r>
       <r>     7.0109     0.3846    17.0878 </r>
       <r>     7.0272     0.3905    17.0942 </r>
       <r>     7.0435     0.3976    17.1007 </r>
       <r>     7.0598     0.4063    17.1073 </r>
       <r>     7.0761     0.4168    17.1141 </r>
       <r>     7.0924     0.4293    17.1211 </r>
       <r>     7.1087     0.4442    17.1283 </r>
       <r>     7.1250     0.4617    17.1359 </r>
       <r>     7.1413     0.4821    17.1437 </r>
       <r>     7.1576     0.5054    17.1520 </r>
       <r>     7.1739     0.5317    17.1606 </r>
       <r>     7.1902     0.5608    17.1698 </r>
       <r>     7.2065     0.5923    17.1794 </r>
       <r>     7.2228     0.6256    17.1896 </r>
       <r>     7.2391     0.6602    17.2004 </r>
       <r>     7.2554     0.6952    17.2117 </r>
       <r>     7.2717     0.7297    17.2236 </r>
       <r>     7.2880     0.7630    17.2361 </r>
       <r>     7.3043     0.7941    17.2490 </r>
       <r>     7.3206     0.8225    17.2624 </r>
       <r>     7.3369     0.8476    17.2762 </r>
       <r>     7.3533     0.8691    17.2904 </r>
       <r>     7.3696     0.8869    17.3049 </r>
       <r>     7.3859     0.9012    17.3196 </r>
       <r>     7.4022     0.9123    17.3344 </r>
       <r>     7.4185     0.9206    17.3494 </r>
       <r>     7.4348     0.9268    17.3646 </r>
       <r>     7.4511     0.9314    17.3797 </r>
       <r>     7.4674     0.9350    17.3950 </r>
       <r>     7.4837     0.9380    17.4103 </r>
       <r>     7.5000     0.9409    17.4256 </r>
       <r>     7.5163     0.9437    17.4410 </r>
       <r>     7.5326     0.9465    17.4564 </r>
       <r>     7.5489     0.9491    17.4719 </r>
       <r>     7.5652     0.9514    17.4874 </r>
       <r>     7.5815     0.9529    17.5030 </r>
       <r>     7.5978     0.9533    17.5185 </r>
       <r>     7.6141     0.9522    17.5340 </r>
       <r>     7.6304     0.9494    17.5495 </r>
       <r>     7.6467     0.9446    17.5649 </r>
       <r>     7.6630     0.9377    17.5802 </r>
       <r>     7.6793     0.9286    17.5953 </r>
       <r>     7.6956     0.9174    17.6103 </r>
       <r>     7.7119     0.9042    17.6250 </r>
       <r>     7.7282     0.8893    17.6395 </r>
       <r>     7.7445     0.8729    17.6538 </r>
       <r>     7.7609     0.8553    17.6677 </r>
       <r>     7.7772     0.8369    17.6814 </r>
       <r>     7.7935     0.8179    17.6947 </r>
       <r>     7.8098     0.7988    17.7077 </r>
       <r>     7.8261     0.7798    17.7204 </r>
       <r>     7.8424     0.7613    17.7328 </r>
       <r>     7.8587     0.7437    17.7450 </r>
       <r>     7.8750     0.7272    17.7568 </r>
       <r>     7.8913     0.7121    17.7684 </r>
       <r>     7.9076     0.6985    17.7798 </r>
       <r>     7.9239     0.6867    17.7910 </r>
       <r>     7.9402     0.6767    17.8020 </r>
       <r>     7.9565     0.6685    17.8129 </r>
       <r>     7.9728     0.6619    17.8237 </r>
       <r>     7.9891     0.6569    17.8345 </r>
       <r>     8.0054     0.6533    17.8451 </r>
       <r>     8.0217     0.6506    17.8557 </r>
       <r>     8.0380     0.6488    17.8663 </r>
       <r>     8.0543     0.6474    17.8768 </r>
       <r>     8.0706     0.6463    17.8874 </r>
       <r>     8.0869     0.6453    17.8979 </r>
       <r>     8.1032     0.6442    17.9084 </r>
       <r>     8.1195     0.6431    17.9189 </r>
       <r>     8.1358     0.6419    17.9294 </r>
       <r>     8.1521     0.6407    17.9398 </r>
       <r>     8.1685     0.6397    17.9502 </r>
       <r>     8.1848     0.6391    17.9606 </r>
       <r>     8.2011     0.6388    17.9711 </r>
       <r>     8.2174     0.6390    17.9815 </r>
       <r>     8.2337     0.6397    17.9919 </r>
       <r>     8.2500     0.6408    18.0024 </r>
       <r>     8.2663     0.6420    18.0128 </r>
       <r>     8.2826     0.6431    18.0233 </r>
       <r>     8.2989     0.6438    18.0338 </r>
       <r>     8.3152     0.6436    18.0443 </r>
       <r>     8.3315     0.6422    18.0548 </r>
       <r>     8.3478     0.6391    18.0652 </r>
       <r>     8.3641     0.6342    18.0755 </r>
       <r>     8.3804     0.6272    18.0858 </r>
       <r>     8.3967     0.6182    18.0958 </r>
       <r>     8.4130     0.6072    18.1057 </r>
       <r>     8.4293     0.5946    18.1154 </r>
       <r>     8.4456     0.5808    18.1249 </r>
       <r>     8.4619     0.5663    18.1341 </r>
       <r>     8.4782     0.5517    18.1431 </r>
       <r>     8.4945     0.5376    18.1519 </r>
       <r>     8.5108     0.5245    18.1604 </r>
       <r>     8.5271     0.5130    18.1688 </r>
       <r>     8.5434     0.5033    18.1770 </r>
       <r>     8.5598     0.4956    18.1851 </r>
       <r>     8.5761     0.4901    18.1931 </r>
       <r>     8.5924     0.4865    18.2010 </r>
       <r>     8.6087     0.4847    18.2089 </r>
       <r>     8.6250     0.4843    18.2168 </r>
       <r>     8.6413     0.4850    18.2247 </r>
       <r>     8.6576     0.4864    18.2327 </r>
       <r>     8.6739     0.4883    18.2406 </r>
       <r>     8.6902     0.4904    18.2486 </r>
       <r>     8.7065     0.4924    18.2566 </r>
       <r>     8.7228     0.4945    18.2647 </r>
       <r>     8.7391     0.4965    18.2728 </r>
       <r>     8.7554     0.4986    18.2809 </r>
       <r>     8.7717     0.5010    18.2891 </r>
       <r>     8.7880     0.5036    18.2973 </r>
       <r>     8.8043     0.5068    18.3056 </r>
       <r>     8.8206     0.5104    18.3139 </r>
       <r>     8.8369     0.5145    18.3223 </r>
       <r>     8.8532     0.5188    18.3307 </r>
       <r>     8.8695     0.5231    18.3393 </r>
       <r>     8.8858     0.5271    18.3479 </r>
       <r>     8.9021     0.5304    18.3565 </r>
       <r>     8.9184     0.5324    18.3652 </r>
       <r>     8.9347     0.5329    18.3739 </r>
       <r>     8.9510     0.5315    18.3825 </r>
       <r>     8.9674     0.5278    18.3911 </r>
       <r>     8.9837     0.5217    18.3997 </r>
       <r>     9.0000     0.5133    18.4080 </r>
       <r>     9.0163     0.5026    18.4162 </r>
       <r>     9.0326     0.4900    18.4242 </r>
       <r>     9.0489     0.4757    18.4320 </r>
       <r>     9.0652     0.4605    18.4395 </r>
       <r>     9.0815     0.4448    18.4467 </r>
       <r>     9.0978     0.4292    18.4537 </r>
       <r>     9.1141     0.4144    18.4605 </r>
       <r>     9.1304     0.4008    18.4670 </r>
       <r>     9.1467     0.3889    18.4734 </r>
       <r>     9.1630     0.3790    18.4795 </r>
       <r>     9.1793     0.3714    18.4856 </r>
       <r>     9.1956     0.3660    18.4916 </r>
       <r>     9.2119     0.3630    18.4975 </r>
       <r>     9.2282     0.3620    18.5034 </r>
       <r>     9.2445     0.3628    18.5093 </r>
       <r>     9.2608     0.3651    18.5152 </r>
       <r>     9.2771     0.3685    18.5212 </r>
       <r>     9.2934     0.3724    18.5273 </r>
       <r>     9.3097     0.3764    18.5335 </r>
       <r>     9.3260     0.3802    18.5397 </r>
       <r>     9.3423     0.3834    18.5459 </r>
       <r>     9.3586     0.3856    18.5522 </r>
       <r>     9.3750     0.3868    18.5585 </r>
       <r>     9.3913     0.3868    18.5648 </r>
       <r>     9.4076     0.3857    18.5711 </r>
       <r>     9.4239     0.3838    18.5774 </r>
       <r>     9.4402     0.3812    18.5836 </r>
       <r>     9.4565     0.3784    18.5897 </r>
       <r>     9.4728     0.3757    18.5959 </r>
       <r>     9.4891     0.3735    18.6019 </r>
       <r>     9.5054     0.3722    18.6080 </r>
       <r>     9.5217     0.3720    18.6141 </r>
       <r>     9.5380     0.3732    18.6202 </r>
       <r>     9.5543     0.3756    18.6263 </r>
       <r>     9.5706     0.3792    18.6325 </r>
       <r>     9.5869     0.3838    18.6387 </r>
       <r>     9.6032     0.3889    18.6451 </r>
       <r>     9.6195     0.3942    18.6515 </r>
       <r>     9.6358     0.3990    18.6580 </r>
       <r>     9.6521     0.4030    18.6646 </r>
       <r>     9.6684     0.4056    18.6712 </r>
       <r>     9.6847     0.4065    18.6778 </r>
       <r>     9.7010     0.4053    18.6844 </r>
       <r>     9.7173     0.4019    18.6910 </r>
       <r>     9.7336     0.3963    18.6974 </r>
       <r>     9.7499     0.3884    18.7038 </r>
       <r>     9.7662     0.3785    18.7099 </r>
       <r>     9.7826     0.3667    18.7159 </r>
       <r>     9.7989     0.3534    18.7217 </r>
       <r>     9.8152     0.3389    18.7272 </r>
       <r>     9.8315     0.3234    18.7325 </r>
       <r>     9.8478     0.3074    18.7375 </r>
       <r>     9.8641     0.2911    18.7422 </r>
       <r>     9.8804     0.2749    18.7467 </r>
       <r>     9.8967     0.2592    18.7509 </r>
       <r>     9.9130     0.2442    18.7549 </r>
       <r>     9.9293     0.2305    18.7587 </r>
       <r>     9.9456     0.2184    18.7622 </r>
       <r>     9.9619     0.2082    18.7656 </r>
       <r>     9.9782     0.2005    18.7689 </r>
       <r>     9.9945     0.1954    18.7721 </r>
       <r>    10.0108     0.1933    18.7752 </r>
       <r>    10.0271     0.1945    18.7784 </r>
       <r>    10.0434     0.1990    18.7817 </r>
       <r>    10.0597     0.2067    18.7850 </r>
       <r>    10.0760     0.2175    18.7886 </r>
       <r>    10.0923     0.2311    18.7923 </r>
       <r>    10.1086     0.2471    18.7964 </r>
       <r>    10.1249     0.2647    18.8007 </r>
       <r>    10.1412     0.2835    18.8053 </r>
       <r>    10.1575     0.3027    18.8102 </r>
       <r>    10.1738     0.3215    18.8155 </r>
       <r>    10.1902     0.3395    18.8210 </r>
       <r>    10.2065     0.3559    18.8268 </r>
       <r>    10.2228     0.3703    18.8329 </r>
       <r>    10.2391     0.3825    18.8391 </r>
       <r>    10.2554     0.3922    18.8455 </r>
       <r>    10.2717     0.3995    18.8520 </r>
       <r>    10.2880     0.4044    18.8586 </r>
       <r>    10.3043     0.4073    18.8652 </r>
       <r>    10.3206     0.4085    18.8719 </r>
       <r>    10.3369     0.4084    18.8786 </r>
       <r>    10.3532     0.4075    18.8852 </r>
       <r>    10.3695     0.4062    18.8918 </r>
       <r>    10.3858     0.4052    18.8984 </r>
       <r>    10.4021     0.4048    18.9050 </r>
       <r>    10.4184     0.4054    18.9116 </r>
       <r>    10.4347     0.4072    18.9183 </r>
       <r>    10.4510     0.4106    18.9250 </r>
       <r>    10.4673     0.4156    18.9318 </r>
       <r>    10.4836     0.4223    18.9386 </r>
       <r>    10.4999     0.4306    18.9457 </r>
       <r>    10.5162     0.4403    18.9528 </r>
       <r>    10.5325     0.4511    18.9602 </r>
       <r>    10.5488     0.4628    18.9677 </r>
       <r>    10.5651     0.4750    18.9755 </r>
       <r>    10.5815     0.4873    18.9834 </r>
       <r>    10.5978     0.4994    18.9916 </r>
       <r>    10.6141     0.5108    18.9999 </r>
       <r>    10.6304     0.5213    19.0084 </r>
       <r>    10.6467     0.5308    19.0170 </r>
       <r>    10.6630     0.5391    19.0258 </r>
       <r>    10.6793     0.5463    19.0347 </r>
       <r>    10.6956     0.5526    19.0438 </r>
       <r>    10.7119     0.5583    19.0529 </r>
       <r>    10.7282     0.5636    19.0620 </r>
       <r>    10.7445     0.5690    19.0713 </r>
       <r>    10.7608     0.5749    19.0807 </r>
       <r>    10.7771     0.5815    19.0902 </r>
       <r>    10.7934     0.5892    19.0998 </r>
       <r>    10.8097     0.5981    19.1095 </r>
       <r>    10.8260     0.6083    19.1195 </r>
       <r>    10.8423     0.6196    19.1296 </r>
       <r>    10.8586     0.6318    19.1399 </r>
       <r>    10.8749     0.6446    19.1504 </r>
       <r>    10.8912     0.6577    19.1611 </r>
       <r>    10.9075     0.6707    19.1720 </r>
       <r>    10.9238     0.6832    19.1832 </r>
       <r>    10.9401     0.6949    19.1945 </r>
       <r>    10.9564     0.7056    19.2060 </r>
       <r>    10.9727     0.7150    19.2177 </r>
       <r>    10.9891     0.7231    19.2294 </r>
       <r>    11.0054     0.7298    19.2413 </r>
       <r>    11.0217     0.7351    19.2533 </r>
       <r>    11.0380     0.7391    19.2654 </r>
       <r>    11.0543     0.7419    19.2775 </r>
       <r>    11.0706     0.7435    19.2896 </r>
       <r>    11.0869     0.7441    19.3017 </r>
       <r>    11.1032     0.7439    19.3139 </r>
       <r>    11.1195     0.7429    19.3260 </r>
       <r>    11.1358     0.7412    19.3381 </r>
       <r>    11.1521     0.7392    19.3501 </r>
       <r>    11.1684     0.7368    19.3621 </r>
       <r>    11.1847     0.7343    19.3741 </r>
       <r>    11.2010     0.7318    19.3860 </r>
       <r>    11.2173     0.7295    19.3979 </r>
       <r>    11.2336     0.7274    19.4098 </r>
       <r>    11.2499     0.7256    19.4216 </r>
       <r>    11.2662     0.7241    19.4334 </r>
       <r>    11.2825     0.7227    19.4452 </r>
       <r>    11.2988     0.7214    19.4570 </r>
       <r>    11.3151     0.7199    19.4687 </r>
       <r>    11.3314     0.7180    19.4804 </r>
       <r>    11.3477     0.7154    19.4921 </r>
       <r>    11.3640     0.7120    19.5037 </r>
       <r>    11.3803     0.7075    19.5152 </r>
       <r>    11.3967     0.7016    19.5266 </r>
       <r>    11.4130     0.6944    19.5380 </r>
       <r>    11.4293     0.6859    19.5491 </r>
       <r>    11.4456     0.6760    19.5602 </r>
       <r>    11.4619     0.6651    19.5710 </r>
       <r>    11.4782     0.6535    19.5817 </r>
       <r>    11.4945     0.6416    19.5921 </r>
       <r>    11.5108     0.6298    19.6024 </r>
       <r>    11.5271     0.6188    19.6125 </r>
       <r>    11.5434     0.6090    19.6224 </r>
       <r>    11.5597     0.6009    19.6322 </r>
       <r>    11.5760     0.5948    19.6419 </r>
       <r>    11.5923     0.5912    19.6515 </r>
       <r>    11.6086     0.5899    19.6612 </r>
       <r>    11.6249     0.5909    19.6708 </r>
       <r>    11.6412     0.5940    19.6805 </r>
       <r>    11.6575     0.5986    19.6902 </r>
       <r>    11.6738     0.6041    19.7001 </r>
       <r>    11.6901     0.6100    19.7100 </r>
       <r>    11.7064     0.6154    19.7201 </r>
       <r>    11.7227     0.6197    19.7302 </r>
       <r>    11.7390     0.6225    19.7403 </r>
       <r>    11.7553     0.6233    19.7505 </r>
       <r>    11.7716     0.6220    19.7606 </r>
       <r>    11.7879     0.6186    19.7707 </r>
       <r>    11.8043     0.6134    19.7807 </r>
       <r>    11.8206     0.6068    19.7906 </r>
       <r>    11.8369     0.5993    19.8004 </r>
       <r>    11.8532     0.5916    19.8100 </r>
       <r>    11.8695     0.5844    19.8196 </r>
       <r>    11.8858     0.5781    19.8290 </r>
       <r>    11.9021     0.5732    19.8383 </r>
       <r>    11.9184     0.5700    19.8476 </r>
       <r>    11.9347     0.5686    19.8569 </r>
       <r>    11.9510     0.5689    19.8662 </r>
       <r>    11.9673     0.5706    19.8755 </r>
       <r>    11.9836     0.5731    19.8848 </r>
       <r>    11.9999     0.5761    19.8942 </r>
       <r>    12.0162     0.5789    19.9036 </r>
       <r>    12.0325     0.5811    19.9131 </r>
       <r>    12.0488     0.5820    19.9226 </r>
       <r>    12.0651     0.5814    19.9321 </r>
       <r>    12.0814     0.5792    19.9415 </r>
       <r>    12.0977     0.5753    19.9509 </r>
       <r>    12.1140     0.5699    19.9602 </r>
       <r>    12.1303     0.5633    19.9694 </r>
       <r>    12.1466     0.5561    19.9784 </r>
       <r>    12.1629     0.5489    19.9874 </r>
       <r>    12.1792     0.5421    19.9962 </r>
       <r>    12.1956     0.5364    20.0050 </r>
       <r>    12.2119     0.5323    20.0137 </r>
       <r>    12.2282     0.5300    20.0223 </r>
       <r>    12.2445     0.5299    20.0309 </r>
       <r>    12.2608     0.5318    20.0396 </r>
       <r>    12.2771     0.5356    20.0483 </r>
       <r>    12.2934     0.5409    20.0572 </r>
       <r>    12.3097     0.5472    20.0661 </r>
       <r>    12.3260     0.5539    20.0751 </r>
       <r>    12.3423     0.5601    20.0842 </r>
       <r>    12.3586     0.5652    20.0935 </r>
       <r>    12.3749     0.5686    20.1027 </r>
       <r>    12.3912     0.5696    20.1120 </r>
       <r>    12.4075     0.5679    20.1213 </r>
       <r>    12.4238     0.5633    20.1305 </r>
       <r>    12.4401     0.5557    20.1395 </r>
       <r>    12.4564     0.5453    20.1484 </r>
       <r>    12.4727     0.5326    20.1571 </r>
       <r>    12.4890     0.5182    20.1655 </r>
       <r>    12.5053     0.5028    20.1737 </r>
       <r>    12.5216     0.4872    20.1817 </r>
       <r>    12.5379     0.4722    20.1894 </r>
       <r>    12.5542     0.4587    20.1969 </r>
       <r>    12.5705     0.4474    20.2042 </r>
       <r>    12.5868     0.4391    20.2113 </r>
       <r>    12.6032     0.4340    20.2184 </r>
       <r>    12.6195     0.4326    20.2254 </r>
       <r>    12.6358     0.4349    20.2325 </r>
       <r>    12.6521     0.4408    20.2397 </r>
       <r>    12.6684     0.4500    20.2471 </r>
       <r>    12.6847     0.4621    20.2546 </r>
       <r>    12.7010     0.4763    20.2624 </r>
       <r>    12.7173     0.4921    20.2704 </r>
       <r>    12.7336     0.5086    20.2787 </r>
       <r>    12.7499     0.5250    20.2872 </r>
       <r>    12.7662     0.5405    20.2960 </r>
       <r>    12.7825     0.5544    20.3051 </r>
       <r>    12.7988     0.5662    20.3143 </r>
       <r>    12.8151     0.5752    20.3237 </r>
       <r>    12.8314     0.5814    20.3332 </r>
       <r>    12.8477     0.5845    20.3427 </r>
       <r>    12.8640     0.5847    20.3522 </r>
       <r>    12.8803     0.5822    20.3617 </r>
       <r>    12.8966     0.5775    20.3711 </r>
       <r>    12.9129     0.5711    20.3805 </r>
       <r>    12.9292     0.5638    20.3896 </r>
       <r>    12.9455     0.5563    20.3987 </r>
       <r>    12.9618     0.5493    20.4077 </r>
       <r>    12.9781     0.5435    20.4165 </r>
       <r>    12.9944     0.5396    20.4253 </r>
       <r>    13.0108     0.5379    20.4341 </r>
       <r>    13.0271     0.5390    20.4429 </r>
       <r>    13.0434     0.5427    20.4517 </r>
       <r>    13.0597     0.5492    20.4607 </r>
       <r>    13.0760     0.5581    20.4698 </r>
       <r>    13.0923     0.5692    20.4791 </r>
       <r>    13.1086     0.5819    20.4886 </r>
       <r>    13.1249     0.5957    20.4983 </r>
       <r>    13.1412     0.6099    20.5082 </r>
       <r>    13.1575     0.6239    20.5184 </r>
       <r>    13.1738     0.6371    20.5288 </r>
       <r>    13.1901     0.6489    20.5394 </r>
       <r>    13.2064     0.6590    20.5501 </r>
       <r>    13.2227     0.6668    20.5610 </r>
       <r>    13.2390     0.6723    20.5719 </r>
       <r>    13.2553     0.6753    20.5829 </r>
       <r>    13.2716     0.6758    20.5940 </r>
       <r>    13.2879     0.6740    20.6050 </r>
       <r>    13.3042     0.6700    20.6159 </r>
       <r>    13.3205     0.6642    20.6267 </r>
       <r>    13.3368     0.6571    20.6374 </r>
       <r>    13.3531     0.6489    20.6480 </r>
       <r>    13.3694     0.6402    20.6584 </r>
       <r>    13.3857     0.6314    20.6687 </r>
       <r>    13.4020     0.6228    20.6789 </r>
       <r>    13.4184     0.6147    20.6889 </r>
       <r>    13.4347     0.6075    20.6988 </r>
       <r>    13.4510     0.6011    20.7086 </r>
       <r>    13.4673     0.5958    20.7183 </r>
       <r>    13.4836     0.5915    20.7280 </r>
       <r>    13.4999     0.5882    20.7376 </r>
       <r>    13.5162     0.5856    20.7471 </r>
       <r>    13.5325     0.5838    20.7566 </r>
       <r>    13.5488     0.5826    20.7661 </r>
       <r>    13.5651     0.5819    20.7756 </r>
       <r>    13.5814     0.5815    20.7851 </r>
       <r>    13.5977     0.5814    20.7946 </r>
       <r>    13.6140     0.5815    20.8041 </r>
       <r>    13.6303     0.5819    20.8135 </r>
       <r>    13.6466     0.5824    20.8230 </r>
       <r>    13.6629     0.5832    20.8325 </r>
       <r>    13.6792     0.5841    20.8421 </r>
       <r>    13.6955     0.5853    20.8516 </r>
       <r>    13.7118     0.5867    20.8612 </r>
       <r>    13.7281     0.5885    20.8708 </r>
       <r>    13.7444     0.5906    20.8804 </r>
       <r>    13.7607     0.5932    20.8901 </r>
       <r>    13.7770     0.5964    20.8998 </r>
       <r>    13.7933     0.6004    20.9096 </r>
       <r>    13.8096     0.6052    20.9194 </r>
       <r>    13.8260     0.6110    20.9294 </r>
       <r>    13.8423     0.6178    20.9395 </r>
       <r>    13.8586     0.6257    20.9497 </r>
       <r>    13.8749     0.6345    20.9600 </r>
       <r>    13.8912     0.6441    20.9705 </r>
       <r>    13.9075     0.6544    20.9812 </r>
       <r>    13.9238     0.6649    20.9920 </r>
       <r>    13.9401     0.6755    21.0031 </r>
       <r>    13.9564     0.6857    21.0142 </r>
       <r>    13.9727     0.6953    21.0256 </r>
       <r>    13.9890     0.7040    21.0370 </r>
       <r>    14.0053     0.7116    21.0486 </r>
       <r>    14.0216     0.7181    21.0604 </r>
       <r>    14.0379     0.7235    21.0722 </r>
       <r>    14.0542     0.7279    21.0840 </r>
       <r>    14.0705     0.7316    21.0959 </r>
       <r>    14.0868     0.7348    21.1079 </r>
       <r>    14.1031     0.7379    21.1200 </r>
       <r>    14.1194     0.7412    21.1320 </r>
       <r>    14.1357     0.7450    21.1442 </r>
       <r>    14.1520     0.7497    21.1564 </r>
       <r>    14.1683     0.7553    21.1687 </r>
       <r>    14.1846     0.7620    21.1812 </r>
       <r>    14.2009     0.7698    21.1937 </r>
       <r>    14.2173     0.7786    21.2064 </r>
       <r>    14.2336     0.7882    21.2192 </r>
       <r>    14.2499     0.7984    21.2323 </r>
       <r>    14.2662     0.8087    21.2454 </r>
       <r>    14.2825     0.8189    21.2588 </r>
       <r>    14.2988     0.8285    21.2723 </r>
       <r>    14.3151     0.8371    21.2860 </r>
       <r>    14.3314     0.8443    21.2997 </r>
       <r>    14.3477     0.8497    21.3136 </r>
       <r>    14.3640     0.8531    21.3275 </r>
       <r>    14.3803     0.8541    21.3414 </r>
       <r>    14.3966     0.8527    21.3553 </r>
       <r>    14.4129     0.8488    21.3692 </r>
       <r>    14.4292     0.8425    21.3829 </r>
       <r>    14.4455     0.8342    21.3965 </r>
       <r>    14.4618     0.8241    21.4099 </r>
       <r>    14.4781     0.8128    21.4232 </r>
       <r>    14.4944     0.8008    21.4362 </r>
       <r>    14.5107     0.7886    21.4491 </r>
       <r>    14.5270     0.7768    21.4618 </r>
       <r>    14.5433     0.7660    21.4742 </r>
       <r>    14.5596     0.7565    21.4866 </r>
       <r>    14.5759     0.7486    21.4988 </r>
       <r>    14.5922     0.7424    21.5109 </r>
       <r>    14.6085     0.7380    21.5229 </r>
       <r>    14.6249     0.7351    21.5349 </r>
       <r>    14.6412     0.7334    21.5469 </r>
       <r>    14.6575     0.7324    21.5588 </r>
       <r>    14.6738     0.7316    21.5707 </r>
       <r>    14.6901     0.7306    21.5826 </r>
       <r>    14.7064     0.7288    21.5945 </r>
       <r>    14.7227     0.7259    21.6064 </r>
       <r>    14.7390     0.7216    21.6181 </r>
       <r>    14.7553     0.7157    21.6298 </r>
       <r>    14.7716     0.7083    21.6413 </r>
       <r>    14.7879     0.6997    21.6527 </r>
       <r>    14.8042     0.6902    21.6640 </r>
       <r>    14.8205     0.6805    21.6751 </r>
       <r>    14.8368     0.6711    21.6860 </r>
       <r>    14.8531     0.6628    21.6968 </r>
       <r>    14.8694     0.6564    21.7075 </r>
       <r>    14.8857     0.6524    21.7182 </r>
       <r>    14.9020     0.6514    21.7288 </r>
       <r>    14.9183     0.6540    21.7395 </r>
       <r>    14.9346     0.6602    21.7502 </r>
       <r>    14.9509     0.6702    21.7612 </r>
       <r>    14.9672     0.6837    21.7723 </r>
       <r>    14.9835     0.7003    21.7837 </r>
       <r>    14.9998     0.7194    21.7955 </r>
       <r>    15.0161     0.7401    21.8075 </r>
       <r>    15.0325     0.7614    21.8199 </r>
       <r>    15.0488     0.7824    21.8327 </r>
       <r>    15.0651     0.8018    21.8458 </r>
       <r>    15.0814     0.8186    21.8591 </r>
       <r>    15.0977     0.8319    21.8727 </r>
       <r>    15.1140     0.8408    21.8864 </r>
       <r>    15.1303     0.8445    21.9001 </r>
       <r>    15.1466     0.8428    21.9139 </r>
       <r>    15.1629     0.8355    21.9275 </r>
       <r>    15.1792     0.8226    21.9409 </r>
       <r>    15.1955     0.8048    21.9540 </r>
       <r>    15.2118     0.7826    21.9668 </r>
       <r>    15.2281     0.7571    21.9791 </r>
       <r>    15.2444     0.7294    21.9910 </r>
       <r>    15.2607     0.7007    22.0025 </r>
       <r>    15.2770     0.6723    22.0134 </r>
       <r>    15.2933     0.6453    22.0239 </r>
       <r>    15.3096     0.6209    22.0341 </r>
       <r>    15.3259     0.5998    22.0438 </r>
       <r>    15.3422     0.5827    22.0533 </r>
       <r>    15.3585     0.5698    22.0626 </r>
       <r>    15.3748     0.5611    22.0718 </r>
       <r>    15.3911     0.5563    22.0809 </r>
       <r>    15.4074     0.5548    22.0899 </r>
       <r>    15.4237     0.5558    22.0990 </r>
       <r>    15.4401     0.5585    22.1081 </r>
       <r>    15.4564     0.5619    22.1172 </r>
       <r>    15.4727     0.5653    22.1264 </r>
       <r>    15.4890     0.5680    22.1357 </r>
       <r>    15.5053     0.5695    22.1450 </r>
       <r>    15.5216     0.5696    22.1543 </r>
       <r>    15.5379     0.5683    22.1635 </r>
       <r>    15.5542     0.5659    22.1728 </r>
       <r>    15.5705     0.5628    22.1819 </r>
       <r>    15.5868     0.5598    22.1911 </r>
       <r>    15.6031     0.5576    22.2002 </r>
       <r>    15.6194     0.5568    22.2092 </r>
       <r>    15.6357     0.5582    22.2183 </r>
       <r>    15.6520     0.5623    22.2275 </r>
       <r>    15.6683     0.5693    22.2368 </r>
       <r>    15.6846     0.5795    22.2462 </r>
       <r>    15.7009     0.5925    22.2559 </r>
       <r>    15.7172     0.6082    22.2658 </r>
       <r>    15.7335     0.6258    22.2760 </r>
       <r>    15.7498     0.6447    22.2865 </r>
       <r>    15.7661     0.6641    22.2974 </r>
       <r>    15.7824     0.6831    22.3085 </r>
       <r>    15.7987     0.7011    22.3199 </r>
       <r>    15.8150     0.7172    22.3316 </r>
       <r>    15.8314     0.7310    22.3435 </r>
       <r>    15.8477     0.7419    22.3556 </r>
       <r>    15.8640     0.7498    22.3679 </r>
       <r>    15.8803     0.7545    22.3802 </r>
       <r>    15.8966     0.7560    22.3925 </r>
       <r>    15.9129     0.7546    22.4048 </r>
       <r>    15.9292     0.7504    22.4170 </r>
       <r>    15.9455     0.7438    22.4292 </r>
       <r>    15.9618     0.7352    22.4411 </r>
       <r>    15.9781     0.7251    22.4530 </r>
       <r>    15.9944     0.7139    22.4646 </r>
       <r>    16.0107     0.7021    22.4760 </r>
       <r>    16.0270     0.6903    22.4873 </r>
       <r>    16.0433     0.6788    22.4984 </r>
       <r>    16.0596     0.6682    22.5093 </r>
       <r>    16.0759     0.6587    22.5200 </r>
       <r>    16.0922     0.6508    22.5306 </r>
       <r>    16.1085     0.6446    22.5411 </r>
       <r>    16.1248     0.6401    22.5516 </r>
       <r>    16.1411     0.6375    22.5620 </r>
       <r>    16.1574     0.6366    22.5723 </r>
       <r>    16.1737     0.6371    22.5827 </r>
       <r>    16.1900     0.6387    22.5931 </r>
       <r>    16.2063     0.6412    22.6036 </r>
       <r>    16.2226     0.6441    22.6141 </r>
       <r>    16.2390     0.6470    22.6246 </r>
       <r>    16.2553     0.6496    22.6352 </r>
       <r>    16.2716     0.6517    22.6459 </r>
       <r>    16.2879     0.6531    22.6565 </r>
       <r>    16.3042     0.6536    22.6672 </r>
       <r>    16.3205     0.6534    22.6778 </r>
       <r>    16.3368     0.6526    22.6884 </r>
       <r>    16.3531     0.6516    22.6991 </r>
       <r>    16.3694     0.6506    22.7097 </r>
       <r>    16.3857     0.6503    22.7203 </r>
       <r>    16.4020     0.6510    22.7309 </r>
       <r>    16.4183     0.6533    22.7415 </r>
       <r>    16.4346     0.6577    22.7523 </r>
       <r>    16.4509     0.6645    22.7631 </r>
       <r>    16.4672     0.6739    22.7741 </r>
       <r>    16.4835     0.6860    22.7853 </r>
       <r>    16.4998     0.7007    22.7967 </r>
       <r>    16.5161     0.7177    22.8084 </r>
       <r>    16.5324     0.7367    22.8204 </r>
       <r>    16.5487     0.7568    22.8328 </r>
       <r>    16.5650     0.7776    22.8454 </r>
       <r>    16.5813     0.7983    22.8584 </r>
       <r>    16.5976     0.8182    22.8718 </r>
       <r>    16.6139     0.8366    22.8854 </r>
       <r>    16.6302     0.8532    22.8993 </r>
       <r>    16.6466     0.8675    22.9135 </r>
       <r>    16.6629     0.8792    22.9278 </r>
       <r>    16.6792     0.8885    22.9423 </r>
       <r>    16.6955     0.8951    22.9569 </r>
       <r>    16.7118     0.8992    22.9716 </r>
       <r>    16.7281     0.9010    22.9862 </r>
       <r>    16.7444     0.9004    23.0009 </r>
       <r>    16.7607     0.8974    23.0156 </r>
       <r>    16.7770     0.8921    23.0301 </r>
       <r>    16.7933     0.8844    23.0445 </r>
       <r>    16.8096     0.8741    23.0588 </r>
       <r>    16.8259     0.8610    23.0728 </r>
       <r>    16.8422     0.8452    23.0866 </r>
       <r>    16.8585     0.8266    23.1001 </r>
       <r>    16.8748     0.8053    23.1132 </r>
       <r>    16.8911     0.7817    23.1259 </r>
       <r>    16.9074     0.7562    23.1383 </r>
       <r>    16.9237     0.7295    23.1502 </r>
       <r>    16.9400     0.7025    23.1616 </r>
       <r>    16.9563     0.6760    23.1726 </r>
       <r>    16.9726     0.6509    23.1832 </r>
       <r>    16.9889     0.6284    23.1935 </r>
       <r>    17.0052     0.6091    23.2034 </r>
       <r>    17.0215     0.5940    23.2131 </r>
       <r>    17.0378     0.5834    23.2226 </r>
       <r>    17.0542     0.5778    23.2320 </r>
       <r>    17.0705     0.5771    23.2414 </r>
       <r>    17.0868     0.5814    23.2509 </r>
       <r>    17.1031     0.5901    23.2606 </r>
       <r>    17.1194     0.6028    23.2704 </r>
       <r>    17.1357     0.6186    23.2805 </r>
       <r>    17.1520     0.6368    23.2908 </r>
       <r>    17.1683     0.6563    23.3015 </r>
       <r>    17.1846     0.6764    23.3126 </r>
       <r>    17.2009     0.6962    23.3239 </r>
       <r>    17.2172     0.7150    23.3356 </r>
       <r>    17.2335     0.7319    23.3475 </r>
       <r>    17.2498     0.7466    23.3597 </r>
       <r>    17.2661     0.7586    23.3721 </r>
       <r>    17.2824     0.7678    23.3846 </r>
       <r>    17.2987     0.7741    23.3972 </r>
       <r>    17.3150     0.7775    23.4099 </r>
       <r>    17.3313     0.7781    23.4226 </r>
       <r>    17.3476     0.7764    23.4352 </r>
       <r>    17.3639     0.7725    23.4478 </r>
       <r>    17.3802     0.7669    23.4603 </r>
       <r>    17.3965     0.7598    23.4727 </r>
       <r>    17.4128     0.7517    23.4850 </r>
       <r>    17.4291     0.7427    23.4971 </r>
       <r>    17.4455     0.7332    23.5090 </r>
       <r>    17.4618     0.7233    23.5208 </r>
       <r>    17.4781     0.7131    23.5324 </r>
       <r>    17.4944     0.7026    23.5439 </r>
       <r>    17.5107     0.6919    23.5552 </r>
       <r>    17.5270     0.6808    23.5663 </r>
       <r>    17.5433     0.6692    23.5772 </r>
       <r>    17.5596     0.6569    23.5879 </r>
       <r>    17.5759     0.6438    23.5984 </r>
       <r>    17.5922     0.6297    23.6087 </r>
       <r>    17.6085     0.6143    23.6187 </r>
       <r>    17.6248     0.5976    23.6284 </r>
       <r>    17.6411     0.5795    23.6379 </r>
       <r>    17.6574     0.5597    23.6470 </r>
       <r>    17.6737     0.5382    23.6558 </r>
       <r>    17.6900     0.5152    23.6642 </r>
       <r>    17.7063     0.4906    23.6722 </r>
       <r>    17.7226     0.4646    23.6797 </r>
       <r>    17.7389     0.4375    23.6869 </r>
       <r>    17.7552     0.4096    23.6936 </r>
       <r>    17.7715     0.3814    23.6998 </r>
       <r>    17.7878     0.3532    23.7055 </r>
       <r>    17.8041     0.3258    23.7108 </r>
       <r>    17.8204     0.2995    23.7157 </r>
       <r>    17.8367     0.2749    23.7202 </r>
       <r>    17.8531     0.2527    23.7243 </r>
       <r>    17.8694     0.2332    23.7281 </r>
       <r>    17.8857     0.2169    23.7317 </r>
       <r>    17.9020     0.2039    23.7350 </r>
       <r>    17.9183     0.1944    23.7382 </r>
       <r>    17.9346     0.1884    23.7412 </r>
       <r>    17.9509     0.1857    23.7443 </r>
       <r>    17.9672     0.1859    23.7473 </r>
       <r>    17.9835     0.1886    23.7504 </r>
       <r>    17.9998     0.1933    23.7535 </r>
       <r>    18.0161     0.1995    23.7568 </r>
       <r>    18.0324     0.2064    23.7601 </r>
       <r>    18.0487     0.2136    23.7636 </r>
       <r>    18.0650     0.2204    23.7672 </r>
       <r>    18.0813     0.2264    23.7709 </r>
       <r>    18.0976     0.2312    23.7747 </r>
       <r>    18.1139     0.2344    23.7785 </r>
       <r>    18.1302     0.2359    23.7823 </r>
       <r>    18.1465     0.2355    23.7862 </r>
       <r>    18.1628     0.2332    23.7900 </r>
       <r>    18.1791     0.2290    23.7937 </r>
       <r>    18.1954     0.2230    23.7974 </r>
       <r>    18.2117     0.2154    23.8009 </r>
       <r>    18.2280     0.2062    23.8042 </r>
       <r>    18.2443     0.1958    23.8074 </r>
       <r>    18.2607     0.1844    23.8104 </r>
       <r>    18.2770     0.1721    23.8132 </r>
       <r>    18.2933     0.1593    23.8158 </r>
       <r>    18.3096     0.1462    23.8182 </r>
       <r>    18.3259     0.1332    23.8204 </r>
       <r>    18.3422     0.1204    23.8223 </r>
       <r>    18.3585     0.1082    23.8241 </r>
       <r>    18.3748     0.0970    23.8257 </r>
       <r>    18.3911     0.0868    23.8271 </r>
       <r>    18.4074     0.0780    23.8284 </r>
       <r>    18.4237     0.0707    23.8295 </r>
       <r>    18.4400     0.0651    23.8306 </r>
       <r>    18.4563     0.0612    23.8316 </r>
       <r>    18.4726     0.0590    23.8326 </r>
       <r>    18.4889     0.0583    23.8335 </r>
       <r>    18.5052     0.0589    23.8345 </r>
       <r>    18.5215     0.0607    23.8355 </r>
       <r>    18.5378     0.0633    23.8365 </r>
       <r>    18.5541     0.0665    23.8376 </r>
       <r>    18.5704     0.0699    23.8387 </r>
       <r>    18.5867     0.0732    23.8399 </r>
       <r>    18.6030     0.0763    23.8411 </r>
       <r>    18.6193     0.0790    23.8424 </r>
       <r>    18.6356     0.0810    23.8438 </r>
       <r>    18.6519     0.0824    23.8451 </r>
       <r>    18.6683     0.0832    23.8465 </r>
       <r>    18.6846     0.0834    23.8478 </r>
       <r>    18.7009     0.0831    23.8492 </r>
       <r>    18.7172     0.0825    23.8505 </r>
       <r>    18.7335     0.0816    23.8518 </r>
       <r>    18.7498     0.0806    23.8532 </r>
       <r>    18.7661     0.0796    23.8545 </r>
       <r>    18.7824     0.0786    23.8557 </r>
       <r>    18.7987     0.0777    23.8570 </r>
       <r>    18.8150     0.0768    23.8583 </r>
       <r>    18.8313     0.0759    23.8595 </r>
       <r>    18.8476     0.0751    23.8607 </r>
       <r>    18.8639     0.0743    23.8619 </r>
       <r>    18.8802     0.0734    23.8631 </r>
       <r>    18.8965     0.0724    23.8643 </r>
       <r>    18.9128     0.0713    23.8655 </r>
       <r>    18.9291     0.0702    23.8666 </r>
       <r>    18.9454     0.0691    23.8677 </r>
       <r>    18.9617     0.0680    23.8689 </r>
       <r>    18.9780     0.0670    23.8699 </r>
       <r>    18.9943     0.0663    23.8710 </r>
       <r>    19.0106     0.0658    23.8721 </r>
       <r>    19.0269     0.0656    23.8732 </r>
       <r>    19.0432     0.0657    23.8742 </r>
       <r>    19.0595     0.0662    23.8753 </r>
       <r>    19.0759     0.0671    23.8764 </r>
       <r>    19.0922     0.0681    23.8775 </r>
       <r>    19.1085     0.0693    23.8787 </r>
       <r>    19.1248     0.0705    23.8798 </r>
       <r>    19.1411     0.0716    23.8810 </r>
       <r>    19.1574     0.0723    23.8821 </r>
       <r>    19.1737     0.0726    23.8833 </r>
       <r>    19.1900     0.0723    23.8845 </r>
       <r>    19.2063     0.0713    23.8857 </r>
       <r>    19.2226     0.0695    23.8868 </r>
       <r>    19.2389     0.0670    23.8879 </r>
       <r>    19.2552     0.0637    23.8889 </r>
       <r>    19.2715     0.0598    23.8899 </r>
       <r>    19.2878     0.0554    23.8908 </r>
       <r>    19.3041     0.0507    23.8916 </r>
       <r>    19.3204     0.0459    23.8924 </r>
       <r>    19.3367     0.0412    23.8931 </r>
       <r>    19.3530     0.0369    23.8937 </r>
       <r>    19.3693     0.0330    23.8942 </r>
       <r>    19.3856     0.0299    23.8947 </r>
       <r>    19.4019     0.0274    23.8951 </r>
       <r>    19.4182     0.0258    23.8956 </r>
       <r>    19.4345     0.0250    23.8960 </r>
       <r>    19.4508     0.0249    23.8964 </r>
       <r>    19.4672     0.0255    23.8968 </r>
       <r>    19.4835     0.0266    23.8972 </r>
       <r>    19.4998     0.0282    23.8977 </r>
       <r>    19.5161     0.0300    23.8982 </r>
       <r>    19.5324     0.0321    23.8987 </r>
       <r>    19.5487     0.0342    23.8992 </r>
       <r>    19.5650     0.0365    23.8998 </r>
       <r>    19.5813     0.0387    23.9005 </r>
       <r>    19.5976     0.0410    23.9011 </r>
       <r>    19.6139     0.0433    23.9018 </r>
       <r>    19.6302     0.0457    23.9026 </r>
       <r>    19.6465     0.0480    23.9034 </r>
       <r>    19.6628     0.0504    23.9042 </r>
       <r>    19.6791     0.0527    23.9051 </r>
       <r>    19.6954     0.0549    23.9059 </r>
       <r>    19.7117     0.0568    23.9069 </r>
       <r>    19.7280     0.0585    23.9078 </r>
       <r>    19.7443     0.0598    23.9088 </r>
       <r>    19.7606     0.0605    23.9098 </r>
       <r>    19.7769     0.0606    23.9108 </r>
       <r>    19.7932     0.0601    23.9118 </r>
       <r>    19.8095     0.0589    23.9127 </r>
       <r>    19.8258     0.0572    23.9137 </r>
       <r>    19.8421     0.0549    23.9145 </r>
       <r>    19.8584     0.0523    23.9154 </r>
       <r>    19.8748     0.0495    23.9162 </r>
       <r>    19.8911     0.0467    23.9170 </r>
       <r>    19.9074     0.0441    23.9177 </r>
       <r>    19.9237     0.0418    23.9184 </r>
       <r>    19.9400     0.0400    23.9190 </r>
       <r>    19.9563     0.0388    23.9197 </r>
       <r>    19.9726     0.0382    23.9203 </r>
       <r>    19.9889     0.0382    23.9209 </r>
       <r>    20.0052     0.0388    23.9215 </r>
       <r>    20.0215     0.0398    23.9222 </r>
       <r>    20.0378     0.0412    23.9229 </r>
       <r>    20.0541     0.0427    23.9236 </r>
       <r>    20.0704     0.0442    23.9243 </r>
       <r>    20.0867     0.0455    23.9250 </r>
       <r>    20.1030     0.0467    23.9258 </r>
       <r>    20.1193     0.0475    23.9265 </r>
       <r>    20.1356     0.0479    23.9273 </r>
       <r>    20.1519     0.0481    23.9281 </r>
       <r>    20.1682     0.0479    23.9289 </r>
       <r>    20.1845     0.0474    23.9297 </r>
       <r>    20.2008     0.0468    23.9304 </r>
       <r>    20.2171     0.0461    23.9312 </r>
       <r>    20.2334     0.0453    23.9319 </r>
       <r>    20.2497     0.0446    23.9326 </r>
       <r>    20.2660     0.0440    23.9334 </r>
       <r>    20.2824     0.0435    23.9341 </r>
       <r>    20.2987     0.0430    23.9348 </r>
       <r>    20.3150     0.0426    23.9355 </r>
       <r>    20.3313     0.0422    23.9362 </r>
       <r>    20.3476     0.0418    23.9368 </r>
       <r>    20.3639     0.0413    23.9375 </r>
       <r>    20.3802     0.0407    23.9382 </r>
       <r>    20.3965     0.0400    23.9388 </r>
       <r>    20.4128     0.0392    23.9395 </r>
       <r>    20.4291     0.0382    23.9401 </r>
       <r>    20.4454     0.0370    23.9407 </r>
       <r>    20.4617     0.0358    23.9413 </r>
       <r>    20.4780     0.0346    23.9418 </r>
       <r>    20.4943     0.0333    23.9424 </r>
       <r>    20.5106     0.0321    23.9429 </r>
       <r>    20.5269     0.0310    23.9434 </r>
       <r>    20.5432     0.0300    23.9439 </r>
       <r>    20.5595     0.0291    23.9444 </r>
       <r>    20.5758     0.0285    23.9448 </r>
       <r>    20.5921     0.0279    23.9453 </r>
       <r>    20.6084     0.0276    23.9457 </r>
       <r>    20.6247     0.0274    23.9462 </r>
       <r>    20.6410     0.0273    23.9466 </r>
       <r>    20.6573     0.0273    23.9471 </r>
       <r>    20.6736     0.0273    23.9475 </r>
       <r>    20.6900     0.0272    23.9480 </r>
       <r>    20.7063     0.0271    23.9484 </r>
       <r>    20.7226     0.0269    23.9489 </r>
       <r>    20.7389     0.0265    23.9493 </r>
       <r>    20.7552     0.0259    23.9497 </r>
       <r>    20.7715     0.0250    23.9501 </r>
       <r>    20.7878     0.0240    23.9505 </r>
       <r>    20.8041     0.0228    23.9509 </r>
       <r>    20.8204     0.0214    23.9512 </r>
       <r>    20.8367     0.0200    23.9516 </r>
       <r>    20.8530     0.0185    23.9519 </r>
       <r>    20.8693     0.0171    23.9521 </r>
       <r>    20.8856     0.0159    23.9524 </r>
       <r>    20.9019     0.0148    23.9526 </r>
       <r>    20.9182     0.0139    23.9529 </r>
       <r>    20.9345     0.0133    23.9531 </r>
       <r>    20.9508     0.0130    23.9533 </r>
       <r>    20.9671     0.0129    23.9535 </r>
       <r>    20.9834     0.0131    23.9537 </r>
       <r>    20.9997     0.0135    23.9539 </r>
       <r>    21.0160     0.0141    23.9542 </r>
       <r>    21.0323     0.0149    23.9544 </r>
       <r>    21.0486     0.0158    23.9547 </r>
       <r>    21.0649     0.0170    23.9549 </r>
       <r>    21.0813     0.0184    23.9552 </r>
       <r>    21.0976     0.0200    23.9556 </r>
       <r>    21.1139     0.0219    23.9559 </r>
       <r>    21.1302     0.0240    23.9563 </r>
       <r>    21.1465     0.0264    23.9567 </r>
       <r>    21.1628     0.0290    23.9572 </r>
       <r>    21.1791     0.0318    23.9577 </r>
       <r>    21.1954     0.0347    23.9583 </r>
       <r>    21.2117     0.0376    23.9589 </r>
       <r>    21.2280     0.0403    23.9596 </r>
       <r>    21.2443     0.0428    23.9603 </r>
       <r>    21.2606     0.0449    23.9610 </r>
       <r>    21.2769     0.0466    23.9618 </r>
       <r>    21.2932     0.0476    23.9625 </r>
       <r>    21.3095     0.0481    23.9633 </r>
       <r>    21.3258     0.0479    23.9641 </r>
       <r>    21.3421     0.0471    23.9649 </r>
       <r>    21.3584     0.0458    23.9656 </r>
       <r>    21.3747     0.0441    23.9663 </r>
       <r>    21.3910     0.0422    23.9670 </r>
       <r>    21.4073     0.0402    23.9677 </r>
       <r>    21.4236     0.0381    23.9683 </r>
       <r>    21.4399     0.0363    23.9689 </r>
       <r>    21.4562     0.0348    23.9695 </r>
       <r>    21.4725     0.0335    23.9700 </r>
       <r>    21.4889     0.0327    23.9705 </r>
       <r>    21.5052     0.0322    23.9711 </r>
       <r>    21.5215     0.0319    23.9716 </r>
       <r>    21.5378     0.0320    23.9721 </r>
       <r>    21.5541     0.0321    23.9726 </r>
       <r>    21.5704     0.0322    23.9732 </r>
       <r>    21.5867     0.0322    23.9737 </r>
       <r>    21.6030     0.0320    23.9742 </r>
       <r>    21.6193     0.0315    23.9747 </r>
       <r>    21.6356     0.0307    23.9752 </r>
       <r>    21.6519     0.0295    23.9757 </r>
       <r>    21.6682     0.0280    23.9762 </r>
       <r>    21.6845     0.0261    23.9766 </r>
       <r>    21.7008     0.0239    23.9770 </r>
       <r>    21.7171     0.0214    23.9773 </r>
       <r>    21.7334     0.0189    23.9776 </r>
       <r>    21.7497     0.0162    23.9779 </r>
       <r>    21.7660     0.0136    23.9781 </r>
       <r>    21.7823     0.0111    23.9783 </r>
       <r>    21.7986     0.0087    23.9784 </r>
       <r>    21.8149     0.0066    23.9785 </r>
       <r>    21.8312     0.0047    23.9786 </r>
       <r>    21.8475     0.0030    23.9787 </r>
       <r>    21.8638     0.0017    23.9787 </r>
       <r>    21.8801     0.0006    23.9787 </r>
       <r>    21.8965    -0.0002    23.9787 </r>
       <r>    21.9128    -0.0007    23.9787 </r>
       <r>    21.9291    -0.0010    23.9787 </r>
       <r>    21.9454    -0.0011    23.9787 </r>
       <r>    21.9617    -0.0009    23.9786 </r>
       <r>    21.9780    -0.0007    23.9786 </r>
       <r>    21.9943    -0.0002    23.9786 </r>
       <r>    22.0106     0.0004    23.9786 </r>
       <r>    22.0269     0.0010    23.9786 </r>
       <r>    22.0432     0.0019    23.9787 </r>
       <r>    22.0595     0.0028    23.9787 </r>
       <r>    22.0758     0.0038    23.9788 </r>
       <r>    22.0921     0.0050    23.9789 </r>
       <r>    22.1084     0.0062    23.9790 </r>
       <r>    22.1247     0.0076    23.9791 </r>
       <r>    22.1410     0.0092    23.9792 </r>
       <r>    22.1573     0.0108    23.9794 </r>
       <r>    22.1736     0.0126    23.9796 </r>
       <r>    22.1899     0.0144    23.9799 </r>
       <r>    22.2062     0.0163    23.9801 </r>
       <r>    22.2225     0.0182    23.9804 </r>
       <r>    22.2388     0.0200    23.9807 </r>
       <r>    22.2551     0.0217    23.9811 </r>
       <r>    22.2714     0.0231    23.9815 </r>
       <r>    22.2877     0.0243    23.9819 </r>
       <r>    22.3041     0.0251    23.9823 </r>
       <r>    22.3204     0.0255    23.9827 </r>
       <r>    22.3367     0.0254    23.9831 </r>
       <r>    22.3530     0.0249    23.9835 </r>
       <r>    22.3693     0.0239    23.9839 </r>
       <r>    22.3856     0.0224    23.9843 </r>
       <r>    22.4019     0.0206    23.9846 </r>
       <r>    22.4182     0.0185    23.9849 </r>
       <r>    22.4345     0.0162    23.9852 </r>
       <r>    22.4508     0.0138    23.9854 </r>
       <r>    22.4671     0.0114    23.9856 </r>
       <r>    22.4834     0.0091    23.9857 </r>
       <r>    22.4997     0.0070    23.9858 </r>
       <r>    22.5160     0.0052    23.9859 </r>
       <r>    22.5323     0.0038    23.9860 </r>
       <r>    22.5486     0.0029    23.9860 </r>
       <r>    22.5649     0.0024    23.9861 </r>
       <r>    22.5812     0.0025    23.9861 </r>
       <r>    22.5975     0.0031    23.9862 </r>
       <r>    22.6138     0.0043    23.9862 </r>
       <r>    22.6301     0.0059    23.9863 </r>
       <r>    22.6464     0.0079    23.9865 </r>
       <r>    22.6627     0.0102    23.9866 </r>
       <r>    22.6790     0.0129    23.9868 </r>
       <r>    22.6953     0.0157    23.9871 </r>
       <r>    22.7117     0.0185    23.9874 </r>
       <r>    22.7280     0.0213    23.9877 </r>
       <r>    22.7443     0.0240    23.9881 </r>
       <r>    22.7606     0.0264    23.9886 </r>
       <r>    22.7769     0.0284    23.9890 </r>
       <r>    22.7932     0.0300    23.9895 </r>
       <r>    22.8095     0.0312    23.9900 </r>
       <r>    22.8258     0.0318    23.9905 </r>
       <r>    22.8421     0.0318    23.9911 </r>
       <r>    22.8584     0.0314    23.9916 </r>
       <r>    22.8747     0.0305    23.9921 </r>
       <r>    22.8910     0.0291    23.9925 </r>
       <r>    22.9073     0.0273    23.9930 </r>
       <r>    22.9236     0.0252    23.9934 </r>
       <r>    22.9399     0.0229    23.9938 </r>
       <r>    22.9562     0.0205    23.9941 </r>
       <r>    22.9725     0.0180    23.9944 </r>
       <r>    22.9888     0.0155    23.9947 </r>
       <r>    23.0051     0.0131    23.9949 </r>
       <r>    23.0214     0.0108    23.9951 </r>
       <r>    23.0377     0.0087    23.9952 </r>
       <r>    23.0540     0.0068    23.9953 </r>
       <r>    23.0703     0.0052    23.9954 </r>
       <r>    23.0866     0.0037    23.9954 </r>
       <r>    23.1030     0.0025    23.9955 </r>
       <r>    23.1193     0.0015    23.9955 </r>
       <r>    23.1356     0.0007    23.9955 </r>
       <r>    23.1519     0.0001    23.9955 </r>
       <r>    23.1682    -0.0003    23.9955 </r>
       <r>    23.1845    -0.0006    23.9955 </r>
       <r>    23.2008    -0.0008    23.9955 </r>
       <r>    23.2171    -0.0009    23.9955 </r>
       <r>    23.2334    -0.0009    23.9955 </r>
       <r>    23.2497    -0.0009    23.9955 </r>
       <r>    23.2660    -0.0009    23.9954 </r>
       <r>    23.2823    -0.0008    23.9954 </r>
       <r>    23.2986    -0.0007    23.9954 </r>
       <r>    23.3149    -0.0006    23.9954 </r>
       <r>    23.3312    -0.0005    23.9954 </r>
       <r>    23.3475    -0.0005    23.9954 </r>
       <r>    23.3638    -0.0004    23.9954 </r>
       <r>    23.3801    -0.0004    23.9954 </r>
       <r>    23.3964    -0.0003    23.9954 </r>
       <r>    23.4127    -0.0003    23.9954 </r>
       <r>    23.4290    -0.0003    23.9954 </r>
       <r>    23.4453    -0.0003    23.9954 </r>
       <r>    23.4616    -0.0004    23.9954 </r>
       <r>    23.4779    -0.0004    23.9953 </r>
       <r>    23.4942    -0.0005    23.9953 </r>
       <r>    23.5106    -0.0005    23.9953 </r>
       <r>    23.5269    -0.0006    23.9953 </r>
       <r>    23.5432    -0.0006    23.9953 </r>
       <r>    23.5595    -0.0007    23.9953 </r>
       <r>    23.5758    -0.0007    23.9953 </r>
       <r>    23.5921    -0.0006    23.9953 </r>
       <r>    23.6084    -0.0005    23.9953 </r>
       <r>    23.6247    -0.0002    23.9953 </r>
       <r>    23.6410     0.0001    23.9953 </r>
       <r>    23.6573     0.0006    23.9953 </r>
       <r>    23.6736     0.0011    23.9953 </r>
       <r>    23.6899     0.0019    23.9953 </r>
       <r>    23.7062     0.0027    23.9954 </r>
       <r>    23.7225     0.0037    23.9954 </r>
       <r>    23.7388     0.0048    23.9955 </r>
       <r>    23.7551     0.0060    23.9956 </r>
       <r>    23.7714     0.0072    23.9957 </r>
       <r>    23.7877     0.0084    23.9959 </r>
       <r>    23.8040     0.0096    23.9960 </r>
       <r>    23.8203     0.0107    23.9962 </r>
       <r>    23.8366     0.0117    23.9964 </r>
       <r>    23.8529     0.0125    23.9966 </r>
       <r>    23.8692     0.0131    23.9968 </r>
       <r>    23.8855     0.0134    23.9970 </r>
       <r>    23.9018     0.0134    23.9972 </r>
       <r>    23.9182     0.0133    23.9975 </r>
       <r>    23.9345     0.0128    23.9977 </r>
       <r>    23.9508     0.0122    23.9979 </r>
       <r>    23.9671     0.0114    23.9980 </r>
       <r>    23.9834     0.0105    23.9982 </r>
       <r>    23.9997     0.0095    23.9984 </r>
       <r>    24.0160     0.0085    23.9985 </r>
       <r>    24.0323     0.0076    23.9986 </r>
       <r>    24.0486     0.0067    23.9987 </r>
       <r>    24.0649     0.0059    23.9988 </r>
       <r>    24.0812     0.0053    23.9989 </r>
       <r>    24.0975     0.0048    23.9990 </r>
       <r>    24.1138     0.0044    23.9991 </r>
       <r>    24.1301     0.0042    23.9991 </r>
       <r>    24.1464     0.0040    23.9992 </r>
       <r>    24.1627     0.0039    23.9993 </r>
       <r>    24.1790     0.0038    23.9993 </r>
       <r>    24.1953     0.0038    23.9994 </r>
       <r>    24.2116     0.0037    23.9995 </r>
       <r>    24.2279     0.0036    23.9995 </r>
       <r>    24.2442     0.0034    23.9996 </r>
       <r>    24.2605     0.0032    23.9996 </r>
       <r>    24.2768     0.0029    23.9997 </r>
       <r>    24.2931     0.0026    23.9997 </r>
       <r>    24.3094     0.0023    23.9998 </r>
       <r>    24.3258     0.0019    23.9998 </r>
       <r>    24.3421     0.0016    23.9998 </r>
       <r>    24.3584     0.0012    23.9998 </r>
       <r>    24.3747     0.0009    23.9998 </r>
       <r>    24.3910     0.0006    23.9999 </r>
       <r>    24.4073     0.0004    23.9999 </r>
       <r>    24.4236     0.0002    23.9999 </r>
       <r>    24.4399     0.0000    23.9999 </r>
       <r>    24.4562    -0.0001    23.9999 </r>
       <r>    24.4725    -0.0002    23.9999 </r>
       <r>    24.4888    -0.0002    23.9999 </r>
       <r>    24.5051    -0.0003    23.9999 </r>
       <r>    24.5214    -0.0003    23.9998 </r>
       <r>    24.5377    -0.0003    23.9998 </r>
       <r>    24.5540    -0.0002    23.9998 </r>
       <r>    24.5703    -0.0002    23.9998 </r>
       <r>    24.5866    -0.0002    23.9998 </r>
       <r>    24.6029    -0.0002    23.9998 </r>
       <r>    24.6192    -0.0001    23.9998 </r>
       <r>    24.6355    -0.0001    23.9998 </r>
       <r>    24.6518    -0.0001    23.9998 </r>
       <r>    24.6681    -0.0000    23.9998 </r>
       <r>    24.6844    -0.0000    23.9998 </r>
       <r>    24.7007     0.0000    23.9998 </r>
       <r>    24.7171     0.0001    23.9998 </r>
       <r>    24.7334     0.0001    23.9998 </r>
       <r>    24.7497     0.0002    23.9998 </r>
       <r>    24.7660     0.0003    23.9998 </r>
       <r>    24.7823     0.0003    23.9998 </r>
       <r>    24.7986     0.0004    23.9998 </r>
       <r>    24.8149     0.0005    23.9999 </r>
       <r>    24.8312     0.0006    23.9999 </r>
       <r>    24.8475     0.0006    23.9999 </r>
       <r>    24.8638     0.0007    23.9999 </r>
       <r>    24.8801     0.0007    23.9999 </r>
       <r>    24.8964     0.0007    23.9999 </r>
       <r>    24.9127     0.0007    23.9999 </r>
       <r>    24.9290     0.0007    23.9999 </r>
       <r>    24.9453     0.0007    23.9999 </r>
       <r>    24.9616     0.0006    24.0000 </r>
       <r>    24.9779     0.0006    24.0000 </r>
       <r>    24.9942     0.0005    24.0000 </r>
       <r>    25.0105     0.0005    24.0000 </r>
       <r>    25.0268     0.0004    24.0000 </r>
       <r>    25.0431     0.0003    24.0000 </r>
       <r>    25.0594     0.0003    24.0000 </r>
       <r>    25.0757     0.0002    24.0000 </r>
       <r>    25.0920     0.0001    24.0000 </r>
       <r>    25.1083     0.0001    24.0000 </r>
       <r>    25.1247     0.0001    24.0000 </r>
       <r>    25.1410     0.0000    24.0000 </r>
       <r>    25.1573    -0.0000    24.0000 </r>
       <r>    25.1736    -0.0000    24.0000 </r>
       <r>    25.1899    -0.0000    24.0000 </r>
       <r>    25.2062    -0.0000    24.0000 </r>
       <r>    25.2225    -0.0000    24.0000 </r>
       <r>    25.2388    -0.0000    24.0000 </r>
       <r>    25.2551    -0.0000    24.0000 </r>
       <r>    25.2714    -0.0000    24.0000 </r>
       <r>    25.2877    -0.0000    24.0000 </r>
       <r>    25.3040    -0.0000    24.0000 </r>
       <r>    25.3203    -0.0000    24.0000 </r>
       <r>    25.3366    -0.0000    24.0000 </r>
       <r>    25.3529    -0.0000    24.0000 </r>
       <r>    25.3692    -0.0000    24.0000 </r>
       <r>    25.3855    -0.0000    24.0000 </r>
       <r>    25.4018    -0.0000    24.0000 </r>
       <r>    25.4181    -0.0000    24.0000 </r>
       <r>    25.4344    -0.0000    24.0000 </r>
       <r>    25.4507    -0.0000    24.0000 </r>
       <r>    25.4670    -0.0000    24.0000 </r>
       <r>    25.4833    -0.0000    24.0000 </r>
       <r>    25.4996    -0.0000    24.0000 </r>
       <r>    25.5159    -0.0000    24.0000 </r>
       <r>    25.5323    -0.0000    24.0000 </r>
       <r>    25.5486    -0.0000    24.0000 </r>
       <r>    25.5649    -0.0000    24.0000 </r>
       <r>    25.5812    -0.0000    24.0000 </r>
       <r>    25.5975    -0.0000    24.0000 </r>
       <r>    25.6138    -0.0000    24.0000 </r>
       <r>    25.6301    -0.0000    24.0000 </r>
       <r>    25.6464    -0.0000    24.0000 </r>
       <r>    25.6627    -0.0000    24.0000 </r>
       <r>    25.6790    -0.0000    24.0000 </r>
       <r>    25.6953    -0.0000    24.0000 </r>
       <r>    25.7116    -0.0000    24.0000 </r>
       <r>    25.7279    -0.0000    24.0000 </r>
       <r>    25.7442    -0.0000    24.0000 </r>
       <r>    25.7605    -0.0000    24.0000 </r>
       <r>    25.7768    -0.0000    24.0000 </r>
       <r>    25.7931    -0.0000    24.0000 </r>
       <r>    25.8094    -0.0000    24.0000 </r>
       <r>    25.8257    -0.0000    24.0000 </r>
       <r>    25.8420    -0.0000    24.0000 </r>
       <r>    25.8583    -0.0000    24.0000 </r>
       <r>    25.8746    -0.0000    24.0000 </r>
       <r>    25.8909    -0.0000    24.0000 </r>
       <r>    25.9072    -0.0000    24.0000 </r>
       <r>    25.9235    -0.0000    24.0000 </r>
       <r>    25.9399    -0.0000    24.0000 </r>
       <r>    25.9562    -0.0000    24.0000 </r>
       <r>    25.9725    -0.0000    24.0000 </r>
       <r>    25.9888    -0.0000    24.0000 </r>
       <r>    26.0051    -0.0000    24.0000 </r>
       <r>    26.0214    -0.0000    24.0000 </r>
       <r>    26.0377    -0.0000    24.0000 </r>
       <r>    26.0540    -0.0000    24.0000 </r>
       <r>    26.0703    -0.0000    24.0000 </r>
       <r>    26.0866    -0.0000    24.0000 </r>
       <r>    26.1029    -0.0000    24.0000 </r>
       <r>    26.1192    -0.0000    24.0000 </r>
       <r>    26.1355    -0.0000    24.0000 </r>
       <r>    26.1518     0.0000    24.0000 </r>
       <r>    26.1681     0.0000    24.0000 </r>
       <r>    26.1844     0.0000    24.0000 </r>
       <r>    26.2007     0.0000    24.0000 </r>
       <r>    26.2170     0.0000    24.0000 </r>
       <r>    26.2333     0.0000    24.0000 </r>
       <r>    26.2496     0.0000    24.0000 </r>
       <r>    26.2659     0.0000    24.0000 </r>
       <r>    26.2822     0.0000    24.0000 </r>
       <r>    26.2985     0.0000    24.0000 </r>
       <r>    26.3148     0.0000    24.0000 </r>
       <r>    26.3312     0.0000    24.0000 </r>
       <r>    26.3475     0.0000    24.0000 </r>
       <r>    26.3638     0.0000    24.0000 </r>
       <r>    26.3801     0.0000    24.0000 </r>
       <r>    26.3964     0.0000    24.0000 </r>
       <r>    26.4127     0.0000    24.0000 </r>
       <r>    26.4290     0.0000    24.0000 </r>
       <r>    26.4453     0.0000    24.0000 </r>
       <r>    26.4616     0.0000    24.0000 </r>
       <r>    26.4779     0.0000    24.0000 </r>
       <r>    26.4942     0.0000    24.0000 </r>
       <r>    26.5105     0.0000    24.0000 </r>
       <r>    26.5268     0.0000    24.0000 </r>
       <r>    26.5431     0.0000    24.0000 </r>
       <r>    26.5594     0.0000    24.0000 </r>
       <r>    26.5757     0.0000    24.0000 </r>
       <r>    26.5920     0.0000    24.0000 </r>
       <r>    26.6083     0.0000    24.0000 </r>
       <r>    26.6246     0.0000    24.0000 </r>
       <r>    26.6409     0.0000    24.0000 </r>
       <r>    26.6572     0.0000    24.0000 </r>
       <r>    26.6735     0.0000    24.0000 </r>
       <r>    26.6898     0.0000    24.0000 </r>
       <r>    26.7061     0.0000    24.0000 </r>
       <r>    26.7224     0.0000    24.0000 </r>
       <r>    26.7388     0.0000    24.0000 </r>
       <r>    26.7551     0.0000    24.0000 </r>
       <r>    26.7714     0.0000    24.0000 </r>
       <r>    26.7877     0.0000    24.0000 </r>
       <r>    26.8040     0.0000    24.0000 </r>
       <r>    26.8203     0.0000    24.0000 </r>
       <r>    26.8366     0.0000    24.0000 </r>
       <r>    26.8529     0.0000    24.0000 </r>
       <r>    26.8692     0.0000    24.0000 </r>
       <r>    26.8855     0.0000    24.0000 </r>
       <r>    26.9018     0.0000    24.0000 </r>
      </set>
      <set comment="spin 2">
       <r>    -5.6900     0.0000     0.0000 </r>
       <r>    -5.6737     0.0000     0.0000 </r>
       <r>    -5.6574     0.0000     0.0000 </r>
       <r>    -5.6411     0.0000     0.0000 </r>
       <r>    -5.6248     0.0000     0.0000 </r>
       <r>    -5.6085     0.0000     0.0000 </r>
       <r>    -5.5922     0.0000     0.0000 </r>
       <r>    -5.5758     0.0000     0.0000 </r>
       <r>    -5.5595     0.0000     0.0000 </r>
       <r>    -5.5432     0.0000     0.0000 </r>
       <r>    -5.5269     0.0000     0.0000 </r>
       <r>    -5.5106     0.0000     0.0000 </r>
       <r>    -5.4943     0.0000     0.0000 </r>
       <r>    -5.4780     0.0000     0.0000 </r>
       <r>    -5.4617     0.0000     0.0000 </r>
       <r>    -5.4454     0.0000     0.0000 </r>
       <r>    -5.4291     0.0000     0.0000 </r>
       <r>    -5.4128     0.0000     0.0000 </r>
       <r>    -5.3965     0.0000     0.0000 </r>
       <r>    -5.3802     0.0000     0.0000 </r>
       <r>    -5.3639     0.0000     0.0000 </r>
       <r>    -5.3476     0.0000     0.0000 </r>
       <r>    -5.3313     0.0000     0.0000 </r>
       <r>    -5.3150     0.0000     0.0000 </r>
       <r>    -5.2987    -0.0000    -0.0000 </r>
       <r>    -5.2824    -0.0000    -0.0000 </r>
       <r>    -5.2661    -0.0000    -0.0000 </r>
       <r>    -5.2498    -0.0000    -0.0000 </r>
       <r>    -5.2335    -0.0000    -0.0000 </r>
       <r>    -5.2172    -0.0000    -0.0000 </r>
       <r>    -5.2009    -0.0000    -0.0000 </r>
       <r>    -5.1846    -0.0000    -0.0000 </r>
       <r>    -5.1682    -0.0000    -0.0000 </r>
       <r>    -5.1519    -0.0000    -0.0000 </r>
       <r>    -5.1356    -0.0000    -0.0000 </r>
       <r>    -5.1193    -0.0000    -0.0000 </r>
       <r>    -5.1030    -0.0000    -0.0000 </r>
       <r>    -5.0867    -0.0000    -0.0000 </r>
       <r>    -5.0704    -0.0000    -0.0000 </r>
       <r>    -5.0541    -0.0000    -0.0000 </r>
       <r>    -5.0378    -0.0000    -0.0000 </r>
       <r>    -5.0215    -0.0000    -0.0000 </r>
       <r>    -5.0052    -0.0000    -0.0000 </r>
       <r>    -4.9889    -0.0000    -0.0000 </r>
       <r>    -4.9726    -0.0000    -0.0000 </r>
       <r>    -4.9563    -0.0000    -0.0000 </r>
       <r>    -4.9400    -0.0000    -0.0000 </r>
       <r>    -4.9237    -0.0000    -0.0000 </r>
       <r>    -4.9074    -0.0000    -0.0000 </r>
       <r>    -4.8911    -0.0000    -0.0000 </r>
       <r>    -4.8748    -0.0000    -0.0000 </r>
       <r>    -4.8585    -0.0000    -0.0000 </r>
       <r>    -4.8422    -0.0000    -0.0000 </r>
       <r>    -4.8259    -0.0000    -0.0000 </r>
       <r>    -4.8096    -0.0000    -0.0000 </r>
       <r>    -4.7933    -0.0000    -0.0000 </r>
       <r>    -4.7770    -0.0000    -0.0000 </r>
       <r>    -4.7606    -0.0000    -0.0000 </r>
       <r>    -4.7443    -0.0000    -0.0000 </r>
       <r>    -4.7280    -0.0000    -0.0000 </r>
       <r>    -4.7117    -0.0000    -0.0000 </r>
       <r>    -4.6954    -0.0000    -0.0000 </r>
       <r>    -4.6791    -0.0000    -0.0000 </r>
       <r>    -4.6628    -0.0000    -0.0000 </r>
       <r>    -4.6465    -0.0000    -0.0000 </r>
       <r>    -4.6302    -0.0000    -0.0000 </r>
       <r>    -4.6139    -0.0000    -0.0000 </r>
       <r>    -4.5976    -0.0000    -0.0000 </r>
       <r>    -4.5813    -0.0000    -0.0000 </r>
       <r>    -4.5650    -0.0000    -0.0000 </r>
       <r>    -4.5487    -0.0000    -0.0000 </r>
       <r>    -4.5324    -0.0000    -0.0000 </r>
       <r>    -4.5161    -0.0000    -0.0000 </r>
       <r>    -4.4998    -0.0000    -0.0000 </r>
       <r>    -4.4835    -0.0000    -0.0000 </r>
       <r>    -4.4672    -0.0000    -0.0000 </r>
       <r>    -4.4509    -0.0000    -0.0000 </r>
       <r>    -4.4346    -0.0000    -0.0000 </r>
       <r>    -4.4183    -0.0000    -0.0000 </r>
       <r>    -4.4020    -0.0000    -0.0000 </r>
       <r>    -4.3857    -0.0000    -0.0000 </r>
       <r>    -4.3694    -0.0000    -0.0000 </r>
       <r>    -4.3530    -0.0000    -0.0000 </r>
       <r>    -4.3367    -0.0000    -0.0000 </r>
       <r>    -4.3204    -0.0000    -0.0000 </r>
       <r>    -4.3041    -0.0000    -0.0000 </r>
       <r>    -4.2878    -0.0000    -0.0000 </r>
       <r>    -4.2715    -0.0000    -0.0000 </r>
       <r>    -4.2552    -0.0000    -0.0000 </r>
       <r>    -4.2389    -0.0000    -0.0000 </r>
       <r>    -4.2226    -0.0000    -0.0000 </r>
       <r>    -4.2063    -0.0000    -0.0000 </r>
       <r>    -4.1900    -0.0000    -0.0000 </r>
       <r>    -4.1737    -0.0000    -0.0000 </r>
       <r>    -4.1574    -0.0001    -0.0000 </r>
       <r>    -4.1411    -0.0001    -0.0000 </r>
       <r>    -4.1248    -0.0001    -0.0000 </r>
       <r>    -4.1085    -0.0001    -0.0000 </r>
       <r>    -4.0922    -0.0002    -0.0000 </r>
       <r>    -4.0759    -0.0003    -0.0000 </r>
       <r>    -4.0596    -0.0003    -0.0000 </r>
       <r>    -4.0433    -0.0004    -0.0000 </r>
       <r>    -4.0270    -0.0006    -0.0000 </r>
       <r>    -4.0107    -0.0007    -0.0000 </r>
       <r>    -3.9944    -0.0009    -0.0001 </r>
       <r>    -3.9781    -0.0011    -0.0001 </r>
       <r>    -3.9618    -0.0012    -0.0001 </r>
       <r>    -3.9454    -0.0014    -0.0001 </r>
       <r>    -3.9291    -0.0016    -0.0001 </r>
       <r>    -3.9128    -0.0017    -0.0002 </r>
       <r>    -3.8965    -0.0018    -0.0002 </r>
       <r>    -3.8802    -0.0018    -0.0002 </r>
       <r>    -3.8639    -0.0017    -0.0003 </r>
       <r>    -3.8476    -0.0014    -0.0003 </r>
       <r>    -3.8313    -0.0010    -0.0003 </r>
       <r>    -3.8150    -0.0003    -0.0003 </r>
       <r>    -3.7987     0.0007    -0.0003 </r>
       <r>    -3.7824     0.0019    -0.0003 </r>
       <r>    -3.7661     0.0034    -0.0002 </r>
       <r>    -3.7498     0.0053    -0.0001 </r>
       <r>    -3.7335     0.0075    -0.0000 </r>
       <r>    -3.7172     0.0100     0.0002 </r>
       <r>    -3.7009     0.0129     0.0004 </r>
       <r>    -3.6846     0.0161     0.0006 </r>
       <r>    -3.6683     0.0195     0.0010 </r>
       <r>    -3.6520     0.0232     0.0013 </r>
       <r>    -3.6357     0.0270     0.0018 </r>
       <r>    -3.6194     0.0310     0.0023 </r>
       <r>    -3.6031     0.0350     0.0028 </r>
       <r>    -3.5868     0.0391     0.0035 </r>
       <r>    -3.5705     0.0431     0.0042 </r>
       <r>    -3.5541     0.0470     0.0050 </r>
       <r>    -3.5378     0.0508     0.0058 </r>
       <r>    -3.5215     0.0544     0.0067 </r>
       <r>    -3.5052     0.0580     0.0076 </r>
       <r>    -3.4889     0.0613     0.0086 </r>
       <r>    -3.4726     0.0645     0.0097 </r>
       <r>    -3.4563     0.0676     0.0108 </r>
       <r>    -3.4400     0.0706     0.0119 </r>
       <r>    -3.4237     0.0734     0.0131 </r>
       <r>    -3.4074     0.0761     0.0144 </r>
       <r>    -3.3911     0.0787     0.0156 </r>
       <r>    -3.3748     0.0812     0.0170 </r>
       <r>    -3.3585     0.0836     0.0183 </r>
       <r>    -3.3422     0.0859     0.0197 </r>
       <r>    -3.3259     0.0880     0.0212 </r>
       <r>    -3.3096     0.0900     0.0226 </r>
       <r>    -3.2933     0.0918     0.0241 </r>
       <r>    -3.2770     0.0935     0.0256 </r>
       <r>    -3.2607     0.0952     0.0272 </r>
       <r>    -3.2444     0.0967     0.0288 </r>
       <r>    -3.2281     0.0982     0.0304 </r>
       <r>    -3.2118     0.0997     0.0320 </r>
       <r>    -3.1955     0.1012     0.0337 </r>
       <r>    -3.1792     0.1029     0.0353 </r>
       <r>    -3.1629     0.1047     0.0370 </r>
       <r>    -3.1465     0.1066     0.0388 </r>
       <r>    -3.1302     0.1087     0.0405 </r>
       <r>    -3.1139     0.1110     0.0424 </r>
       <r>    -3.0976     0.1134     0.0442 </r>
       <r>    -3.0813     0.1158     0.0461 </r>
       <r>    -3.0650     0.1182     0.0480 </r>
       <r>    -3.0487     0.1205     0.0500 </r>
       <r>    -3.0324     0.1227     0.0520 </r>
       <r>    -3.0161     0.1246     0.0540 </r>
       <r>    -2.9998     0.1261     0.0561 </r>
       <r>    -2.9835     0.1274     0.0582 </r>
       <r>    -2.9672     0.1283     0.0602 </r>
       <r>    -2.9509     0.1289     0.0623 </r>
       <r>    -2.9346     0.1292     0.0645 </r>
       <r>    -2.9183     0.1294     0.0666 </r>
       <r>    -2.9020     0.1297     0.0687 </r>
       <r>    -2.8857     0.1300     0.0708 </r>
       <r>    -2.8694     0.1306     0.0729 </r>
       <r>    -2.8531     0.1315     0.0751 </r>
       <r>    -2.8368     0.1329     0.0772 </r>
       <r>    -2.8205     0.1348     0.0794 </r>
       <r>    -2.8042     0.1371     0.0817 </r>
       <r>    -2.7879     0.1399     0.0839 </r>
       <r>    -2.7716     0.1430     0.0863 </r>
       <r>    -2.7553     0.1462     0.0887 </r>
       <r>    -2.7389     0.1496     0.0911 </r>
       <r>    -2.7226     0.1528     0.0936 </r>
       <r>    -2.7063     0.1557     0.0961 </r>
       <r>    -2.6900     0.1582     0.0987 </r>
       <r>    -2.6737     0.1602     0.1013 </r>
       <r>    -2.6574     0.1616     0.1040 </r>
       <r>    -2.6411     0.1625     0.1066 </r>
       <r>    -2.6248     0.1628     0.1093 </r>
       <r>    -2.6085     0.1628     0.1119 </r>
       <r>    -2.5922     0.1624     0.1146 </r>
       <r>    -2.5759     0.1619     0.1172 </r>
       <r>    -2.5596     0.1613     0.1198 </r>
       <r>    -2.5433     0.1609     0.1225 </r>
       <r>    -2.5270     0.1608     0.1251 </r>
       <r>    -2.5107     0.1609     0.1277 </r>
       <r>    -2.4944     0.1615     0.1303 </r>
       <r>    -2.4781     0.1626     0.1330 </r>
       <r>    -2.4618     0.1640     0.1357 </r>
       <r>    -2.4455     0.1657     0.1384 </r>
       <r>    -2.4292     0.1678     0.1411 </r>
       <r>    -2.4129     0.1701     0.1439 </r>
       <r>    -2.3966     0.1726     0.1467 </r>
       <r>    -2.3803     0.1752     0.1495 </r>
       <r>    -2.3640     0.1778     0.1524 </r>
       <r>    -2.3477     0.1805     0.1554 </r>
       <r>    -2.3313     0.1832     0.1584 </r>
       <r>    -2.3150     0.1858     0.1614 </r>
       <r>    -2.2987     0.1885     0.1645 </r>
       <r>    -2.2824     0.1912     0.1676 </r>
       <r>    -2.2661     0.1938     0.1707 </r>
       <r>    -2.2498     0.1963     0.1740 </r>
       <r>    -2.2335     0.1987     0.1772 </r>
       <r>    -2.2172     0.2008     0.1805 </r>
       <r>    -2.2009     0.2026     0.1838 </r>
       <r>    -2.1846     0.2039     0.1871 </r>
       <r>    -2.1683     0.2047     0.1904 </r>
       <r>    -2.1520     0.2050     0.1938 </r>
       <r>    -2.1357     0.2046     0.1971 </r>
       <r>    -2.1194     0.2037     0.2004 </r>
       <r>    -2.1031     0.2023     0.2037 </r>
       <r>    -2.0868     0.2005     0.2070 </r>
       <r>    -2.0705     0.1986     0.2102 </r>
       <r>    -2.0542     0.1966     0.2134 </r>
       <r>    -2.0379     0.1950     0.2166 </r>
       <r>    -2.0216     0.1938     0.2198 </r>
       <r>    -2.0053     0.1933     0.2229 </r>
       <r>    -1.9890     0.1938     0.2261 </r>
       <r>    -1.9727     0.1952     0.2293 </r>
       <r>    -1.9564     0.1978     0.2325 </r>
       <r>    -1.9400     0.2014     0.2358 </r>
       <r>    -1.9237     0.2060     0.2391 </r>
       <r>    -1.9074     0.2114     0.2426 </r>
       <r>    -1.8911     0.2174     0.2461 </r>
       <r>    -1.8748     0.2236     0.2498 </r>
       <r>    -1.8585     0.2299     0.2535 </r>
       <r>    -1.8422     0.2358     0.2574 </r>
       <r>    -1.8259     0.2411     0.2613 </r>
       <r>    -1.8096     0.2455     0.2653 </r>
       <r>    -1.7933     0.2488     0.2694 </r>
       <r>    -1.7770     0.2509     0.2734 </r>
       <r>    -1.7607     0.2518     0.2776 </r>
       <r>    -1.7444     0.2515     0.2817 </r>
       <r>    -1.7281     0.2501     0.2857 </r>
       <r>    -1.7118     0.2478     0.2898 </r>
       <r>    -1.6955     0.2448     0.2938 </r>
       <r>    -1.6792     0.2415     0.2977 </r>
       <r>    -1.6629     0.2382     0.3016 </r>
       <r>    -1.6466     0.2350     0.3054 </r>
       <r>    -1.6303     0.2323     0.3092 </r>
       <r>    -1.6140     0.2303     0.3130 </r>
       <r>    -1.5977     0.2293     0.3167 </r>
       <r>    -1.5814     0.2292     0.3204 </r>
       <r>    -1.5651     0.2302     0.3242 </r>
       <r>    -1.5488     0.2324     0.3280 </r>
       <r>    -1.5324     0.2356     0.3318 </r>
       <r>    -1.5161     0.2397     0.3357 </r>
       <r>    -1.4998     0.2447     0.3397 </r>
       <r>    -1.4835     0.2503     0.3438 </r>
       <r>    -1.4672     0.2562     0.3480 </r>
       <r>    -1.4509     0.2624     0.3522 </r>
       <r>    -1.4346     0.2686     0.3566 </r>
       <r>    -1.4183     0.2745     0.3611 </r>
       <r>    -1.4020     0.2799     0.3657 </r>
       <r>    -1.3857     0.2846     0.3703 </r>
       <r>    -1.3694     0.2886     0.3750 </r>
       <r>    -1.3531     0.2917     0.3798 </r>
       <r>    -1.3368     0.2940     0.3846 </r>
       <r>    -1.3205     0.2954     0.3894 </r>
       <r>    -1.3042     0.2962     0.3942 </r>
       <r>    -1.2879     0.2964     0.3990 </r>
       <r>    -1.2716     0.2963     0.4039 </r>
       <r>    -1.2553     0.2961     0.4087 </r>
       <r>    -1.2390     0.2961     0.4135 </r>
       <r>    -1.2227     0.2966     0.4184 </r>
       <r>    -1.2064     0.2978     0.4232 </r>
       <r>    -1.1901     0.2997     0.4281 </r>
       <r>    -1.1738     0.3025     0.4330 </r>
       <r>    -1.1575     0.3062     0.4380 </r>
       <r>    -1.1412     0.3106     0.4431 </r>
       <r>    -1.1248     0.3155     0.4482 </r>
       <r>    -1.1085     0.3208     0.4535 </r>
       <r>    -1.0922     0.3260     0.4588 </r>
       <r>    -1.0759     0.3309     0.4642 </r>
       <r>    -1.0596     0.3352     0.4696 </r>
       <r>    -1.0433     0.3386     0.4752 </r>
       <r>    -1.0270     0.3409     0.4807 </r>
       <r>    -1.0107     0.3419     0.4863 </r>
       <r>    -0.9944     0.3416     0.4919 </r>
       <r>    -0.9781     0.3400     0.4974 </r>
       <r>    -0.9618     0.3372     0.5029 </r>
       <r>    -0.9455     0.3334     0.5083 </r>
       <r>    -0.9292     0.3289     0.5137 </r>
       <r>    -0.9129     0.3240     0.5190 </r>
       <r>    -0.8966     0.3189     0.5242 </r>
       <r>    -0.8803     0.3140     0.5293 </r>
       <r>    -0.8640     0.3096     0.5343 </r>
       <r>    -0.8477     0.3060     0.5393 </r>
       <r>    -0.8314     0.3034     0.5443 </r>
       <r>    -0.8151     0.3019     0.5492 </r>
       <r>    -0.7988     0.3016     0.5541 </r>
       <r>    -0.7825     0.3025     0.5591 </r>
       <r>    -0.7662     0.3045     0.5640 </r>
       <r>    -0.7499     0.3073     0.5690 </r>
       <r>    -0.7336     0.3107     0.5741 </r>
       <r>    -0.7172     0.3143     0.5792 </r>
       <r>    -0.7009     0.3177     0.5844 </r>
       <r>    -0.6846     0.3205     0.5896 </r>
       <r>    -0.6683     0.3223     0.5949 </r>
       <r>    -0.6520     0.3229     0.6001 </r>
       <r>    -0.6357     0.3220     0.6054 </r>
       <r>    -0.6194     0.3197     0.6106 </r>
       <r>    -0.6031     0.3158     0.6158 </r>
       <r>    -0.5868     0.3106     0.6208 </r>
       <r>    -0.5705     0.3046     0.6258 </r>
       <r>    -0.5542     0.2979     0.6306 </r>
       <r>    -0.5379     0.2913     0.6354 </r>
       <r>    -0.5216     0.2851     0.6400 </r>
       <r>    -0.5053     0.2799     0.6446 </r>
       <r>    -0.4890     0.2760     0.6491 </r>
       <r>    -0.4727     0.2739     0.6536 </r>
       <r>    -0.4564     0.2737     0.6580 </r>
       <r>    -0.4401     0.2753     0.6625 </r>
       <r>    -0.4238     0.2788     0.6671 </r>
       <r>    -0.4075     0.2838     0.6717 </r>
       <r>    -0.3912     0.2899     0.6764 </r>
       <r>    -0.3749     0.2967     0.6813 </r>
       <r>    -0.3586     0.3036     0.6862 </r>
       <r>    -0.3423     0.3103     0.6913 </r>
       <r>    -0.3259     0.3161     0.6964 </r>
       <r>    -0.3096     0.3209     0.7016 </r>
       <r>    -0.2933     0.3242     0.7069 </r>
       <r>    -0.2770     0.3260     0.7122 </r>
       <r>    -0.2607     0.3264     0.7176 </r>
       <r>    -0.2444     0.3255     0.7229 </r>
       <r>    -0.2281     0.3236     0.7282 </r>
       <r>    -0.2118     0.3210     0.7334 </r>
       <r>    -0.1955     0.3182     0.7386 </r>
       <r>    -0.1792     0.3157     0.7437 </r>
       <r>    -0.1629     0.3138     0.7488 </r>
       <r>    -0.1466     0.3129     0.7539 </r>
       <r>    -0.1303     0.3133     0.7590 </r>
       <r>    -0.1140     0.3152     0.7642 </r>
       <r>    -0.0977     0.3186     0.7694 </r>
       <r>    -0.0814     0.3235     0.7747 </r>
       <r>    -0.0651     0.3298     0.7800 </r>
       <r>    -0.0488     0.3370     0.7855 </r>
       <r>    -0.0325     0.3451     0.7912 </r>
       <r>    -0.0162     0.3535     0.7969 </r>
       <r>     0.0001     0.3621     0.8028 </r>
       <r>     0.0164     0.3704     0.8089 </r>
       <r>     0.0327     0.3781     0.8150 </r>
       <r>     0.0490     0.3852     0.8213 </r>
       <r>     0.0653     0.3914     0.8277 </r>
       <r>     0.0817     0.3966     0.8342 </r>
       <r>     0.0980     0.4008     0.8407 </r>
       <r>     0.1143     0.4041     0.8473 </r>
       <r>     0.1306     0.4065     0.8539 </r>
       <r>     0.1469     0.4080     0.8606 </r>
       <r>     0.1632     0.4089     0.8672 </r>
       <r>     0.1795     0.4092     0.8739 </r>
       <r>     0.1958     0.4090     0.8806 </r>
       <r>     0.2121     0.4084     0.8872 </r>
       <r>     0.2284     0.4074     0.8939 </r>
       <r>     0.2447     0.4063     0.9005 </r>
       <r>     0.2610     0.4051     0.9071 </r>
       <r>     0.2773     0.4040     0.9137 </r>
       <r>     0.2936     0.4031     0.9203 </r>
       <r>     0.3099     0.4026     0.9268 </r>
       <r>     0.3262     0.4028     0.9334 </r>
       <r>     0.3425     0.4037     0.9400 </r>
       <r>     0.3588     0.4057     0.9466 </r>
       <r>     0.3751     0.4089     0.9532 </r>
       <r>     0.3914     0.4134     0.9600 </r>
       <r>     0.4077     0.4194     0.9668 </r>
       <r>     0.4240     0.4269     0.9738 </r>
       <r>     0.4403     0.4359     0.9809 </r>
       <r>     0.4566     0.4463     0.9882 </r>
       <r>     0.4729     0.4579     0.9956 </r>
       <r>     0.4893     0.4705     1.0033 </r>
       <r>     0.5056     0.4839     1.0112 </r>
       <r>     0.5219     0.4976     1.0193 </r>
       <r>     0.5382     0.5113     1.0276 </r>
       <r>     0.5545     0.5245     1.0362 </r>
       <r>     0.5708     0.5368     1.0449 </r>
       <r>     0.5871     0.5476     1.0539 </r>
       <r>     0.6034     0.5567     1.0630 </r>
       <r>     0.6197     0.5634     1.0721 </r>
       <r>     0.6360     0.5675     1.0814 </r>
       <r>     0.6523     0.5687     1.0907 </r>
       <r>     0.6686     0.5666     1.0999 </r>
       <r>     0.6849     0.5613     1.1091 </r>
       <r>     0.7012     0.5525     1.1181 </r>
       <r>     0.7175     0.5405     1.1269 </r>
       <r>     0.7338     0.5254     1.1354 </r>
       <r>     0.7501     0.5076     1.1437 </r>
       <r>     0.7664     0.4876     1.1517 </r>
       <r>     0.7827     0.4659     1.1593 </r>
       <r>     0.7990     0.4433     1.1665 </r>
       <r>     0.8153     0.4203     1.1733 </r>
       <r>     0.8316     0.3977     1.1798 </r>
       <r>     0.8479     0.3762     1.1860 </r>
       <r>     0.8642     0.3566     1.1918 </r>
       <r>     0.8805     0.3392     1.1973 </r>
       <r>     0.8969     0.3246     1.2026 </r>
       <r>     0.9132     0.3131     1.2077 </r>
       <r>     0.9295     0.3048     1.2127 </r>
       <r>     0.9458     0.2998     1.2176 </r>
       <r>     0.9621     0.2980     1.2224 </r>
       <r>     0.9784     0.2991     1.2273 </r>
       <r>     0.9947     0.3029     1.2322 </r>
       <r>     1.0110     0.3090     1.2373 </r>
       <r>     1.0273     0.3169     1.2424 </r>
       <r>     1.0436     0.3264     1.2478 </r>
       <r>     1.0599     0.3370     1.2533 </r>
       <r>     1.0762     0.3483     1.2589 </r>
       <r>     1.0925     0.3601     1.2648 </r>
       <r>     1.1088     0.3721     1.2709 </r>
       <r>     1.1251     0.3841     1.2771 </r>
       <r>     1.1414     0.3959     1.2836 </r>
       <r>     1.1577     0.4076     1.2902 </r>
       <r>     1.1740     0.4189     1.2971 </r>
       <r>     1.1903     0.4298     1.3041 </r>
       <r>     1.2066     0.4404     1.3112 </r>
       <r>     1.2229     0.4506     1.3186 </r>
       <r>     1.2392     0.4604     1.3261 </r>
       <r>     1.2555     0.4698     1.3338 </r>
       <r>     1.2718     0.4788     1.3416 </r>
       <r>     1.2881     0.4875     1.3495 </r>
       <r>     1.3045     0.4959     1.3576 </r>
       <r>     1.3208     0.5040     1.3658 </r>
       <r>     1.3371     0.5120     1.3742 </r>
       <r>     1.3534     0.5198     1.3826 </r>
       <r>     1.3697     0.5277     1.3912 </r>
       <r>     1.3860     0.5356     1.4000 </r>
       <r>     1.4023     0.5438     1.4088 </r>
       <r>     1.4186     0.5524     1.4178 </r>
       <r>     1.4349     0.5615     1.4270 </r>
       <r>     1.4512     0.5712     1.4363 </r>
       <r>     1.4675     0.5818     1.4458 </r>
       <r>     1.4838     0.5932     1.4555 </r>
       <r>     1.5001     0.6057     1.4654 </r>
       <r>     1.5164     0.6191     1.4754 </r>
       <r>     1.5327     0.6337     1.4858 </r>
       <r>     1.5490     0.6493     1.4964 </r>
       <r>     1.5653     0.6659     1.5072 </r>
       <r>     1.5816     0.6834     1.5184 </r>
       <r>     1.5979     0.7016     1.5298 </r>
       <r>     1.6142     0.7203     1.5415 </r>
       <r>     1.6305     0.7392     1.5536 </r>
       <r>     1.6468     0.7581     1.5660 </r>
       <r>     1.6631     0.7766     1.5786 </r>
       <r>     1.6794     0.7944     1.5916 </r>
       <r>     1.6958     0.8111     1.6048 </r>
       <r>     1.7121     0.8265     1.6183 </r>
       <r>     1.7284     0.8403     1.6320 </r>
       <r>     1.7447     0.8523     1.6459 </r>
       <r>     1.7610     0.8624     1.6599 </r>
       <r>     1.7773     0.8706     1.6741 </r>
       <r>     1.7936     0.8769     1.6884 </r>
       <r>     1.8099     0.8816     1.7028 </r>
       <r>     1.8262     0.8848     1.7172 </r>
       <r>     1.8425     0.8868     1.7317 </r>
       <r>     1.8588     0.8879     1.7461 </r>
       <r>     1.8751     0.8884     1.7606 </r>
       <r>     1.8914     0.8889     1.7751 </r>
       <r>     1.9077     0.8896     1.7896 </r>
       <r>     1.9240     0.8910     1.8042 </r>
       <r>     1.9403     0.8935     1.8187 </r>
       <r>     1.9566     0.8977     1.8334 </r>
       <r>     1.9729     0.9038     1.8481 </r>
       <r>     1.9892     0.9123     1.8630 </r>
       <r>     2.0055     0.9236     1.8780 </r>
       <r>     2.0218     0.9381     1.8933 </r>
       <r>     2.0381     0.9558     1.9089 </r>
       <r>     2.0544     0.9767     1.9248 </r>
       <r>     2.0707     1.0008     1.9411 </r>
       <r>     2.0870     1.0277     1.9579 </r>
       <r>     2.1034     1.0567     1.9751 </r>
       <r>     2.1197     1.0870     1.9929 </r>
       <r>     2.1360     1.1177     2.0111 </r>
       <r>     2.1523     1.1475     2.0298 </r>
       <r>     2.1686     1.1754     2.0489 </r>
       <r>     2.1849     1.2000     2.0685 </r>
       <r>     2.2012     1.2202     2.0884 </r>
       <r>     2.2175     1.2351     2.1085 </r>
       <r>     2.2338     1.2440     2.1288 </r>
       <r>     2.2501     1.2464     2.1491 </r>
       <r>     2.2664     1.2424     2.1694 </r>
       <r>     2.2827     1.2323     2.1895 </r>
       <r>     2.2990     1.2168     2.2093 </r>
       <r>     2.3153     1.1970     2.2288 </r>
       <r>     2.3316     1.1743     2.2480 </r>
       <r>     2.3479     1.1504     2.2667 </r>
       <r>     2.3642     1.1269     2.2851 </r>
       <r>     2.3805     1.1057     2.3031 </r>
       <r>     2.3968     1.0885     2.3209 </r>
       <r>     2.4131     1.0766     2.3384 </r>
       <r>     2.4294     1.0712     2.3559 </r>
       <r>     2.4457     1.0732     2.3734 </r>
       <r>     2.4620     1.0827     2.3911 </r>
       <r>     2.4783     1.0997     2.4090 </r>
       <r>     2.4946     1.1235     2.4273 </r>
       <r>     2.5110     1.1531     2.4461 </r>
       <r>     2.5273     1.1869     2.4655 </r>
       <r>     2.5436     1.2234     2.4854 </r>
       <r>     2.5599     1.2606     2.5060 </r>
       <r>     2.5762     1.2965     2.5271 </r>
       <r>     2.5925     1.3294     2.5488 </r>
       <r>     2.6088     1.3577     2.5709 </r>
       <r>     2.6251     1.3800     2.5934 </r>
       <r>     2.6414     1.3953     2.6162 </r>
       <r>     2.6577     1.4031     2.6390 </r>
       <r>     2.6740     1.4034     2.6619 </r>
       <r>     2.6903     1.3965     2.6847 </r>
       <r>     2.7066     1.3832     2.7072 </r>
       <r>     2.7229     1.3644     2.7295 </r>
       <r>     2.7392     1.3416     2.7514 </r>
       <r>     2.7555     1.3160     2.7728 </r>
       <r>     2.7718     1.2891     2.7938 </r>
       <r>     2.7881     1.2621     2.8144 </r>
       <r>     2.8044     1.2363     2.8346 </r>
       <r>     2.8207     1.2125     2.8543 </r>
       <r>     2.8370     1.1914     2.8738 </r>
       <r>     2.8533     1.1737     2.8929 </r>
       <r>     2.8696     1.1595     2.9118 </r>
       <r>     2.8859     1.1493     2.9305 </r>
       <r>     2.9022     1.1432     2.9492 </r>
       <r>     2.9186     1.1415     2.9678 </r>
       <r>     2.9349     1.1448     2.9864 </r>
       <r>     2.9512     1.1538     3.0053 </r>
       <r>     2.9675     1.1697     3.0243 </r>
       <r>     2.9838     1.1938     3.0438 </r>
       <r>     3.0001     1.2277     3.0638 </r>
       <r>     3.0164     1.2734     3.0846 </r>
       <r>     3.0327     1.3329     3.1063 </r>
       <r>     3.0490     1.4083     3.1293 </r>
       <r>     3.0653     1.5013     3.1537 </r>
       <r>     3.0816     1.6133     3.1800 </r>
       <r>     3.0979     1.7454     3.2085 </r>
       <r>     3.1142     1.8978     3.2394 </r>
       <r>     3.1305     2.0701     3.2732 </r>
       <r>     3.1468     2.2609     3.3101 </r>
       <r>     3.1631     2.4680     3.3503 </r>
       <r>     3.1794     2.6886     3.3941 </r>
       <r>     3.1957     2.9188     3.4417 </r>
       <r>     3.2120     3.1544     3.4932 </r>
       <r>     3.2283     3.3905     3.5484 </r>
       <r>     3.2446     3.6221     3.6075 </r>
       <r>     3.2609     3.8438     3.6702 </r>
       <r>     3.2772     4.0506     3.7362 </r>
       <r>     3.2935     4.2374     3.8053 </r>
       <r>     3.3099     4.3996     3.8770 </r>
       <r>     3.3262     4.5331     3.9509 </r>
       <r>     3.3425     4.6345     4.0265 </r>
       <r>     3.3588     4.7012     4.1031 </r>
       <r>     3.3751     4.7314     4.1803 </r>
       <r>     3.3914     4.7244     4.2573 </r>
       <r>     3.4077     4.6805     4.3336 </r>
       <r>     3.4240     4.6013     4.4086 </r>
       <r>     3.4403     4.4894     4.4818 </r>
       <r>     3.4566     4.3486     4.5527 </r>
       <r>     3.4729     4.1839     4.6209 </r>
       <r>     3.4892     4.0009     4.6862 </r>
       <r>     3.5055     3.8063     4.7482 </r>
       <r>     3.5218     3.6071     4.8070 </r>
       <r>     3.5381     3.4105     4.8626 </r>
       <r>     3.5544     3.2238     4.9152 </r>
       <r>     3.5707     3.0537     4.9650 </r>
       <r>     3.5870     2.9062     5.0124 </r>
       <r>     3.6033     2.7863     5.0578 </r>
       <r>     3.6196     2.6977     5.1018 </r>
       <r>     3.6359     2.6428     5.1449 </r>
       <r>     3.6522     2.6223     5.1876 </r>
       <r>     3.6685     2.6356     5.2306 </r>
       <r>     3.6848     2.6807     5.2743 </r>
       <r>     3.7011     2.7540     5.3192 </r>
       <r>     3.7175     2.8513     5.3657 </r>
       <r>     3.7338     2.9677     5.4141 </r>
       <r>     3.7501     3.0975     5.4646 </r>
       <r>     3.7664     3.2353     5.5173 </r>
       <r>     3.7827     3.3757     5.5724 </r>
       <r>     3.7990     3.5140     5.6297 </r>
       <r>     3.8153     3.6458     5.6891 </r>
       <r>     3.8316     3.7678     5.7505 </r>
       <r>     3.8479     3.8772     5.8137 </r>
       <r>     3.8642     3.9722     5.8785 </r>
       <r>     3.8805     4.0515     5.9446 </r>
       <r>     3.8968     4.1145     6.0116 </r>
       <r>     3.9131     4.1607     6.0795 </r>
       <r>     3.9294     4.1902     6.1478 </r>
       <r>     3.9457     4.2029     6.2163 </r>
       <r>     3.9620     4.1990     6.2848 </r>
       <r>     3.9783     4.1786     6.3529 </r>
       <r>     3.9946     4.1420     6.4204 </r>
       <r>     4.0109     4.0893     6.4871 </r>
       <r>     4.0272     4.0212     6.5527 </r>
       <r>     4.0435     3.9383     6.6169 </r>
       <r>     4.0598     3.8419     6.6795 </r>
       <r>     4.0761     3.7334     6.7404 </r>
       <r>     4.0924     3.6149     6.7993 </r>
       <r>     4.1087     3.4889     6.8562 </r>
       <r>     4.1251     3.3581     6.9110 </r>
       <r>     4.1414     3.2256     6.9636 </r>
       <r>     4.1577     3.0946     7.0140 </r>
       <r>     4.1740     2.9684     7.0624 </r>
       <r>     4.1903     2.8503     7.1089 </r>
       <r>     4.2066     2.7435     7.1536 </r>
       <r>     4.2229     2.6510     7.1968 </r>
       <r>     4.2392     2.5757     7.2388 </r>
       <r>     4.2555     2.5201     7.2799 </r>
       <r>     4.2718     2.4867     7.3205 </r>
       <r>     4.2881     2.4776     7.3608 </r>
       <r>     4.3044     2.4946     7.4015 </r>
       <r>     4.3207     2.5391     7.4429 </r>
       <r>     4.3370     2.6120     7.4855 </r>
       <r>     4.3533     2.7134     7.5297 </r>
       <r>     4.3696     2.8427     7.5761 </r>
       <r>     4.3859     2.9985     7.6250 </r>
       <r>     4.4022     3.1780     7.6768 </r>
       <r>     4.4185     3.3775     7.7319 </r>
       <r>     4.4348     3.5923     7.7904 </r>
       <r>     4.4511     3.8163     7.8527 </r>
       <r>     4.4674     4.0428     7.9186 </r>
       <r>     4.4837     4.2645     7.9881 </r>
       <r>     4.5000     4.4736     8.0610 </r>
       <r>     4.5163     4.6627     8.1370 </r>
       <r>     4.5327     4.8245     8.2157 </r>
       <r>     4.5490     4.9531     8.2965 </r>
       <r>     4.5653     5.0433     8.3787 </r>
       <r>     4.5816     5.0918     8.4617 </r>
       <r>     4.5979     5.0971     8.5448 </r>
       <r>     4.6142     5.0591     8.6273 </r>
       <r>     4.6305     4.9801     8.7085 </r>
       <r>     4.6468     4.8635     8.7878 </r>
       <r>     4.6631     4.7145     8.8647 </r>
       <r>     4.6794     4.5393     8.9387 </r>
       <r>     4.6957     4.3446     9.0095 </r>
       <r>     4.7120     4.1375     9.0770 </r>
       <r>     4.7283     3.9249     9.1409 </r>
       <r>     4.7446     3.7133     9.2015 </r>
       <r>     4.7609     3.5082     9.2587 </r>
       <r>     4.7772     3.3142     9.3127 </r>
       <r>     4.7935     3.1347     9.3638 </r>
       <r>     4.8098     2.9719     9.4123 </r>
       <r>     4.8261     2.8269     9.4584 </r>
       <r>     4.8424     2.6998     9.5024 </r>
       <r>     4.8587     2.5899     9.5446 </r>
       <r>     4.8750     2.4962     9.5853 </r>
       <r>     4.8913     2.4173     9.6247 </r>
       <r>     4.9076     2.3518     9.6631 </r>
       <r>     4.9239     2.2984     9.7005 </r>
       <r>     4.9403     2.2563     9.7373 </r>
       <r>     4.9566     2.2252     9.7736 </r>
       <r>     4.9729     2.2051     9.8096 </r>
       <r>     4.9892     2.1968     9.8454 </r>
       <r>     5.0055     2.2012     9.8813 </r>
       <r>     5.0218     2.2197     9.9175 </r>
       <r>     5.0381     2.2538     9.9542 </r>
       <r>     5.0544     2.3050     9.9918 </r>
       <r>     5.0707     2.3747    10.0305 </r>
       <r>     5.0870     2.4640    10.0707 </r>
       <r>     5.1033     2.5734    10.1126 </r>
       <r>     5.1196     2.7032    10.1567 </r>
       <r>     5.1359     2.8528    10.2032 </r>
       <r>     5.1522     3.0213    10.2525 </r>
       <r>     5.1685     3.2071    10.3048 </r>
       <r>     5.1848     3.4081    10.3603 </r>
       <r>     5.2011     3.6216    10.4194 </r>
       <r>     5.2174     3.8448    10.4821 </r>
       <r>     5.2337     4.0747    10.5485 </r>
       <r>     5.2500     4.3078    10.6187 </r>
       <r>     5.2663     4.5412    10.6928 </r>
       <r>     5.2826     4.7717    10.7706 </r>
       <r>     5.2989     4.9968    10.8520 </r>
       <r>     5.3152     5.2142    10.9370 </r>
       <r>     5.3316     5.4221    11.0254 </r>
       <r>     5.3479     5.6193    11.1171 </r>
       <r>     5.3642     5.8052    11.2117 </r>
       <r>     5.3805     5.9797    11.3092 </r>
       <r>     5.3968     6.1431    11.4094 </r>
       <r>     5.4131     6.2960    11.5120 </r>
       <r>     5.4294     6.4391    11.6170 </r>
       <r>     5.4457     6.5732    11.7242 </r>
       <r>     5.4620     6.6984    11.8334 </r>
       <r>     5.4783     6.8148    11.9445 </r>
       <r>     5.4946     6.9215    12.0573 </r>
       <r>     5.5109     7.0170    12.1717 </r>
       <r>     5.5272     7.0993    12.2875 </r>
       <r>     5.5435     7.1655    12.4043 </r>
       <r>     5.5598     7.2124    12.5219 </r>
       <r>     5.5761     7.2364    12.6399 </r>
       <r>     5.5924     7.2344    12.7578 </r>
       <r>     5.6087     7.2034    12.8753 </r>
       <r>     5.6250     7.1412    12.9917 </r>
       <r>     5.6413     7.0468    13.1066 </r>
       <r>     5.6576     6.9204    13.2194 </r>
       <r>     5.6739     6.7635    13.3297 </r>
       <r>     5.6902     6.5791    13.4370 </r>
       <r>     5.7065     6.3716    13.5409 </r>
       <r>     5.7228     6.1462    13.6411 </r>
       <r>     5.7392     5.9091    13.7374 </r>
       <r>     5.7555     5.6672    13.8298 </r>
       <r>     5.7718     5.4270    13.9183 </r>
       <r>     5.7881     5.1952    14.0030 </r>
       <r>     5.8044     4.9775    14.0841 </r>
       <r>     5.8207     4.7787    14.1621 </r>
       <r>     5.8370     4.6025    14.2371 </r>
       <r>     5.8533     4.4509    14.3097 </r>
       <r>     5.8696     4.3248    14.3802 </r>
       <r>     5.8859     4.2233    14.4490 </r>
       <r>     5.9022     4.1442    14.5166 </r>
       <r>     5.9185     4.0842    14.5832 </r>
       <r>     5.9348     4.0389    14.6490 </r>
       <r>     5.9511     4.0036    14.7143 </r>
       <r>     5.9674     3.9729    14.7791 </r>
       <r>     5.9837     3.9418    14.8433 </r>
       <r>     6.0000     3.9056    14.9070 </r>
       <r>     6.0163     3.8601    14.9700 </r>
       <r>     6.0326     3.8023    15.0320 </r>
       <r>     6.0489     3.7301    15.0928 </r>
       <r>     6.0652     3.6425    15.1522 </r>
       <r>     6.0815     3.5399    15.2099 </r>
       <r>     6.0978     3.4236    15.2657 </r>
       <r>     6.1141     3.2958    15.3194 </r>
       <r>     6.1304     3.1596    15.3709 </r>
       <r>     6.1468     3.0187    15.4202 </r>
       <r>     6.1631     2.8770    15.4671 </r>
       <r>     6.1794     2.7383    15.5117 </r>
       <r>     6.1957     2.6067    15.5542 </r>
       <r>     6.2120     2.4856    15.5947 </r>
       <r>     6.2283     2.3783    15.6335 </r>
       <r>     6.2446     2.2872    15.6708 </r>
       <r>     6.2609     2.2143    15.7069 </r>
       <r>     6.2772     2.1609    15.7421 </r>
       <r>     6.2935     2.1276    15.7768 </r>
       <r>     6.3098     2.1143    15.8113 </r>
       <r>     6.3261     2.1203    15.8459 </r>
       <r>     6.3424     2.1442    15.8808 </r>
       <r>     6.3587     2.1839    15.9164 </r>
       <r>     6.3750     2.2371    15.9529 </r>
       <r>     6.3913     2.3006    15.9904 </r>
       <r>     6.4076     2.3713    16.0291 </r>
       <r>     6.4239     2.4453    16.0689 </r>
       <r>     6.4402     2.5191    16.1100 </r>
       <r>     6.4565     2.5889    16.1522 </r>
       <r>     6.4728     2.6511    16.1954 </r>
       <r>     6.4891     2.7025    16.2395 </r>
       <r>     6.5054     2.7402    16.2842 </r>
       <r>     6.5217     2.7619    16.3292 </r>
       <r>     6.5380     2.7659    16.3743 </r>
       <r>     6.5544     2.7515    16.4192 </r>
       <r>     6.5707     2.7181    16.4635 </r>
       <r>     6.5870     2.6663    16.5070 </r>
       <r>     6.6033     2.5971    16.5493 </r>
       <r>     6.6196     2.5118    16.5903 </r>
       <r>     6.6359     2.4125    16.6296 </r>
       <r>     6.6522     2.3012    16.6671 </r>
       <r>     6.6685     2.1802    16.7027 </r>
       <r>     6.6848     2.0519    16.7361 </r>
       <r>     6.7011     1.9187    16.7674 </r>
       <r>     6.7174     1.7827    16.7965 </r>
       <r>     6.7337     1.6461    16.8233 </r>
       <r>     6.7500     1.5108    16.8479 </r>
       <r>     6.7663     1.3786    16.8704 </r>
       <r>     6.7826     1.2508    16.8908 </r>
       <r>     6.7989     1.1290    16.9092 </r>
       <r>     6.8152     1.0142    16.9257 </r>
       <r>     6.8315     0.9073    16.9405 </r>
       <r>     6.8478     0.8091    16.9537 </r>
       <r>     6.8641     0.7202    16.9655 </r>
       <r>     6.8804     0.6408    16.9759 </r>
       <r>     6.8967     0.5710    16.9852 </r>
       <r>     6.9130     0.5109    16.9936 </r>
       <r>     6.9293     0.4600    17.0011 </r>
       <r>     6.9457     0.4180    17.0079 </r>
       <r>     6.9620     0.3841    17.0141 </r>
       <r>     6.9783     0.3577    17.0200 </r>
       <r>     6.9946     0.3378    17.0255 </r>
       <r>     7.0109     0.3236    17.0307 </r>
       <r>     7.0272     0.3141    17.0359 </r>
       <r>     7.0435     0.3083    17.0409 </r>
       <r>     7.0598     0.3055    17.0459 </r>
       <r>     7.0761     0.3047    17.0508 </r>
       <r>     7.0924     0.3052    17.0558 </r>
       <r>     7.1087     0.3066    17.0608 </r>
       <r>     7.1250     0.3083    17.0658 </r>
       <r>     7.1413     0.3100    17.0709 </r>
       <r>     7.1576     0.3115    17.0760 </r>
       <r>     7.1739     0.3129    17.0811 </r>
       <r>     7.1902     0.3141    17.0862 </r>
       <r>     7.2065     0.3153    17.0913 </r>
       <r>     7.2228     0.3167    17.0965 </r>
       <r>     7.2391     0.3186    17.1017 </r>
       <r>     7.2554     0.3213    17.1069 </r>
       <r>     7.2717     0.3251    17.1122 </r>
       <r>     7.2880     0.3303    17.1176 </r>
       <r>     7.3043     0.3372    17.1231 </r>
       <r>     7.3206     0.3461    17.1288 </r>
       <r>     7.3369     0.3572    17.1346 </r>
       <r>     7.3533     0.3707    17.1406 </r>
       <r>     7.3696     0.3869    17.1469 </r>
       <r>     7.3859     0.4059    17.1536 </r>
       <r>     7.4022     0.4277    17.1605 </r>
       <r>     7.4185     0.4523    17.1679 </r>
       <r>     7.4348     0.4799    17.1757 </r>
       <r>     7.4511     0.5101    17.1840 </r>
       <r>     7.4674     0.5429    17.1929 </r>
       <r>     7.4837     0.5779    17.2023 </r>
       <r>     7.5000     0.6149    17.2123 </r>
       <r>     7.5163     0.6534    17.2230 </r>
       <r>     7.5326     0.6930    17.2343 </r>
       <r>     7.5489     0.7334    17.2462 </r>
       <r>     7.5652     0.7740    17.2589 </r>
       <r>     7.5815     0.8144    17.2721 </r>
       <r>     7.5978     0.8542    17.2861 </r>
       <r>     7.6141     0.8930    17.3006 </r>
       <r>     7.6304     0.9304    17.3158 </r>
       <r>     7.6467     0.9662    17.3315 </r>
       <r>     7.6630     0.9999    17.3478 </r>
       <r>     7.6793     1.0313    17.3647 </r>
       <r>     7.6956     1.0599    17.3819 </r>
       <r>     7.7119     1.0856    17.3996 </r>
       <r>     7.7282     1.1078    17.4177 </r>
       <r>     7.7445     1.1262    17.4361 </r>
       <r>     7.7609     1.1405    17.4547 </r>
       <r>     7.7772     1.1503    17.4734 </r>
       <r>     7.7935     1.1553    17.4923 </r>
       <r>     7.8098     1.1554    17.5111 </r>
       <r>     7.8261     1.1503    17.5298 </r>
       <r>     7.8424     1.1401    17.5484 </r>
       <r>     7.8587     1.1251    17.5668 </r>
       <r>     7.8750     1.1055    17.5848 </r>
       <r>     7.8913     1.0819    17.6024 </r>
       <r>     7.9076     1.0548    17.6196 </r>
       <r>     7.9239     1.0249    17.6364 </r>
       <r>     7.9402     0.9931    17.6525 </r>
       <r>     7.9565     0.9603    17.6682 </r>
       <r>     7.9728     0.9274    17.6833 </r>
       <r>     7.9891     0.8951    17.6979 </r>
       <r>     8.0054     0.8644    17.7120 </r>
       <r>     8.0217     0.8358    17.7256 </r>
       <r>     8.0380     0.8101    17.7388 </r>
       <r>     8.0543     0.7875    17.7517 </r>
       <r>     8.0706     0.7685    17.7642 </r>
       <r>     8.0869     0.7531    17.7765 </r>
       <r>     8.1032     0.7412    17.7886 </r>
       <r>     8.1195     0.7327    17.8005 </r>
       <r>     8.1358     0.7272    17.8124 </r>
       <r>     8.1521     0.7242    17.8242 </r>
       <r>     8.1685     0.7231    17.8360 </r>
       <r>     8.1848     0.7233    17.8478 </r>
       <r>     8.2011     0.7242    17.8596 </r>
       <r>     8.2174     0.7252    17.8714 </r>
       <r>     8.2337     0.7258    17.8832 </r>
       <r>     8.2500     0.7255    17.8951 </r>
       <r>     8.2663     0.7241    17.9069 </r>
       <r>     8.2826     0.7214    17.9186 </r>
       <r>     8.2989     0.7175    17.9303 </r>
       <r>     8.3152     0.7124    17.9419 </r>
       <r>     8.3315     0.7064    17.9535 </r>
       <r>     8.3478     0.6998    17.9649 </r>
       <r>     8.3641     0.6930    17.9762 </r>
       <r>     8.3804     0.6862    17.9874 </r>
       <r>     8.3967     0.6798    17.9984 </r>
       <r>     8.4130     0.6739    18.0094 </r>
       <r>     8.4293     0.6686    18.0203 </r>
       <r>     8.4456     0.6639    18.0311 </r>
       <r>     8.4619     0.6595    18.0419 </r>
       <r>     8.4782     0.6552    18.0526 </r>
       <r>     8.4945     0.6508    18.0632 </r>
       <r>     8.5108     0.6459    18.0737 </r>
       <r>     8.5271     0.6402    18.0842 </r>
       <r>     8.5434     0.6336    18.0945 </r>
       <r>     8.5598     0.6258    18.1047 </r>
       <r>     8.5761     0.6170    18.1148 </r>
       <r>     8.5924     0.6073    18.1247 </r>
       <r>     8.6087     0.5968    18.1344 </r>
       <r>     8.6250     0.5860    18.1439 </r>
       <r>     8.6413     0.5751    18.1533 </r>
       <r>     8.6576     0.5646    18.1625 </r>
       <r>     8.6739     0.5547    18.1716 </r>
       <r>     8.6902     0.5459    18.1805 </r>
       <r>     8.7065     0.5383    18.1892 </r>
       <r>     8.7228     0.5320    18.1979 </r>
       <r>     8.7391     0.5270    18.2065 </r>
       <r>     8.7554     0.5233    18.2150 </r>
       <r>     8.7717     0.5208    18.2235 </r>
       <r>     8.7880     0.5192    18.2320 </r>
       <r>     8.8043     0.5184    18.2404 </r>
       <r>     8.8206     0.5183    18.2489 </r>
       <r>     8.8369     0.5186    18.2574 </r>
       <r>     8.8532     0.5192    18.2658 </r>
       <r>     8.8695     0.5200    18.2743 </r>
       <r>     8.8858     0.5211    18.2828 </r>
       <r>     8.9021     0.5222    18.2913 </r>
       <r>     8.9184     0.5235    18.2998 </r>
       <r>     8.9347     0.5250    18.3084 </r>
       <r>     8.9510     0.5266    18.3170 </r>
       <r>     8.9674     0.5283    18.3256 </r>
       <r>     8.9837     0.5301    18.3342 </r>
       <r>     9.0000     0.5317    18.3429 </r>
       <r>     9.0163     0.5331    18.3516 </r>
       <r>     9.0326     0.5340    18.3603 </r>
       <r>     9.0489     0.5343    18.3690 </r>
       <r>     9.0652     0.5337    18.3777 </r>
       <r>     9.0815     0.5319    18.3864 </r>
       <r>     9.0978     0.5288    18.3950 </r>
       <r>     9.1141     0.5242    18.4036 </r>
       <r>     9.1304     0.5181    18.4120 </r>
       <r>     9.1467     0.5104    18.4203 </r>
       <r>     9.1630     0.5012    18.4285 </r>
       <r>     9.1793     0.4908    18.4365 </r>
       <r>     9.1956     0.4793    18.4443 </r>
       <r>     9.2119     0.4670    18.4519 </r>
       <r>     9.2282     0.4545    18.4593 </r>
       <r>     9.2445     0.4420    18.4665 </r>
       <r>     9.2608     0.4300    18.4736 </r>
       <r>     9.2771     0.4188    18.4804 </r>
       <r>     9.2934     0.4088    18.4871 </r>
       <r>     9.3097     0.4003    18.4936 </r>
       <r>     9.3260     0.3933    18.5000 </r>
       <r>     9.3423     0.3879    18.5063 </r>
       <r>     9.3586     0.3841    18.5126 </r>
       <r>     9.3750     0.3818    18.5188 </r>
       <r>     9.3913     0.3806    18.5250 </r>
       <r>     9.4076     0.3804    18.5312 </r>
       <r>     9.4239     0.3807    18.5374 </r>
       <r>     9.4402     0.3812    18.5436 </r>
       <r>     9.4565     0.3818    18.5499 </r>
       <r>     9.4728     0.3820    18.5561 </r>
       <r>     9.4891     0.3819    18.5623 </r>
       <r>     9.5054     0.3814    18.5685 </r>
       <r>     9.5217     0.3805    18.5747 </r>
       <r>     9.5380     0.3795    18.5809 </r>
       <r>     9.5543     0.3784    18.5871 </r>
       <r>     9.5706     0.3777    18.5933 </r>
       <r>     9.5869     0.3775    18.5994 </r>
       <r>     9.6032     0.3782    18.6056 </r>
       <r>     9.6195     0.3799    18.6118 </r>
       <r>     9.6358     0.3826    18.6180 </r>
       <r>     9.6521     0.3864    18.6243 </r>
       <r>     9.6684     0.3910    18.6307 </r>
       <r>     9.6847     0.3963    18.6371 </r>
       <r>     9.7010     0.4019    18.6437 </r>
       <r>     9.7173     0.4072    18.6503 </r>
       <r>     9.7336     0.4120    18.6570 </r>
       <r>     9.7499     0.4157    18.6638 </r>
       <r>     9.7662     0.4179    18.6706 </r>
       <r>     9.7826     0.4184    18.6775 </r>
       <r>     9.7989     0.4169    18.6843 </r>
       <r>     9.8152     0.4133    18.6910 </r>
       <r>     9.8315     0.4075    18.6976 </r>
       <r>     9.8478     0.3995    18.7042 </r>
       <r>     9.8641     0.3896    18.7105 </r>
       <r>     9.8804     0.3778    18.7167 </r>
       <r>     9.8967     0.3645    18.7226 </r>
       <r>     9.9130     0.3499    18.7283 </r>
       <r>     9.9293     0.3343    18.7338 </r>
       <r>     9.9456     0.3179    18.7389 </r>
       <r>     9.9619     0.3011    18.7439 </r>
       <r>     9.9782     0.2842    18.7485 </r>
       <r>     9.9945     0.2677    18.7529 </r>
       <r>    10.0108     0.2519    18.7570 </r>
       <r>    10.0271     0.2373    18.7608 </r>
       <r>    10.0434     0.2243    18.7645 </r>
       <r>    10.0597     0.2135    18.7680 </r>
       <r>    10.0760     0.2052    18.7713 </r>
       <r>    10.0923     0.1998    18.7746 </r>
       <r>    10.1086     0.1977    18.7778 </r>
       <r>    10.1249     0.1990    18.7810 </r>
       <r>    10.1412     0.2038    18.7844 </r>
       <r>    10.1575     0.2120    18.7878 </r>
       <r>    10.1738     0.2233    18.7915 </r>
       <r>    10.1902     0.2373    18.7953 </r>
       <r>    10.2065     0.2535    18.7995 </r>
       <r>    10.2228     0.2712    18.8039 </r>
       <r>    10.2391     0.2897    18.8086 </r>
       <r>    10.2554     0.3082    18.8136 </r>
       <r>    10.2717     0.3260    18.8189 </r>
       <r>    10.2880     0.3425    18.8245 </r>
       <r>    10.3043     0.3572    18.8304 </r>
       <r>    10.3206     0.3696    18.8364 </r>
       <r>    10.3369     0.3795    18.8426 </r>
       <r>    10.3532     0.3869    18.8489 </r>
       <r>    10.3695     0.3917    18.8553 </r>
       <r>    10.3858     0.3943    18.8617 </r>
       <r>    10.4021     0.3949    18.8681 </r>
       <r>    10.4184     0.3940    18.8746 </r>
       <r>    10.4347     0.3921    18.8809 </r>
       <r>    10.4510     0.3895    18.8873 </r>
       <r>    10.4673     0.3868    18.8936 </r>
       <r>    10.4836     0.3844    18.8999 </r>
       <r>    10.4999     0.3826    18.9061 </r>
       <r>    10.5162     0.3818    18.9123 </r>
       <r>    10.5325     0.3820    18.9186 </r>
       <r>    10.5488     0.3835    18.9248 </r>
       <r>    10.5651     0.3861    18.9311 </r>
       <r>    10.5815     0.3898    18.9375 </r>
       <r>    10.5978     0.3945    18.9439 </r>
       <r>    10.6141     0.4000    18.9504 </r>
       <r>    10.6304     0.4061    18.9570 </r>
       <r>    10.6467     0.4126    18.9638 </r>
       <r>    10.6630     0.4194    18.9706 </r>
       <r>    10.6793     0.4263    18.9775 </r>
       <r>    10.6956     0.4332    18.9846 </r>
       <r>    10.7119     0.4401    18.9918 </r>
       <r>    10.7282     0.4471    18.9991 </r>
       <r>    10.7445     0.4543    19.0065 </r>
       <r>    10.7608     0.4618    19.0140 </r>
       <r>    10.7771     0.4699    19.0217 </r>
       <r>    10.7934     0.4788    19.0295 </r>
       <r>    10.8097     0.4888    19.0375 </r>
       <r>    10.8260     0.5000    19.0456 </r>
       <r>    10.8423     0.5127    19.0540 </r>
       <r>    10.8586     0.5271    19.0626 </r>
       <r>    10.8749     0.5430    19.0714 </r>
       <r>    10.8912     0.5606    19.0805 </r>
       <r>    10.9075     0.5795    19.0900 </r>
       <r>    10.9238     0.5996    19.0998 </r>
       <r>    10.9401     0.6204    19.1099 </r>
       <r>    10.9564     0.6416    19.1203 </r>
       <r>    10.9727     0.6626    19.1311 </r>
       <r>    10.9891     0.6830    19.1423 </r>
       <r>    11.0054     0.7022    19.1537 </r>
       <r>    11.0217     0.7199    19.1655 </r>
       <r>    11.0380     0.7356    19.1775 </r>
       <r>    11.0543     0.7492    19.1897 </r>
       <r>    11.0706     0.7604    19.2021 </r>
       <r>    11.0869     0.7692    19.2146 </r>
       <r>    11.1032     0.7757    19.2273 </r>
       <r>    11.1195     0.7800    19.2400 </r>
       <r>    11.1358     0.7823    19.2527 </r>
       <r>    11.1521     0.7829    19.2655 </r>
       <r>    11.1684     0.7822    19.2783 </r>
       <r>    11.1847     0.7804    19.2910 </r>
       <r>    11.2010     0.7780    19.3037 </r>
       <r>    11.2173     0.7750    19.3163 </r>
       <r>    11.2336     0.7720    19.3289 </r>
       <r>    11.2499     0.7690    19.3414 </r>
       <r>    11.2662     0.7662    19.3539 </r>
       <r>    11.2825     0.7638    19.3664 </r>
       <r>    11.2988     0.7618    19.3788 </r>
       <r>    11.3151     0.7602    19.3912 </r>
       <r>    11.3314     0.7590    19.4036 </r>
       <r>    11.3477     0.7581    19.4159 </r>
       <r>    11.3640     0.7573    19.4283 </r>
       <r>    11.3803     0.7565    19.4406 </r>
       <r>    11.3967     0.7555    19.4529 </r>
       <r>    11.4130     0.7539    19.4652 </r>
       <r>    11.4293     0.7515    19.4775 </r>
       <r>    11.4456     0.7481    19.4897 </r>
       <r>    11.4619     0.7434    19.5018 </r>
       <r>    11.4782     0.7372    19.5138 </r>
       <r>    11.4945     0.7294    19.5257 </r>
       <r>    11.5108     0.7199    19.5374 </r>
       <r>    11.5271     0.7087    19.5490 </r>
       <r>    11.5434     0.6962    19.5603 </r>
       <r>    11.5597     0.6827    19.5715 </r>
       <r>    11.5760     0.6686    19.5824 </r>
       <r>    11.5923     0.6544    19.5930 </r>
       <r>    11.6086     0.6409    19.6035 </r>
       <r>    11.6249     0.6287    19.6137 </r>
       <r>    11.6412     0.6184    19.6238 </r>
       <r>    11.6575     0.6105    19.6338 </r>
       <r>    11.6738     0.6053    19.6436 </r>
       <r>    11.6901     0.6031    19.6535 </r>
       <r>    11.7064     0.6037    19.6633 </r>
       <r>    11.7227     0.6069    19.6732 </r>
       <r>    11.7390     0.6122    19.6832 </r>
       <r>    11.7553     0.6188    19.6933 </r>
       <r>    11.7716     0.6260    19.7035 </r>
       <r>    11.7879     0.6330    19.7138 </r>
       <r>    11.8043     0.6389    19.7242 </r>
       <r>    11.8206     0.6430    19.7347 </r>
       <r>    11.8369     0.6450    19.7452 </r>
       <r>    11.8532     0.6445    19.7557 </r>
       <r>    11.8695     0.6415    19.7662 </r>
       <r>    11.8858     0.6363    19.7766 </r>
       <r>    11.9021     0.6293    19.7868 </r>
       <r>    11.9184     0.6211    19.7969 </r>
       <r>    11.9347     0.6125    19.8069 </r>
       <r>    11.9510     0.6043    19.8168 </r>
       <r>    11.9673     0.5969    19.8265 </r>
       <r>    11.9836     0.5911    19.8362 </r>
       <r>    11.9999     0.5871    19.8457 </r>
       <r>    12.0162     0.5851    19.8553 </r>
       <r>    12.0325     0.5849    19.8648 </r>
       <r>    12.0488     0.5862    19.8744 </r>
       <r>    12.0651     0.5887    19.8840 </r>
       <r>    12.0814     0.5916    19.8936 </r>
       <r>    12.0977     0.5943    19.9033 </r>
       <r>    12.1140     0.5962    19.9130 </r>
       <r>    12.1303     0.5967    19.9227 </r>
       <r>    12.1466     0.5955    19.9325 </r>
       <r>    12.1629     0.5924    19.9421 </r>
       <r>    12.1792     0.5873    19.9517 </r>
       <r>    12.1956     0.5805    19.9611 </r>
       <r>    12.2119     0.5723    19.9705 </r>
       <r>    12.2282     0.5634    19.9797 </r>
       <r>    12.2445     0.5544    19.9887 </r>
       <r>    12.2608     0.5460    19.9976 </r>
       <r>    12.2771     0.5389    20.0064 </r>
       <r>    12.2934     0.5336    20.0151 </r>
       <r>    12.3097     0.5306    20.0237 </r>
       <r>    12.3260     0.5301    20.0324 </r>
       <r>    12.3423     0.5322    20.0411 </r>
       <r>    12.3586     0.5366    20.0498 </r>
       <r>    12.3749     0.5429    20.0587 </r>
       <r>    12.3912     0.5506    20.0676 </r>
       <r>    12.4075     0.5589    20.0768 </r>
       <r>    12.4238     0.5670    20.0860 </r>
       <r>    12.4401     0.5740    20.0954 </r>
       <r>    12.4564     0.5792    20.1048 </r>
       <r>    12.4727     0.5819    20.1143 </r>
       <r>    12.4890     0.5816    20.1238 </r>
       <r>    12.5053     0.5779    20.1332 </r>
       <r>    12.5216     0.5708    20.1425 </r>
       <r>    12.5379     0.5605    20.1516 </r>
       <r>    12.5542     0.5475    20.1606 </r>
       <r>    12.5705     0.5323    20.1692 </r>
       <r>    12.5868     0.5158    20.1777 </r>
       <r>    12.6032     0.4990    20.1858 </r>
       <r>    12.6195     0.4828    20.1937 </r>
       <r>    12.6358     0.4683    20.2013 </r>
       <r>    12.6521     0.4564    20.2087 </r>
       <r>    12.6684     0.4477    20.2160 </r>
       <r>    12.6847     0.4430    20.2233 </r>
       <r>    12.7010     0.4424    20.2305 </r>
       <r>    12.7173     0.4460    20.2377 </r>
       <r>    12.7336     0.4536    20.2451 </r>
       <r>    12.7499     0.4647    20.2527 </r>
       <r>    12.7662     0.4787    20.2605 </r>
       <r>    12.7825     0.4947    20.2686 </r>
       <r>    12.7988     0.5116    20.2769 </r>
       <r>    12.8151     0.5286    20.2855 </r>
       <r>    12.8314     0.5446    20.2944 </r>
       <r>    12.8477     0.5588    20.3035 </r>
       <r>    12.8640     0.5704    20.3128 </r>
       <r>    12.8803     0.5789    20.3223 </r>
       <r>    12.8966     0.5841    20.3318 </r>
       <r>    12.9129     0.5860    20.3414 </r>
       <r>    12.9292     0.5846    20.3509 </r>
       <r>    12.9455     0.5805    20.3603 </r>
       <r>    12.9618     0.5742    20.3697 </r>
       <r>    12.9781     0.5664    20.3789 </r>
       <r>    12.9944     0.5581    20.3880 </r>
       <r>    13.0108     0.5499    20.3970 </r>
       <r>    13.0271     0.5427    20.4059 </r>
       <r>    13.0434     0.5373    20.4146 </r>
       <r>    13.0597     0.5342    20.4233 </r>
       <r>    13.0760     0.5339    20.4320 </r>
       <r>    13.0923     0.5366    20.4408 </r>
       <r>    13.1086     0.5424    20.4496 </r>
       <r>    13.1249     0.5513    20.4586 </r>
       <r>    13.1412     0.5629    20.4678 </r>
       <r>    13.1575     0.5769    20.4772 </r>
       <r>    13.1738     0.5926    20.4869 </r>
       <r>    13.1901     0.6093    20.4968 </r>
       <r>    13.2064     0.6264    20.5070 </r>
       <r>    13.2227     0.6430    20.5175 </r>
       <r>    13.2390     0.6585    20.5282 </r>
       <r>    13.2553     0.6721    20.5392 </r>
       <r>    13.2716     0.6832    20.5503 </r>
       <r>    13.2879     0.6914    20.5616 </r>
       <r>    13.3042     0.6963    20.5729 </r>
       <r>    13.3205     0.6978    20.5843 </r>
       <r>    13.3368     0.6960    20.5957 </r>
       <r>    13.3531     0.6910    20.6069 </r>
       <r>    13.3694     0.6833    20.6181 </r>
       <r>    13.3857     0.6734    20.6291 </r>
       <r>    13.4020     0.6619    20.6398 </r>
       <r>    13.4184     0.6495    20.6504 </r>
       <r>    13.4347     0.6370    20.6608 </r>
       <r>    13.4510     0.6249    20.6710 </r>
       <r>    13.4673     0.6139    20.6810 </r>
       <r>    13.4836     0.6044    20.6909 </r>
       <r>    13.4999     0.5968    20.7006 </r>
       <r>    13.5162     0.5910    20.7102 </r>
       <r>    13.5325     0.5873    20.7198 </r>
       <r>    13.5488     0.5853    20.7294 </r>
       <r>    13.5651     0.5849    20.7389 </r>
       <r>    13.5814     0.5857    20.7484 </r>
       <r>    13.5977     0.5874    20.7580 </r>
       <r>    13.6140     0.5897    20.7676 </r>
       <r>    13.6303     0.5922    20.7773 </r>
       <r>    13.6466     0.5947    20.7870 </r>
       <r>    13.6629     0.5971    20.7967 </r>
       <r>    13.6792     0.5993    20.8065 </r>
       <r>    13.6955     0.6012    20.8163 </r>
       <r>    13.7118     0.6029    20.8261 </r>
       <r>    13.7281     0.6046    20.8360 </r>
       <r>    13.7444     0.6064    20.8459 </r>
       <r>    13.7607     0.6084    20.8558 </r>
       <r>    13.7770     0.6107    20.8657 </r>
       <r>    13.7933     0.6136    20.8758 </r>
       <r>    13.8096     0.6171    20.8858 </r>
       <r>    13.8260     0.6214    20.8959 </r>
       <r>    13.8423     0.6265    20.9062 </r>
       <r>    13.8586     0.6324    20.9165 </r>
       <r>    13.8749     0.6392    20.9269 </r>
       <r>    13.8912     0.6469    20.9374 </r>
       <r>    13.9075     0.6553    20.9481 </r>
       <r>    13.9238     0.6643    20.9590 </r>
       <r>    13.9401     0.6739    20.9699 </r>
       <r>    13.9564     0.6837    20.9811 </r>
       <r>    13.9727     0.6936    20.9924 </r>
       <r>    13.9890     0.7034    21.0039 </r>
       <r>    14.0053     0.7127    21.0155 </r>
       <r>    14.0216     0.7214    21.0272 </r>
       <r>    14.0379     0.7293    21.0391 </r>
       <r>    14.0542     0.7363    21.0511 </r>
       <r>    14.0705     0.7422    21.0632 </r>
       <r>    14.0868     0.7470    21.0754 </r>
       <r>    14.1031     0.7509    21.0877 </r>
       <r>    14.1194     0.7540    21.1000 </r>
       <r>    14.1357     0.7565    21.1123 </r>
       <r>    14.1520     0.7585    21.1247 </r>
       <r>    14.1683     0.7606    21.1371 </r>
       <r>    14.1846     0.7628    21.1495 </r>
       <r>    14.2009     0.7655    21.1620 </r>
       <r>    14.2173     0.7689    21.1745 </r>
       <r>    14.2336     0.7734    21.1871 </r>
       <r>    14.2499     0.7789    21.1998 </r>
       <r>    14.2662     0.7855    21.2126 </r>
       <r>    14.2825     0.7933    21.2256 </r>
       <r>    14.2988     0.8019    21.2386 </r>
       <r>    14.3151     0.8113    21.2519 </r>
       <r>    14.3314     0.8210    21.2652 </r>
       <r>    14.3477     0.8306    21.2788 </r>
       <r>    14.3640     0.8397    21.2925 </r>
       <r>    14.3803     0.8477    21.3063 </r>
       <r>    14.3966     0.8542    21.3202 </r>
       <r>    14.4129     0.8588    21.3342 </r>
       <r>    14.4292     0.8611    21.3483 </r>
       <r>    14.4455     0.8609    21.3623 </r>
       <r>    14.4618     0.8581    21.3763 </r>
       <r>    14.4781     0.8529    21.3902 </r>
       <r>    14.4944     0.8454    21.4040 </r>
       <r>    14.5107     0.8362    21.4176 </r>
       <r>    14.5270     0.8256    21.4311 </r>
       <r>    14.5433     0.8143    21.4444 </r>
       <r>    14.5596     0.8028    21.4574 </r>
       <r>    14.5759     0.7917    21.4704 </r>
       <r>    14.5922     0.7815    21.4831 </r>
       <r>    14.6085     0.7726    21.4957 </r>
       <r>    14.6249     0.7652    21.5082 </r>
       <r>    14.6412     0.7594    21.5205 </r>
       <r>    14.6575     0.7550    21.5329 </r>
       <r>    14.6738     0.7518    21.5451 </r>
       <r>    14.6901     0.7495    21.5573 </r>
       <r>    14.7064     0.7477    21.5695 </r>
       <r>    14.7227     0.7457    21.5817 </r>
       <r>    14.7390     0.7432    21.5938 </r>
       <r>    14.7553     0.7397    21.6059 </r>
       <r>    14.7716     0.7350    21.6178 </r>
       <r>    14.7879     0.7287    21.6297 </r>
       <r>    14.8042     0.7210    21.6415 </r>
       <r>    14.8205     0.7119    21.6531 </r>
       <r>    14.8368     0.7017    21.6645 </r>
       <r>    14.8531     0.6911    21.6758 </r>
       <r>    14.8694     0.6806    21.6869 </r>
       <r>    14.8857     0.6708    21.6978 </r>
       <r>    14.9020     0.6627    21.7086 </r>
       <r>    14.9183     0.6569    21.7193 </r>
       <r>    14.9346     0.6541    21.7300 </r>
       <r>    14.9509     0.6547    21.7407 </r>
       <r>    14.9672     0.6592    21.7514 </r>
       <r>    14.9835     0.6675    21.7623 </r>
       <r>    14.9998     0.6796    21.7734 </r>
       <r>    15.0161     0.6950    21.7847 </r>
       <r>    15.0325     0.7131    21.7964 </r>
       <r>    15.0488     0.7331    21.8083 </r>
       <r>    15.0651     0.7538    21.8206 </r>
       <r>    15.0814     0.7743    21.8332 </r>
       <r>    15.0977     0.7933    21.8462 </r>
       <r>    15.1140     0.8098    21.8594 </r>
       <r>    15.1303     0.8228    21.8728 </r>
       <r>    15.1466     0.8316    21.8863 </r>
       <r>    15.1629     0.8354    21.8999 </r>
       <r>    15.1792     0.8341    21.9135 </r>
       <r>    15.1955     0.8275    21.9270 </r>
       <r>    15.2118     0.8160    21.9403 </r>
       <r>    15.2281     0.8000    21.9534 </r>
       <r>    15.2444     0.7803    21.9661 </r>
       <r>    15.2607     0.7577    21.9785 </r>
       <r>    15.2770     0.7334    21.9904 </r>
       <r>    15.2933     0.7085    22.0020 </r>
       <r>    15.3096     0.6839    22.0131 </r>
       <r>    15.3259     0.6607    22.0239 </r>
       <r>    15.3422     0.6396    22.0343 </r>
       <r>    15.3585     0.6213    22.0445 </r>
       <r>    15.3748     0.6062    22.0543 </r>
       <r>    15.3911     0.5944    22.0640 </r>
       <r>    15.4074     0.5858    22.0736 </r>
       <r>    15.4237     0.5800    22.0830 </r>
       <r>    15.4401     0.5766    22.0924 </r>
       <r>    15.4564     0.5749    22.1018 </r>
       <r>    15.4727     0.5743    22.1112 </r>
       <r>    15.4890     0.5742    22.1205 </r>
       <r>    15.5053     0.5740    22.1299 </r>
       <r>    15.5216     0.5732    22.1392 </r>
       <r>    15.5379     0.5717    22.1486 </r>
       <r>    15.5542     0.5693    22.1578 </r>
       <r>    15.5705     0.5662    22.1671 </r>
       <r>    15.5868     0.5626    22.1762 </r>
       <r>    15.6031     0.5591    22.1854 </r>
       <r>    15.6194     0.5562    22.1944 </r>
       <r>    15.6357     0.5545    22.2035 </r>
       <r>    15.6520     0.5546    22.2125 </r>
       <r>    15.6683     0.5570    22.2216 </r>
       <r>    15.6846     0.5621    22.2308 </r>
       <r>    15.7009     0.5701    22.2401 </r>
       <r>    15.7172     0.5811    22.2495 </r>
       <r>    15.7335     0.5947    22.2592 </r>
       <r>    15.7498     0.6107    22.2692 </r>
       <r>    15.7661     0.6284    22.2794 </r>
       <r>    15.7824     0.6473    22.2900 </r>
       <r>    15.7987     0.6665    22.3008 </r>
       <r>    15.8150     0.6852    22.3120 </r>
       <r>    15.8314     0.7027    22.3235 </r>
       <r>    15.8477     0.7183    22.3352 </r>
       <r>    15.8640     0.7314    22.3471 </r>
       <r>    15.8803     0.7416    22.3592 </r>
       <r>    15.8966     0.7487    22.3714 </r>
       <r>    15.9129     0.7526    22.3837 </r>
       <r>    15.9292     0.7533    22.3960 </r>
       <r>    15.9455     0.7510    22.4082 </r>
       <r>    15.9618     0.7461    22.4204 </r>
       <r>    15.9781     0.7388    22.4324 </r>
       <r>    15.9944     0.7298    22.4443 </r>
       <r>    16.0107     0.7196    22.4560 </r>
       <r>    16.0270     0.7085    22.4676 </r>
       <r>    16.0433     0.6972    22.4790 </r>
       <r>    16.0596     0.6862    22.4901 </r>
       <r>    16.0759     0.6759    22.5012 </r>
       <r>    16.0922     0.6668    22.5120 </r>
       <r>    16.1085     0.6592    22.5228 </r>
       <r>    16.1248     0.6534    22.5334 </r>
       <r>    16.1411     0.6495    22.5440 </r>
       <r>    16.1574     0.6476    22.5546 </r>
       <r>    16.1737     0.6476    22.5651 </r>
       <r>    16.1900     0.6492    22.5757 </r>
       <r>    16.2063     0.6522    22.5864 </r>
       <r>    16.2226     0.6562    22.5971 </r>
       <r>    16.2390     0.6608    22.6078 </r>
       <r>    16.2553     0.6654    22.6187 </r>
       <r>    16.2716     0.6696    22.6296 </r>
       <r>    16.2879     0.6730    22.6406 </r>
       <r>    16.3042     0.6753    22.6516 </r>
       <r>    16.3205     0.6764    22.6626 </r>
       <r>    16.3368     0.6761    22.6736 </r>
       <r>    16.3531     0.6747    22.6846 </r>
       <r>    16.3694     0.6723    22.6956 </r>
       <r>    16.3857     0.6695    22.7065 </r>
       <r>    16.4020     0.6667    22.7174 </r>
       <r>    16.4183     0.6647    22.7282 </r>
       <r>    16.4346     0.6640    22.7391 </r>
       <r>    16.4509     0.6653    22.7499 </r>
       <r>    16.4672     0.6691    22.7608 </r>
       <r>    16.4835     0.6759    22.7718 </r>
       <r>    16.4998     0.6858    22.7830 </r>
       <r>    16.5161     0.6990    22.7944 </r>
       <r>    16.5324     0.7151    22.8061 </r>
       <r>    16.5487     0.7338    22.8180 </r>
       <r>    16.5650     0.7545    22.8303 </r>
       <r>    16.5813     0.7763    22.8430 </r>
       <r>    16.5976     0.7987    22.8560 </r>
       <r>    16.6139     0.8206    22.8694 </r>
       <r>    16.6302     0.8412    22.8831 </r>
       <r>    16.6466     0.8600    22.8971 </r>
       <r>    16.6629     0.8764    22.9114 </r>
       <r>    16.6792     0.8899    22.9259 </r>
       <r>    16.6955     0.9002    22.9406 </r>
       <r>    16.7118     0.9073    22.9554 </r>
       <r>    16.7281     0.9112    22.9702 </r>
       <r>    16.7444     0.9119    22.9851 </r>
       <r>    16.7607     0.9097    22.9999 </r>
       <r>    16.7770     0.9045    23.0147 </r>
       <r>    16.7933     0.8967    23.0293 </r>
       <r>    16.8096     0.8862    23.0438 </r>
       <r>    16.8259     0.8732    23.0580 </r>
       <r>    16.8422     0.8577    23.0720 </r>
       <r>    16.8585     0.8399    23.0857 </r>
       <r>    16.8748     0.8200    23.0990 </r>
       <r>    16.8911     0.7981    23.1121 </r>
       <r>    16.9074     0.7746    23.1247 </r>
       <r>    16.9237     0.7500    23.1369 </r>
       <r>    16.9400     0.7247    23.1487 </r>
       <r>    16.9563     0.6995    23.1601 </r>
       <r>    16.9726     0.6752    23.1711 </r>
       <r>    16.9889     0.6524    23.1818 </r>
       <r>    17.0052     0.6321    23.1921 </r>
       <r>    17.0215     0.6148    23.2021 </r>
       <r>    17.0378     0.6014    23.2119 </r>
       <r>    17.0542     0.5921    23.2216 </r>
       <r>    17.0705     0.5874    23.2311 </r>
       <r>    17.0868     0.5874    23.2407 </r>
       <r>    17.1031     0.5918    23.2504 </r>
       <r>    17.1194     0.6004    23.2602 </r>
       <r>    17.1357     0.6128    23.2702 </r>
       <r>    17.1520     0.6282    23.2804 </r>
       <r>    17.1683     0.6459    23.2909 </r>
       <r>    17.1846     0.6651    23.3018 </r>
       <r>    17.2009     0.6849    23.3129 </r>
       <r>    17.2172     0.7047    23.3244 </r>
       <r>    17.2335     0.7235    23.3362 </r>
       <r>    17.2498     0.7409    23.3483 </r>
       <r>    17.2661     0.7562    23.3606 </r>
       <r>    17.2824     0.7691    23.3732 </r>
       <r>    17.2987     0.7792    23.3859 </r>
       <r>    17.3150     0.7865    23.3987 </r>
       <r>    17.3313     0.7908    23.4116 </r>
       <r>    17.3476     0.7923    23.4245 </r>
       <r>    17.3639     0.7911    23.4374 </r>
       <r>    17.3802     0.7874    23.4502 </r>
       <r>    17.3965     0.7816    23.4630 </r>
       <r>    17.4128     0.7740    23.4756 </r>
       <r>    17.4291     0.7649    23.4881 </r>
       <r>    17.4455     0.7548    23.5004 </r>
       <r>    17.4618     0.7439    23.5125 </r>
       <r>    17.4781     0.7326    23.5245 </r>
       <r>    17.4944     0.7211    23.5362 </r>
       <r>    17.5107     0.7095    23.5478 </r>
       <r>    17.5270     0.6980    23.5592 </r>
       <r>    17.5433     0.6865    23.5703 </r>
       <r>    17.5596     0.6749    23.5814 </r>
       <r>    17.5759     0.6631    23.5922 </r>
       <r>    17.5922     0.6506    23.6028 </r>
       <r>    17.6085     0.6374    23.6132 </r>
       <r>    17.6248     0.6228    23.6233 </r>
       <r>    17.6411     0.6068    23.6332 </r>
       <r>    17.6574     0.5888    23.6428 </r>
       <r>    17.6737     0.5688    23.6521 </r>
       <r>    17.6900     0.5465    23.6610 </r>
       <r>    17.7063     0.5219    23.6695 </r>
       <r>    17.7226     0.4953    23.6776 </r>
       <r>    17.7389     0.4668    23.6852 </r>
       <r>    17.7552     0.4368    23.6923 </r>
       <r>    17.7715     0.4060    23.6989 </r>
       <r>    17.7878     0.3748    23.7050 </r>
       <r>    17.8041     0.3441    23.7106 </r>
       <r>    17.8204     0.3144    23.7158 </r>
       <r>    17.8367     0.2866    23.7204 </r>
       <r>    17.8531     0.2612    23.7247 </r>
       <r>    17.8694     0.2388    23.7286 </r>
       <r>    17.8857     0.2199    23.7322 </r>
       <r>    17.9020     0.2047    23.7355 </r>
       <r>    17.9183     0.1933    23.7387 </r>
       <r>    17.9346     0.1857    23.7417 </r>
       <r>    17.9509     0.1818    23.7447 </r>
       <r>    17.9672     0.1812    23.7476 </r>
       <r>    17.9835     0.1834    23.7506 </r>
       <r>    17.9998     0.1880    23.7537 </r>
       <r>    18.0161     0.1942    23.7568 </r>
       <r>    18.0324     0.2015    23.7601 </r>
       <r>    18.0487     0.2093    23.7635 </r>
       <r>    18.0650     0.2170    23.7671 </r>
       <r>    18.0813     0.2241    23.7707 </r>
       <r>    18.0976     0.2301    23.7745 </r>
       <r>    18.1139     0.2346    23.7783 </r>
       <r>    18.1302     0.2374    23.7822 </r>
       <r>    18.1465     0.2382    23.7861 </r>
       <r>    18.1628     0.2370    23.7899 </r>
       <r>    18.1791     0.2338    23.7937 </r>
       <r>    18.1954     0.2284    23.7975 </r>
       <r>    18.2117     0.2212    23.8011 </r>
       <r>    18.2280     0.2122    23.8045 </r>
       <r>    18.2443     0.2016    23.8078 </r>
       <r>    18.2607     0.1897    23.8109 </r>
       <r>    18.2770     0.1768    23.8138 </r>
       <r>    18.2933     0.1631    23.8164 </r>
       <r>    18.3096     0.1492    23.8189 </r>
       <r>    18.3259     0.1353    23.8211 </r>
       <r>    18.3422     0.1217    23.8231 </r>
       <r>    18.3585     0.1089    23.8248 </r>
       <r>    18.3748     0.0972    23.8264 </r>
       <r>    18.3911     0.0867    23.8278 </r>
       <r>    18.4074     0.0779    23.8291 </r>
       <r>    18.4237     0.0708    23.8303 </r>
       <r>    18.4400     0.0655    23.8313 </r>
       <r>    18.4563     0.0620    23.8323 </r>
       <r>    18.4726     0.0602    23.8333 </r>
       <r>    18.4889     0.0600    23.8343 </r>
       <r>    18.5052     0.0611    23.8353 </r>
       <r>    18.5215     0.0632    23.8363 </r>
       <r>    18.5378     0.0660    23.8374 </r>
       <r>    18.5541     0.0693    23.8385 </r>
       <r>    18.5704     0.0726    23.8397 </r>
       <r>    18.5867     0.0758    23.8410 </r>
       <r>    18.6030     0.0786    23.8422 </r>
       <r>    18.6193     0.0809    23.8436 </r>
       <r>    18.6356     0.0826    23.8449 </r>
       <r>    18.6519     0.0837    23.8463 </r>
       <r>    18.6683     0.0842    23.8476 </r>
       <r>    18.6846     0.0842    23.8490 </r>
       <r>    18.7009     0.0838    23.8504 </r>
       <r>    18.7172     0.0831    23.8517 </r>
       <r>    18.7335     0.0822    23.8531 </r>
       <r>    18.7498     0.0812    23.8544 </r>
       <r>    18.7661     0.0802    23.8557 </r>
       <r>    18.7824     0.0793    23.8570 </r>
       <r>    18.7987     0.0783    23.8583 </r>
       <r>    18.8150     0.0774    23.8595 </r>
       <r>    18.8313     0.0764    23.8608 </r>
       <r>    18.8476     0.0754    23.8620 </r>
       <r>    18.8639     0.0744    23.8632 </r>
       <r>    18.8802     0.0733    23.8644 </r>
       <r>    18.8965     0.0721    23.8656 </r>
       <r>    18.9128     0.0709    23.8668 </r>
       <r>    18.9291     0.0697    23.8679 </r>
       <r>    18.9454     0.0686    23.8690 </r>
       <r>    18.9617     0.0676    23.8701 </r>
       <r>    18.9780     0.0669    23.8712 </r>
       <r>    18.9943     0.0664    23.8723 </r>
       <r>    19.0106     0.0662    23.8734 </r>
       <r>    19.0269     0.0664    23.8744 </r>
       <r>    19.0432     0.0669    23.8755 </r>
       <r>    19.0595     0.0677    23.8766 </r>
       <r>    19.0759     0.0687    23.8778 </r>
       <r>    19.0922     0.0699    23.8789 </r>
       <r>    19.1085     0.0709    23.8801 </r>
       <r>    19.1248     0.0718    23.8812 </r>
       <r>    19.1411     0.0724    23.8824 </r>
       <r>    19.1574     0.0725    23.8836 </r>
       <r>    19.1737     0.0719    23.8848 </r>
       <r>    19.1900     0.0707    23.8859 </r>
       <r>    19.2063     0.0687    23.8870 </r>
       <r>    19.2226     0.0660    23.8881 </r>
       <r>    19.2389     0.0626    23.8891 </r>
       <r>    19.2552     0.0586    23.8901 </r>
       <r>    19.2715     0.0541    23.8910 </r>
       <r>    19.2878     0.0494    23.8918 </r>
       <r>    19.3041     0.0447    23.8925 </r>
       <r>    19.3204     0.0401    23.8932 </r>
       <r>    19.3367     0.0359    23.8937 </r>
       <r>    19.3530     0.0322    23.8943 </r>
       <r>    19.3693     0.0292    23.8947 </r>
       <r>    19.3856     0.0269    23.8952 </r>
       <r>    19.4019     0.0255    23.8956 </r>
       <r>    19.4182     0.0248    23.8960 </r>
       <r>    19.4345     0.0249    23.8964 </r>
       <r>    19.4508     0.0257    23.8968 </r>
       <r>    19.4672     0.0269    23.8973 </r>
       <r>    19.4835     0.0286    23.8977 </r>
       <r>    19.4998     0.0306    23.8982 </r>
       <r>    19.5161     0.0327    23.8988 </r>
       <r>    19.5324     0.0350    23.8993 </r>
       <r>    19.5487     0.0374    23.8999 </r>
       <r>    19.5650     0.0397    23.9006 </r>
       <r>    19.5813     0.0421    23.9013 </r>
       <r>    19.5976     0.0445    23.9020 </r>
       <r>    19.6139     0.0469    23.9028 </r>
       <r>    19.6302     0.0493    23.9036 </r>
       <r>    19.6465     0.0517    23.9044 </r>
       <r>    19.6628     0.0540    23.9053 </r>
       <r>    19.6791     0.0561    23.9062 </r>
       <r>    19.6954     0.0579    23.9072 </r>
       <r>    19.7117     0.0594    23.9081 </r>
       <r>    19.7280     0.0605    23.9091 </r>
       <r>    19.7443     0.0609    23.9101 </r>
       <r>    19.7606     0.0608    23.9111 </r>
       <r>    19.7769     0.0600    23.9121 </r>
       <r>    19.7932     0.0587    23.9130 </r>
       <r>    19.8095     0.0567    23.9140 </r>
       <r>    19.8258     0.0544    23.9148 </r>
       <r>    19.8421     0.0517    23.9157 </r>
       <r>    19.8584     0.0489    23.9165 </r>
       <r>    19.8748     0.0462    23.9172 </r>
       <r>    19.8911     0.0438    23.9179 </r>
       <r>    19.9074     0.0417    23.9186 </r>
       <r>    19.9237     0.0402    23.9193 </r>
       <r>    19.9400     0.0393    23.9199 </r>
       <r>    19.9563     0.0389    23.9206 </r>
       <r>    19.9726     0.0392    23.9212 </r>
       <r>    19.9889     0.0399    23.9218 </r>
       <r>    20.0052     0.0411    23.9225 </r>
       <r>    20.0215     0.0424    23.9232 </r>
       <r>    20.0378     0.0439    23.9239 </r>
       <r>    20.0541     0.0453    23.9247 </r>
       <r>    20.0704     0.0465    23.9254 </r>
       <r>    20.0867     0.0475    23.9262 </r>
       <r>    20.1030     0.0481    23.9270 </r>
       <r>    20.1193     0.0484    23.9278 </r>
       <r>    20.1356     0.0484    23.9286 </r>
       <r>    20.1519     0.0481    23.9293 </r>
       <r>    20.1682     0.0476    23.9301 </r>
       <r>    20.1845     0.0469    23.9309 </r>
       <r>    20.2008     0.0462    23.9316 </r>
       <r>    20.2171     0.0455    23.9324 </r>
       <r>    20.2334     0.0448    23.9331 </r>
       <r>    20.2497     0.0442    23.9338 </r>
       <r>    20.2660     0.0437    23.9345 </r>
       <r>    20.2824     0.0433    23.9353 </r>
       <r>    20.2987     0.0428    23.9359 </r>
       <r>    20.3150     0.0423    23.9366 </r>
       <r>    20.3313     0.0418    23.9373 </r>
       <r>    20.3476     0.0411    23.9380 </r>
       <r>    20.3639     0.0404    23.9386 </r>
       <r>    20.3802     0.0395    23.9393 </r>
       <r>    20.3965     0.0384    23.9399 </r>
       <r>    20.4128     0.0373    23.9405 </r>
       <r>    20.4291     0.0360    23.9411 </r>
       <r>    20.4454     0.0347    23.9417 </r>
       <r>    20.4617     0.0334    23.9422 </r>
       <r>    20.4780     0.0322    23.9428 </r>
       <r>    20.4943     0.0310    23.9433 </r>
       <r>    20.5106     0.0300    23.9437 </r>
       <r>    20.5269     0.0291    23.9442 </r>
       <r>    20.5432     0.0284    23.9447 </r>
       <r>    20.5595     0.0279    23.9451 </r>
       <r>    20.5758     0.0275    23.9456 </r>
       <r>    20.5921     0.0273    23.9460 </r>
       <r>    20.6084     0.0273    23.9465 </r>
       <r>    20.6247     0.0273    23.9469 </r>
       <r>    20.6410     0.0273    23.9474 </r>
       <r>    20.6573     0.0274    23.9478 </r>
       <r>    20.6736     0.0273    23.9483 </r>
       <r>    20.6900     0.0271    23.9487 </r>
       <r>    20.7063     0.0268    23.9491 </r>
       <r>    20.7226     0.0262    23.9496 </r>
       <r>    20.7389     0.0255    23.9500 </r>
       <r>    20.7552     0.0245    23.9504 </r>
       <r>    20.7715     0.0233    23.9508 </r>
       <r>    20.7878     0.0219    23.9511 </r>
       <r>    20.8041     0.0205    23.9515 </r>
       <r>    20.8204     0.0190    23.9518 </r>
       <r>    20.8367     0.0176    23.9520 </r>
       <r>    20.8530     0.0163    23.9523 </r>
       <r>    20.8693     0.0151    23.9526 </r>
       <r>    20.8856     0.0142    23.9528 </r>
       <r>    20.9019     0.0135    23.9530 </r>
       <r>    20.9182     0.0131    23.9532 </r>
       <r>    20.9345     0.0129    23.9534 </r>
       <r>    20.9508     0.0130    23.9536 </r>
       <r>    20.9671     0.0134    23.9539 </r>
       <r>    20.9834     0.0139    23.9541 </r>
       <r>    20.9997     0.0147    23.9543 </r>
       <r>    21.0160     0.0157    23.9546 </r>
       <r>    21.0323     0.0168    23.9549 </r>
       <r>    21.0486     0.0182    23.9552 </r>
       <r>    21.0649     0.0199    23.9555 </r>
       <r>    21.0813     0.0217    23.9558 </r>
       <r>    21.0976     0.0238    23.9562 </r>
       <r>    21.1139     0.0262    23.9567 </r>
       <r>    21.1302     0.0288    23.9571 </r>
       <r>    21.1465     0.0316    23.9576 </r>
       <r>    21.1628     0.0345    23.9582 </r>
       <r>    21.1791     0.0374    23.9588 </r>
       <r>    21.1954     0.0401    23.9595 </r>
       <r>    21.2117     0.0427    23.9602 </r>
       <r>    21.2280     0.0448    23.9609 </r>
       <r>    21.2443     0.0465    23.9616 </r>
       <r>    21.2606     0.0477    23.9624 </r>
       <r>    21.2769     0.0482    23.9632 </r>
       <r>    21.2932     0.0481    23.9640 </r>
       <r>    21.3095     0.0474    23.9648 </r>
       <r>    21.3258     0.0462    23.9655 </r>
       <r>    21.3421     0.0446    23.9663 </r>
       <r>    21.3584     0.0427    23.9669 </r>
       <r>    21.3747     0.0407    23.9676 </r>
       <r>    21.3910     0.0388    23.9682 </r>
       <r>    21.4073     0.0369    23.9688 </r>
       <r>    21.4236     0.0353    23.9694 </r>
       <r>    21.4399     0.0341    23.9700 </r>
       <r>    21.4562     0.0332    23.9705 </r>
       <r>    21.4725     0.0326    23.9711 </r>
       <r>    21.4889     0.0324    23.9716 </r>
       <r>    21.5052     0.0323    23.9721 </r>
       <r>    21.5215     0.0324    23.9726 </r>
       <r>    21.5378     0.0325    23.9732 </r>
       <r>    21.5541     0.0324    23.9737 </r>
       <r>    21.5704     0.0322    23.9742 </r>
       <r>    21.5867     0.0317    23.9747 </r>
       <r>    21.6030     0.0308    23.9752 </r>
       <r>    21.6193     0.0296    23.9757 </r>
       <r>    21.6356     0.0280    23.9762 </r>
       <r>    21.6519     0.0260    23.9766 </r>
       <r>    21.6682     0.0238    23.9770 </r>
       <r>    21.6845     0.0214    23.9773 </r>
       <r>    21.7008     0.0188    23.9776 </r>
       <r>    21.7171     0.0161    23.9779 </r>
       <r>    21.7334     0.0135    23.9781 </r>
       <r>    21.7497     0.0110    23.9783 </r>
       <r>    21.7660     0.0086    23.9784 </r>
       <r>    21.7823     0.0064    23.9785 </r>
       <r>    21.7986     0.0045    23.9786 </r>
       <r>    21.8149     0.0029    23.9787 </r>
       <r>    21.8312     0.0016    23.9787 </r>
       <r>    21.8475     0.0005    23.9787 </r>
       <r>    21.8638    -0.0003    23.9787 </r>
       <r>    21.8801    -0.0008    23.9787 </r>
       <r>    21.8965    -0.0010    23.9787 </r>
       <r>    21.9128    -0.0011    23.9787 </r>
       <r>    21.9291    -0.0010    23.9786 </r>
       <r>    21.9454    -0.0007    23.9786 </r>
       <r>    21.9617    -0.0002    23.9786 </r>
       <r>    21.9780     0.0003    23.9786 </r>
       <r>    21.9943     0.0011    23.9786 </r>
       <r>    22.0106     0.0019    23.9787 </r>
       <r>    22.0269     0.0028    23.9787 </r>
       <r>    22.0432     0.0039    23.9788 </r>
       <r>    22.0595     0.0050    23.9789 </r>
       <r>    22.0758     0.0064    23.9790 </r>
       <r>    22.0921     0.0078    23.9791 </r>
       <r>    22.1084     0.0094    23.9792 </r>
       <r>    22.1247     0.0110    23.9794 </r>
       <r>    22.1410     0.0128    23.9796 </r>
       <r>    22.1573     0.0147    23.9799 </r>
       <r>    22.1736     0.0166    23.9801 </r>
       <r>    22.1899     0.0185    23.9804 </r>
       <r>    22.2062     0.0203    23.9808 </r>
       <r>    22.2225     0.0219    23.9811 </r>
       <r>    22.2388     0.0234    23.9815 </r>
       <r>    22.2551     0.0245    23.9819 </r>
       <r>    22.2714     0.0252    23.9823 </r>
       <r>    22.2877     0.0255    23.9827 </r>
       <r>    22.3041     0.0254    23.9832 </r>
       <r>    22.3204     0.0248    23.9836 </r>
       <r>    22.3367     0.0238    23.9839 </r>
       <r>    22.3530     0.0223    23.9843 </r>
       <r>    22.3693     0.0204    23.9846 </r>
       <r>    22.3856     0.0183    23.9849 </r>
       <r>    22.4019     0.0159    23.9852 </r>
       <r>    22.4182     0.0135    23.9854 </r>
       <r>    22.4345     0.0111    23.9856 </r>
       <r>    22.4508     0.0088    23.9857 </r>
       <r>    22.4671     0.0067    23.9859 </r>
       <r>    22.4834     0.0050    23.9859 </r>
       <r>    22.4997     0.0037    23.9860 </r>
       <r>    22.5160     0.0028    23.9860 </r>
       <r>    22.5323     0.0025    23.9861 </r>
       <r>    22.5486     0.0027    23.9861 </r>
       <r>    22.5649     0.0034    23.9862 </r>
       <r>    22.5812     0.0046    23.9863 </r>
       <r>    22.5975     0.0063    23.9864 </r>
       <r>    22.6138     0.0083    23.9865 </r>
       <r>    22.6301     0.0108    23.9867 </r>
       <r>    22.6464     0.0134    23.9869 </r>
       <r>    22.6627     0.0163    23.9872 </r>
       <r>    22.6790     0.0191    23.9875 </r>
       <r>    22.6953     0.0219    23.9878 </r>
       <r>    22.7117     0.0245    23.9882 </r>
       <r>    22.7280     0.0269    23.9887 </r>
       <r>    22.7443     0.0288    23.9891 </r>
       <r>    22.7606     0.0304    23.9896 </r>
       <r>    22.7769     0.0314    23.9901 </r>
       <r>    22.7932     0.0319    23.9907 </r>
       <r>    22.8095     0.0319    23.9912 </r>
       <r>    22.8258     0.0313    23.9917 </r>
       <r>    22.8421     0.0303    23.9922 </r>
       <r>    22.8584     0.0288    23.9927 </r>
       <r>    22.8747     0.0269    23.9931 </r>
       <r>    22.8910     0.0248    23.9935 </r>
       <r>    22.9073     0.0224    23.9939 </r>
       <r>    22.9236     0.0200    23.9942 </r>
       <r>    22.9399     0.0174    23.9945 </r>
       <r>    22.9562     0.0150    23.9947 </r>
       <r>    22.9725     0.0126    23.9949 </r>
       <r>    22.9888     0.0103    23.9951 </r>
       <r>    23.0051     0.0083    23.9952 </r>
       <r>    23.0214     0.0064    23.9953 </r>
       <r>    23.0377     0.0048    23.9954 </r>
       <r>    23.0540     0.0034    23.9955 </r>
       <r>    23.0703     0.0022    23.9955 </r>
       <r>    23.0866     0.0013    23.9955 </r>
       <r>    23.1030     0.0006    23.9955 </r>
       <r>    23.1193     0.0000    23.9955 </r>
       <r>    23.1356    -0.0004    23.9955 </r>
       <r>    23.1519    -0.0007    23.9955 </r>
       <r>    23.1682    -0.0008    23.9955 </r>
       <r>    23.1845    -0.0009    23.9955 </r>
       <r>    23.2008    -0.0009    23.9955 </r>
       <r>    23.2171    -0.0009    23.9955 </r>
       <r>    23.2334    -0.0008    23.9954 </r>
       <r>    23.2497    -0.0008    23.9954 </r>
       <r>    23.2660    -0.0007    23.9954 </r>
       <r>    23.2823    -0.0006    23.9954 </r>
       <r>    23.2986    -0.0005    23.9954 </r>
       <r>    23.3149    -0.0004    23.9954 </r>
       <r>    23.3312    -0.0004    23.9954 </r>
       <r>    23.3475    -0.0003    23.9954 </r>
       <r>    23.3638    -0.0003    23.9954 </r>
       <r>    23.3801    -0.0003    23.9954 </r>
       <r>    23.3964    -0.0003    23.9954 </r>
       <r>    23.4127    -0.0003    23.9954 </r>
       <r>    23.4290    -0.0004    23.9954 </r>
       <r>    23.4453    -0.0004    23.9953 </r>
       <r>    23.4616    -0.0005    23.9953 </r>
       <r>    23.4779    -0.0006    23.9953 </r>
       <r>    23.4942    -0.0006    23.9953 </r>
       <r>    23.5106    -0.0007    23.9953 </r>
       <r>    23.5269    -0.0007    23.9953 </r>
       <r>    23.5432    -0.0006    23.9953 </r>
       <r>    23.5595    -0.0006    23.9953 </r>
       <r>    23.5758    -0.0004    23.9953 </r>
       <r>    23.5921    -0.0001    23.9953 </r>
       <r>    23.6084     0.0002    23.9953 </r>
       <r>    23.6247     0.0007    23.9953 </r>
       <r>    23.6410     0.0013    23.9953 </r>
       <r>    23.6573     0.0021    23.9953 </r>
       <r>    23.6736     0.0030    23.9954 </r>
       <r>    23.6899     0.0040    23.9955 </r>
       <r>    23.7062     0.0052    23.9955 </r>
       <r>    23.7225     0.0064    23.9956 </r>
       <r>    23.7388     0.0076    23.9958 </r>
       <r>    23.7551     0.0088    23.9959 </r>
       <r>    23.7714     0.0100    23.9961 </r>
       <r>    23.7877     0.0111    23.9963 </r>
       <r>    23.8040     0.0120    23.9964 </r>
       <r>    23.8203     0.0127    23.9967 </r>
       <r>    23.8366     0.0132    23.9969 </r>
       <r>    23.8529     0.0134    23.9971 </r>
       <r>    23.8692     0.0134    23.9973 </r>
       <r>    23.8855     0.0132    23.9975 </r>
       <r>    23.9018     0.0127    23.9977 </r>
       <r>    23.9182     0.0120    23.9979 </r>
       <r>    23.9345     0.0111    23.9981 </r>
       <r>    23.9508     0.0102    23.9983 </r>
       <r>    23.9671     0.0092    23.9984 </r>
       <r>    23.9834     0.0082    23.9986 </r>
       <r>    23.9997     0.0073    23.9987 </r>
       <r>    24.0160     0.0064    23.9988 </r>
       <r>    24.0323     0.0057    23.9989 </r>
       <r>    24.0486     0.0051    23.9990 </r>
       <r>    24.0649     0.0047    23.9990 </r>
       <r>    24.0812     0.0043    23.9991 </r>
       <r>    24.0975     0.0041    23.9992 </r>
       <r>    24.1138     0.0040    23.9992 </r>
       <r>    24.1301     0.0039    23.9993 </r>
       <r>    24.1464     0.0038    23.9994 </r>
       <r>    24.1627     0.0037    23.9994 </r>
       <r>    24.1790     0.0036    23.9995 </r>
       <r>    24.1953     0.0035    23.9995 </r>
       <r>    24.2116     0.0033    23.9996 </r>
       <r>    24.2279     0.0031    23.9996 </r>
       <r>    24.2442     0.0028    23.9997 </r>
       <r>    24.2605     0.0025    23.9997 </r>
       <r>    24.2768     0.0022    23.9998 </r>
       <r>    24.2931     0.0018    23.9998 </r>
       <r>    24.3094     0.0015    23.9998 </r>
       <r>    24.3258     0.0011    23.9998 </r>
       <r>    24.3421     0.0008    23.9999 </r>
       <r>    24.3584     0.0005    23.9999 </r>
       <r>    24.3747     0.0003    23.9999 </r>
       <r>    24.3910     0.0001    23.9999 </r>
       <r>    24.4073    -0.0000    23.9999 </r>
       <r>    24.4236    -0.0001    23.9999 </r>
       <r>    24.4399    -0.0002    23.9999 </r>
       <r>    24.4562    -0.0002    23.9999 </r>
       <r>    24.4725    -0.0003    23.9999 </r>
       <r>    24.4888    -0.0003    23.9998 </r>
       <r>    24.5051    -0.0003    23.9998 </r>
       <r>    24.5214    -0.0002    23.9998 </r>
       <r>    24.5377    -0.0002    23.9998 </r>
       <r>    24.5540    -0.0002    23.9998 </r>
       <r>    24.5703    -0.0002    23.9998 </r>
       <r>    24.5866    -0.0001    23.9998 </r>
       <r>    24.6029    -0.0001    23.9998 </r>
       <r>    24.6192    -0.0001    23.9998 </r>
       <r>    24.6355    -0.0000    23.9998 </r>
       <r>    24.6518     0.0000    23.9998 </r>
       <r>    24.6681     0.0001    23.9998 </r>
       <r>    24.6844     0.0001    23.9998 </r>
       <r>    24.7007     0.0002    23.9998 </r>
       <r>    24.7171     0.0002    23.9998 </r>
       <r>    24.7334     0.0003    23.9998 </r>
       <r>    24.7497     0.0004    23.9998 </r>
       <r>    24.7660     0.0004    23.9999 </r>
       <r>    24.7823     0.0005    23.9999 </r>
       <r>    24.7986     0.0006    23.9999 </r>
       <r>    24.8149     0.0006    23.9999 </r>
       <r>    24.8312     0.0007    23.9999 </r>
       <r>    24.8475     0.0007    23.9999 </r>
       <r>    24.8638     0.0007    23.9999 </r>
       <r>    24.8801     0.0007    23.9999 </r>
       <r>    24.8964     0.0007    23.9999 </r>
       <r>    24.9127     0.0007    23.9999 </r>
       <r>    24.9290     0.0006    24.0000 </r>
       <r>    24.9453     0.0006    24.0000 </r>
       <r>    24.9616     0.0005    24.0000 </r>
       <r>    24.9779     0.0004    24.0000 </r>
       <r>    24.9942     0.0004    24.0000 </r>
       <r>    25.0105     0.0003    24.0000 </r>
       <r>    25.0268     0.0002    24.0000 </r>
       <r>    25.0431     0.0002    24.0000 </r>
       <r>    25.0594     0.0001    24.0000 </r>
       <r>    25.0757     0.0001    24.0000 </r>
       <r>    25.0920     0.0000    24.0000 </r>
       <r>    25.1083     0.0000    24.0000 </r>
       <r>    25.1247    -0.0000    24.0000 </r>
       <r>    25.1410    -0.0000    24.0000 </r>
       <r>    25.1573    -0.0000    24.0000 </r>
       <r>    25.1736    -0.0000    24.0000 </r>
       <r>    25.1899    -0.0000    24.0000 </r>
       <r>    25.2062    -0.0000    24.0000 </r>
       <r>    25.2225    -0.0000    24.0000 </r>
       <r>    25.2388    -0.0000    24.0000 </r>
       <r>    25.2551    -0.0000    24.0000 </r>
       <r>    25.2714    -0.0000    24.0000 </r>
       <r>    25.2877    -0.0000    24.0000 </r>
       <r>    25.3040    -0.0000    24.0000 </r>
       <r>    25.3203    -0.0000    24.0000 </r>
       <r>    25.3366    -0.0000    24.0000 </r>
       <r>    25.3529    -0.0000    24.0000 </r>
       <r>    25.3692    -0.0000    24.0000 </r>
       <r>    25.3855    -0.0000    24.0000 </r>
       <r>    25.4018    -0.0000    24.0000 </r>
       <r>    25.4181    -0.0000    24.0000 </r>
       <r>    25.4344    -0.0000    24.0000 </r>
       <r>    25.4507    -0.0000    24.0000 </r>
       <r>    25.4670    -0.0000    24.0000 </r>
       <r>    25.4833    -0.0000    24.0000 </r>
       <r>    25.4996    -0.0000    24.0000 </r>
       <r>    25.5159    -0.0000    24.0000 </r>
       <r>    25.5323    -0.0000    24.0000 </r>
       <r>    25.5486    -0.0000    24.0000 </r>
       <r>    25.5649    -0.0000    24.0000 </r>
       <r>    25.5812    -0.0000    24.0000 </r>
       <r>    25.5975    -0.0000    24.0000 </r>
       <r>    25.6138    -0.0000    24.0000 </r>
       <r>    25.6301    -0.0000    24.0000 </r>
       <r>    25.6464    -0.0000    24.0000 </r>
       <r>    25.6627    -0.0000    24.0000 </r>
       <r>    25.6790    -0.0000    24.0000 </r>
       <r>    25.6953    -0.0000    24.0000 </r>
       <r>    25.7116    -0.0000    24.0000 </r>
       <r>    25.7279    -0.0000    24.0000 </r>
       <r>    25.7442    -0.0000    24.0000 </r>
       <r>    25.7605    -0.0000    24.0000 </r>
       <r>    25.7768    -0.0000    24.0000 </r>
       <r>    25.7931    -0.0000    24.0000 </r>
       <r>    25.8094    -0.0000    24.0000 </r>
       <r>    25.8257    -0.0000    24.0000 </r>
       <r>    25.8420    -0.0000    24.0000 </r>
       <r>    25.8583    -0.0000    24.0000 </r>
       <r>    25.8746    -0.0000    24.0000 </r>
       <r>    25.8909    -0.0000    24.0000 </r>
       <r>    25.9072    -0.0000    24.0000 </r>
       <r>    25.9235    -0.0000    24.0000 </r>
       <r>    25.9399    -0.0000    24.0000 </r>
       <r>    25.9562    -0.0000    24.0000 </r>
       <r>    25.9725    -0.0000    24.0000 </r>
       <r>    25.9888    -0.0000    24.0000 </r>
       <r>    26.0051    -0.0000    24.0000 </r>
       <r>    26.0214    -0.0000    24.0000 </r>
       <r>    26.0377    -0.0000    24.0000 </r>
       <r>    26.0540    -0.0000    24.0000 </r>
       <r>    26.0703    -0.0000    24.0000 </r>
       <r>    26.0866    -0.0000    24.0000 </r>
       <r>    26.1029     0.0000    24.0000 </r>
       <r>    26.1192     0.0000    24.0000 </r>
       <r>    26.1355     0.0000    24.0000 </r>
       <r>    26.1518     0.0000    24.0000 </r>
       <r>    26.1681     0.0000    24.0000 </r>
       <r>    26.1844     0.0000    24.0000 </r>
       <r>    26.2007     0.0000    24.0000 </r>
       <r>    26.2170     0.0000    24.0000 </r>
       <r>    26.2333     0.0000    24.0000 </r>
       <r>    26.2496     0.0000    24.0000 </r>
       <r>    26.2659     0.0000    24.0000 </r>
       <r>    26.2822     0.0000    24.0000 </r>
       <r>    26.2985     0.0000    24.0000 </r>
       <r>    26.3148     0.0000    24.0000 </r>
       <r>    26.3312     0.0000    24.0000 </r>
       <r>    26.3475     0.0000    24.0000 </r>
       <r>    26.3638     0.0000    24.0000 </r>
       <r>    26.3801     0.0000    24.0000 </r>
       <r>    26.3964     0.0000    24.0000 </r>
       <r>    26.4127     0.0000    24.0000 </r>
       <r>    26.4290     0.0000    24.0000 </r>
       <r>    26.4453     0.0000    24.0000 </r>
       <r>    26.4616     0.0000    24.0000 </r>
       <r>    26.4779     0.0000    24.0000 </r>
       <r>    26.4942     0.0000    24.0000 </r>
       <r>    26.5105     0.0000    24.0000 </r>
       <r>    26.5268     0.0000    24.0000 </r>
       <r>    26.5431     0.0000    24.0000 </r>
       <r>    26.5594     0.0000    24.0000 </r>
       <r>    26.5757     0.0000    24.0000 </r>
       <r>    26.5920     0.0000    24.0000 </r>
       <r>    26.6083     0.0000    24.0000 </r>
       <r>    26.6246     0.0000    24.0000 </r>
       <r>    26.6409     0.0000    24.0000 </r>
       <r>    26.6572     0.0000    24.0000 </r>
       <r>    26.6735     0.0000    24.0000 </r>
       <r>    26.6898     0.0000    24.0000 </r>
       <r>    26.7061     0.0000    24.0000 </r>
       <r>    26.7224     0.0000    24.0000 </r>
       <r>    26.7388     0.0000    24.0000 </r>
       <r>    26.7551     0.0000    24.0000 </r>
       <r>    26.7714     0.0000    24.0000 </r>
       <r>    26.7877     0.0000    24.0000 </r>
       <r>    26.8040     0.0000    24.0000 </r>
       <r>    26.8203     0.0000    24.0000 </r>
       <r>    26.8366     0.0000    24.0000 </r>
       <r>    26.8529     0.0000    24.0000 </r>
       <r>    26.8692     0.0000    24.0000 </r>
       <r>    26.8855     0.0000    24.0000 </r>
       <r>    26.9018     0.0000    24.0000 </r>
      </set>
     </set>
    </array>
   </total>
  </dos>
 </calculation>
 <structure name="finalpos" >
  <crystal>
   <varray name="basis" >
    <v>       3.53000000       0.00000000       0.00000000 </v>
    <v>       0.00000000       3.53000000       0.00000000 </v>
    <v>       0.00000000       0.00000000       3.53000000 </v>
   </varray>
   <i name="volume">     43.98697700 </i>
   <varray name="rec_basis" >
    <v>       0.28328612       0.00000000       0.00000000 </v>
    <v>       0.00000000       0.28328612       0.00000000 </v>
    <v>       0.00000000       0.00000000       0.28328612 </v>
   </varray>
  </crystal>
  <varray name="positions" >
   <v>       0.00000000       0.00000000       0.00000000 </v>
   <v>       0.50000000       0.00000000       0.50000000 </v>
   <v>       0.50000000       0.50000000       0.00000000 </v>
   <v>       0.00000000       0.50000000       0.50000000 </v>
  </varray>
 </structure>
</modeling>
