   4   4   0   0
  0.1156707E+02  0.3590000E-09  0.3590000E-09  0.3590000E-09  0.5000000E-15
  1.000000000000000E-004
  CAR 
 Ni3Al EOS                               
     25.92674438     -5.86209290 2000      5.93853334      1.00000000
     -5.862  0.0000E+00  0.0000E+00  0.0000E+00  0.0000E+00
     -5.846  0.0000E+00  0.0000E+00  0.0000E+00  0.0000E+00
     -5.830  0.0000E+00  0.0000E+00  0.0000E+00  0.0000E+00
     -5.814  0.0000E+00  0.0000E+00  0.0000E+00  0.0000E+00
     -5.798  0.0000E+00  0.0000E+00  0.0000E+00  0.0000E+00
     -5.783  0.0000E+00  0.0000E+00  0.0000E+00  0.0000E+00
     -5.767  0.0000E+00  0.0000E+00  0.0000E+00  0.0000E+00
     -5.751  0.0000E+00  0.0000E+00  0.0000E+00  0.0000E+00
     -5.735  0.0000E+00  0.0000E+00  0.0000E+00  0.0000E+00
     -5.719  0.0000E+00  0.0000E+00  0.0000E+00  0.0000E+00
     -5.703  0.0000E+00  0.0000E+00  0.0000E+00  0.0000E+00
     -5.687  0.0000E+00  0.0000E+00  0.0000E+00  0.0000E+00
     -5.671  0.0000E+00  0.0000E+00  0.0000E+00  0.0000E+00
     -5.655  0.0000E+00  0.0000E+00  0.0000E+00  0.0000E+00
     -5.639  0.0000E+00  0.0000E+00  0.0000E+00  0.0000E+00
     -5.624  0.0000E+00  0.0000E+00  0.0000E+00  0.0000E+00
     -5.608  0.0000E+00  0.0000E+00  0.0000E+00  0.0000E+00
     -5.592  0.0000E+00  0.0000E+00  0.0000E+00  0.0000E+00
     -5.576  0.0000E+00  0.0000E+00  0.0000E+00  0.0000E+00
     -5.560  0.0000E+00  0.0000E+00  0.0000E+00  0.0000E+00
     -5.544  0.0000E+00  0.0000E+00  0.0000E+00  0.0000E+00
     -5.528  0.0000E+00  0.0000E+00  0.0000E+00  0.0000E+00
     -5.512  0.0000E+00  0.0000E+00  0.0000E+00  0.0000E+00
     -5.496  0.0000E+00  0.0000E+00  0.0000E+00  0.0000E+00
     -5.480  0.0000E+00  0.0000E+00  0.0000E+00  0.0000E+00
     -5.465  0.0000E+00 -0.3215E-31  0.0000E+00 -0.5112E-33
     -5.449  0.0000E+00 -0.8094E-31  0.0000E+00 -0.1798E-32
     -5.433 -0.3007E-31 -0.4075E-30 -0.4782E-33 -0.8279E-32
     -5.417 -0.7578E-31 -0.1278E-29 -0.1683E-32 -0.2860E-31
     -5.401 -0.3815E-30 -0.4506E-29 -0.7750E-32 -0.1003E-30
     -5.385 -0.1197E-29 -0.1497E-28 -0.2679E-31 -0.3382E-30
     -5.369 -0.4224E-29 -0.4959E-28 -0.9397E-31 -0.1127E-29
     -5.353 -0.1404E-28 -0.1626E-27 -0.3172E-30 -0.3712E-29
     -5.337 -0.4655E-28 -0.5251E-27 -0.1058E-29 -0.1206E-28
     -5.321 -0.1527E-27 -0.1676E-26 -0.3486E-29 -0.3871E-28
     -5.306 -0.4936E-27 -0.5281E-26 -0.1133E-28 -0.1227E-27
     -5.290 -0.1576E-26 -0.1643E-25 -0.3640E-28 -0.3840E-27
     -5.274 -0.4970E-26 -0.5050E-25 -0.1154E-27 -0.1187E-26
     -5.258 -0.1548E-25 -0.1532E-24 -0.3616E-27 -0.3624E-26
     -5.242 -0.4760E-25 -0.4592E-24 -0.1118E-26 -0.1093E-25
     -5.226 -0.1445E-24 -0.1359E-23 -0.3417E-26 -0.3254E-25
     -5.210 -0.4334E-24 -0.3971E-23 -0.1031E-25 -0.9568E-25
     -5.194 -0.1283E-23 -0.1146E-22 -0.3071E-25 -0.2779E-24
     -5.178 -0.3752E-23 -0.3265E-22 -0.9038E-25 -0.7971E-24
     -5.162 -0.1083E-22 -0.9187E-22 -0.2627E-24 -0.2258E-23
     -5.146 -0.3089E-22 -0.2553E-21 -0.7539E-24 -0.6317E-23
     -5.131 -0.8698E-22 -0.7004E-21 -0.2137E-23 -0.1746E-22
     -5.115 -0.2418E-21 -0.1898E-20 -0.5983E-23 -0.4763E-22
     -5.099 -0.6640E-21 -0.5078E-20 -0.1654E-22 -0.1284E-21
     -5.083 -0.1800E-20 -0.1342E-19 -0.4517E-22 -0.3417E-21
     -5.067 -0.4820E-20 -0.3501E-19 -0.1218E-21 -0.8984E-21
     -5.051 -0.1274E-19 -0.9019E-19 -0.3245E-21 -0.2333E-20
     -5.035 -0.3328E-19 -0.2235E-18 -0.8537E-21 -0.5887E-20
     -5.019 -0.8579E-19 -0.5646E-18 -0.2218E-20 -0.1487E-19
     -5.003 -0.2124E-18 -0.1377E-17 -0.5596E-20 -0.3676E-19
     -4.987 -0.5432E-18 -0.3409E-17 -0.1423E-19 -0.9097E-19
     -4.972 -0.1304E-17 -0.8162E-17 -0.3496E-19 -0.2208E-18
     -4.956 -0.3253E-17 -0.1967E-16 -0.8669E-19 -0.5336E-18
     -4.940 -0.7817E-17 -0.4624E-16 -0.2110E-18 -0.1269E-17
     -4.924 -0.1877E-16 -0.1075E-15 -0.5095E-18 -0.2978E-17
     -4.908 -0.4416E-16 -0.2471E-15 -0.1212E-17 -0.6908E-17
     -4.892 -0.1028E-15 -0.5608E-15 -0.2847E-17 -0.1583E-16
     -4.876 -0.2365E-15 -0.1257E-14 -0.6608E-17 -0.3581E-16
     -4.860 -0.5370E-15 -0.2780E-14 -0.1515E-16 -0.8002E-16
     -4.844 -0.1204E-14 -0.6074E-14 -0.3430E-16 -0.1766E-15
     -4.828 -0.2666E-14 -0.1310E-13 -0.7669E-16 -0.3850E-15
     -4.813 -0.5828E-14 -0.2790E-13 -0.1694E-15 -0.8287E-15
     -4.797 -0.1258E-13 -0.5868E-13 -0.3694E-15 -0.1762E-14
     -4.781 -0.2681E-13 -0.1219E-12 -0.7958E-15 -0.3700E-14
     -4.765 -0.5642E-13 -0.2498E-12 -0.1693E-14 -0.7673E-14
     -4.749 -0.1172E-12 -0.5057E-12 -0.3557E-14 -0.1571E-13
     -4.733 -0.2405E-12 -0.1011E-11 -0.7382E-14 -0.3179E-13
     -4.717 -0.4872E-12 -0.1994E-11 -0.1513E-13 -0.6350E-13
     -4.701 -0.9744E-12 -0.3886E-11 -0.3062E-13 -0.1253E-12
     -4.685 -0.1924E-11 -0.7474E-11 -0.6122E-13 -0.2441E-12
     -4.669 -0.3751E-11 -0.1419E-10 -0.1209E-12 -0.4698E-12
     -4.654 -0.7219E-11 -0.2661E-10 -0.2357E-12 -0.8930E-12
     -4.638 -0.1372E-10 -0.4924E-10 -0.4538E-12 -0.1676E-11
     -4.622 -0.2574E-10 -0.8997E-10 -0.8631E-12 -0.3107E-11
     -4.606 -0.4766E-10 -0.1623E-09 -0.1621E-11 -0.5688E-11
     -4.590 -0.8715E-10 -0.2889E-09 -0.3007E-11 -0.1028E-10
     -4.574 -0.1573E-09 -0.5078E-09 -0.5508E-11 -0.1836E-10
     -4.558 -0.2803E-09 -0.8811E-09 -0.9965E-11 -0.3237E-10
     -4.542 -0.4929E-09 -0.1509E-08 -0.1780E-10 -0.5636E-10
     -4.526 -0.8557E-09 -0.2550E-08 -0.3141E-10 -0.9691E-10
     -4.510 -0.1466E-08 -0.4254E-08 -0.5473E-10 -0.1646E-09
     -4.494 -0.2480E-08 -0.7004E-08 -0.9417E-10 -0.2759E-09
     -4.479 -0.4140E-08 -0.1138E-07 -0.1600E-09 -0.4569E-09
     -4.463 -0.6821E-08 -0.1825E-07 -0.2685E-09 -0.7471E-09
     -4.447 -0.1109E-07 -0.2887E-07 -0.4449E-09 -0.1206E-08
     -4.431 -0.1780E-07 -0.4507E-07 -0.7278E-09 -0.1923E-08
     -4.415 -0.2818E-07 -0.6942E-07 -0.1176E-08 -0.3027E-08
     -4.399 -0.4402E-07 -0.1055E-06 -0.1876E-08 -0.4704E-08
     -4.383 -0.6785E-07 -0.1581E-06 -0.2955E-08 -0.7219E-08
     -4.367 -0.1032E-06 -0.2338E-06 -0.4596E-08 -0.1094E-07
     -4.351 -0.1548E-06 -0.3410E-06 -0.7057E-08 -0.1636E-07
     -4.335 -0.2291E-06 -0.4904E-06 -0.1070E-07 -0.2416E-07
     -4.320 -0.3343E-06 -0.6954E-06 -0.1602E-07 -0.3522E-07
     -4.304 -0.4811E-06 -0.9722E-06 -0.2367E-07 -0.5068E-07
     -4.288 -0.6827E-06 -0.1339E-05 -0.3452E-07 -0.7198E-07
     -4.272 -0.9551E-06 -0.1819E-05 -0.4971E-07 -0.1009E-06
     -4.256 -0.1317E-05 -0.2433E-05 -0.7065E-07 -0.1396E-06
     -4.240 -0.1789E-05 -0.3204E-05 -0.9911E-07 -0.1905E-06
     -4.224 -0.2396E-05 -0.4156E-05 -0.1372E-06 -0.2566E-06
     -4.208 -0.3158E-05 -0.5303E-05 -0.1874E-06 -0.3410E-06
     -4.192 -0.4099E-05 -0.6655E-05 -0.2526E-06 -0.4468E-06
     -4.176 -0.5235E-05 -0.8208E-05 -0.3359E-06 -0.5773E-06
     -4.161 -0.6576E-05 -0.9939E-05 -0.4404E-06 -0.7354E-06
     -4.145 -0.8118E-05 -0.1180E-04 -0.5695E-06 -0.9231E-06
     -4.129 -0.9840E-05 -0.1372E-04 -0.7260E-06 -0.1141E-05
     -4.113 -0.1170E-04 -0.1559E-04 -0.9121E-06 -0.1389E-05
     -4.097 -0.1362E-04 -0.1726E-04 -0.1129E-05 -0.1664E-05
     -4.081 -0.1549E-04 -0.1853E-04 -0.1375E-05 -0.1958E-05
     -4.065 -0.1717E-04 -0.1917E-04 -0.1648E-05 -0.2263E-05
     -4.049 -0.1847E-04 -0.1890E-04 -0.1942E-05 -0.2564E-05
     -4.033 -0.1915E-04 -0.1740E-04 -0.2246E-05 -0.2840E-05
     -4.017 -0.1893E-04 -0.1434E-04 -0.2547E-05 -0.3069E-05
     -4.002 -0.1751E-04 -0.9351E-05 -0.2826E-05 -0.3217E-05
     -3.986 -0.1454E-04 -0.2079E-05 -0.3057E-05 -0.3250E-05
     -3.970 -0.9668E-05  0.7820E-05 -0.3211E-05 -0.3126E-05
     -3.954 -0.2529E-05  0.2065E-04 -0.3251E-05 -0.2798E-05
     -3.938  0.7218E-05  0.3665E-04 -0.3136E-05 -0.2215E-05
     -3.922  0.1988E-04  0.5601E-04 -0.2820E-05 -0.1324E-05
     -3.906  0.3571E-04  0.7880E-04 -0.2252E-05 -0.7094E-07
     -3.890  0.5487E-04  0.1050E-03 -0.1380E-05  0.1599E-05
     -3.874  0.7747E-04  0.1345E-03 -0.1478E-06  0.3737E-05
     -3.858  0.1035E-03  0.1670E-03  0.1498E-05  0.6394E-05
     -3.842  0.1328E-03  0.2023E-03  0.3610E-05  0.9610E-05
     -3.827  0.1652E-03  0.2398E-03  0.6236E-05  0.1342E-04
     -3.811  0.2003E-03  0.2792E-03  0.9421E-05  0.1786E-04
     -3.795  0.2377E-03  0.3199E-03  0.1320E-04  0.2295E-04
     -3.779  0.2770E-03  0.3613E-03  0.1761E-04  0.2870E-04
     -3.763  0.3176E-03  0.4029E-03  0.2266E-04  0.3510E-04
     -3.747  0.3589E-03  0.4443E-03  0.2836E-04  0.4217E-04
     -3.731  0.4006E-03  0.4850E-03  0.3473E-04  0.4988E-04
     -3.715  0.4420E-03  0.5247E-03  0.4176E-04  0.5822E-04
     -3.699  0.4827E-03  0.5632E-03  0.4944E-04  0.6718E-04
     -3.683  0.5225E-03  0.6003E-03  0.5775E-04  0.7673E-04
     -3.668  0.5610E-03  0.6358E-03  0.6667E-04  0.8684E-04
     -3.652  0.5982E-03  0.6699E-03  0.7618E-04  0.9749E-04
     -3.636  0.6338E-03  0.7025E-03  0.8626E-04  0.1087E-03
     -3.620  0.6680E-03  0.7337E-03  0.9688E-04  0.1203E-03
     -3.604  0.7007E-03  0.7636E-03  0.1080E-03  0.1325E-03
     -3.588  0.7319E-03  0.7921E-03  0.1197E-03  0.1451E-03
     -3.572  0.7619E-03  0.8193E-03  0.1318E-03  0.1581E-03
     -3.556  0.7905E-03  0.8453E-03  0.1443E-03  0.1715E-03
     -3.540  0.8178E-03  0.8699E-03  0.1574E-03  0.1854E-03
     -3.524  0.8438E-03  0.8932E-03  0.1708E-03  0.1996E-03
     -3.509  0.8685E-03  0.9151E-03  0.1846E-03  0.2141E-03
     -3.493  0.8918E-03  0.9356E-03  0.1988E-03  0.2290E-03
     -3.477  0.9138E-03  0.9549E-03  0.2133E-03  0.2442E-03
     -3.461  0.9345E-03  0.9732E-03  0.2282E-03  0.2597E-03
     -3.445  0.9539E-03  0.9905E-03  0.2433E-03  0.2754E-03
     -3.429  0.9721E-03  0.1007E-02  0.2588E-03  0.2914E-03
     -3.413  0.9895E-03  0.1024E-02  0.2745E-03  0.3077E-03
     -3.397  0.1006E-02  0.1041E-02  0.2905E-03  0.3243E-03
     -3.381  0.1023E-02  0.1058E-02  0.3068E-03  0.3411E-03
     -3.365  0.1040E-02  0.1077E-02  0.3233E-03  0.3582E-03
     -3.350  0.1057E-02  0.1096E-02  0.3401E-03  0.3757E-03
     -3.334  0.1076E-02  0.1117E-02  0.3572E-03  0.3934E-03
     -3.318  0.1095E-02  0.1139E-02  0.3747E-03  0.4115E-03
     -3.302  0.1116E-02  0.1162E-02  0.3924E-03  0.4300E-03
     -3.286  0.1138E-02  0.1186E-02  0.4105E-03  0.4489E-03
     -3.270  0.1161E-02  0.1210E-02  0.4290E-03  0.4681E-03
     -3.254  0.1185E-02  0.1233E-02  0.4478E-03  0.4877E-03
     -3.238  0.1209E-02  0.1255E-02  0.4670E-03  0.5077E-03
     -3.222  0.1232E-02  0.1275E-02  0.4866E-03  0.5280E-03
     -3.206  0.1254E-02  0.1292E-02  0.5066E-03  0.5485E-03
     -3.190  0.1274E-02  0.1307E-02  0.5268E-03  0.5693E-03
     -3.175  0.1292E-02  0.1319E-02  0.5474E-03  0.5903E-03
     -3.159  0.1307E-02  0.1327E-02  0.5682E-03  0.6114E-03
     -3.143  0.1318E-02  0.1334E-02  0.5891E-03  0.6326E-03
     -3.127  0.1327E-02  0.1339E-02  0.6102E-03  0.6539E-03
     -3.111  0.1334E-02  0.1344E-02  0.6315E-03  0.6753E-03
     -3.095  0.1340E-02  0.1350E-02  0.6528E-03  0.6967E-03
     -3.079  0.1344E-02  0.1357E-02  0.6741E-03  0.7183E-03
     -3.063  0.1350E-02  0.1367E-02  0.6956E-03  0.7401E-03
     -3.047  0.1357E-02  0.1380E-02  0.7172E-03  0.7620E-03
     -3.031  0.1367E-02  0.1398E-02  0.7389E-03  0.7842E-03
     -3.016  0.1380E-02  0.1420E-02  0.7609E-03  0.8068E-03
     -3.000  0.1397E-02  0.1445E-02  0.7831E-03  0.8298E-03
     -2.984  0.1419E-02  0.1474E-02  0.8056E-03  0.8532E-03
     -2.968  0.1444E-02  0.1504E-02  0.8286E-03  0.8771E-03
     -2.952  0.1473E-02  0.1536E-02  0.8520E-03  0.9016E-03
     -2.936  0.1503E-02  0.1566E-02  0.8759E-03  0.9265E-03
     -2.920  0.1535E-02  0.1595E-02  0.9003E-03  0.9519E-03
     -2.904  0.1566E-02  0.1621E-02  0.9252E-03  0.9776E-03
     -2.888  0.1595E-02  0.1642E-02  0.9506E-03  0.1004E-02
     -2.872  0.1621E-02  0.1659E-02  0.9764E-03  0.1030E-02
     -2.857  0.1642E-02  0.1671E-02  0.1002E-02  0.1057E-02
     -2.841  0.1659E-02  0.1678E-02  0.1029E-02  0.1083E-02
     -2.825  0.1671E-02  0.1681E-02  0.1055E-02  0.1110E-02
     -2.809  0.1679E-02  0.1680E-02  0.1082E-02  0.1137E-02
     -2.793  0.1682E-02  0.1678E-02  0.1109E-02  0.1164E-02
     -2.777  0.1682E-02  0.1675E-02  0.1136E-02  0.1190E-02
     -2.761  0.1680E-02  0.1673E-02  0.1162E-02  0.1217E-02
     -2.745  0.1677E-02  0.1672E-02  0.1189E-02  0.1243E-02
     -2.729  0.1674E-02  0.1674E-02  0.1216E-02  0.1270E-02
     -2.713  0.1674E-02  0.1680E-02  0.1242E-02  0.1297E-02
     -2.698  0.1676E-02  0.1689E-02  0.1269E-02  0.1324E-02
     -2.682  0.1681E-02  0.1702E-02  0.1296E-02  0.1351E-02
     -2.666  0.1690E-02  0.1719E-02  0.1323E-02  0.1378E-02
     -2.650  0.1703E-02  0.1739E-02  0.1350E-02  0.1406E-02
     -2.634  0.1719E-02  0.1761E-02  0.1377E-02  0.1434E-02
     -2.618  0.1739E-02  0.1786E-02  0.1405E-02  0.1462E-02
     -2.602  0.1761E-02  0.1812E-02  0.1433E-02  0.1491E-02
     -2.586  0.1786E-02  0.1839E-02  0.1461E-02  0.1520E-02
     -2.570  0.1812E-02  0.1866E-02  0.1490E-02  0.1550E-02
     -2.554  0.1839E-02  0.1894E-02  0.1519E-02  0.1580E-02
     -2.538  0.1866E-02  0.1922E-02  0.1549E-02  0.1610E-02
     -2.523  0.1895E-02  0.1950E-02  0.1579E-02  0.1641E-02
     -2.507  0.1923E-02  0.1978E-02  0.1609E-02  0.1673E-02
     -2.491  0.1951E-02  0.2004E-02  0.1640E-02  0.1705E-02
     -2.475  0.1979E-02  0.2029E-02  0.1672E-02  0.1737E-02
     -2.459  0.2005E-02  0.2052E-02  0.1704E-02  0.1770E-02
     -2.443  0.2031E-02  0.2072E-02  0.1736E-02  0.1803E-02
     -2.427  0.2054E-02  0.2088E-02  0.1769E-02  0.1836E-02
     -2.411  0.2074E-02  0.2100E-02  0.1802E-02  0.1869E-02
     -2.395  0.2091E-02  0.2108E-02  0.1835E-02  0.1903E-02
     -2.379  0.2104E-02  0.2110E-02  0.1868E-02  0.1936E-02
     -2.364  0.2111E-02  0.2106E-02  0.1902E-02  0.1970E-02
     -2.348  0.2113E-02  0.2098E-02  0.1936E-02  0.2003E-02
     -2.332  0.2110E-02  0.2086E-02  0.1969E-02  0.2036E-02
     -2.316  0.2102E-02  0.2071E-02  0.2003E-02  0.2069E-02
     -2.300  0.2089E-02  0.2055E-02  0.2036E-02  0.2102E-02
     -2.284  0.2074E-02  0.2040E-02  0.2069E-02  0.2134E-02
     -2.268  0.2058E-02  0.2027E-02  0.2102E-02  0.2167E-02
     -2.252  0.2043E-02  0.2020E-02  0.2134E-02  0.2199E-02
     -2.236  0.2030E-02  0.2020E-02  0.2166E-02  0.2231E-02
     -2.220  0.2023E-02  0.2028E-02  0.2198E-02  0.2263E-02
     -2.205  0.2022E-02  0.2046E-02  0.2231E-02  0.2296E-02
     -2.189  0.2030E-02  0.2073E-02  0.2263E-02  0.2329E-02
     -2.173  0.2048E-02  0.2110E-02  0.2295E-02  0.2362E-02
     -2.157  0.2075E-02  0.2156E-02  0.2328E-02  0.2396E-02
     -2.141  0.2112E-02  0.2209E-02  0.2362E-02  0.2432E-02
     -2.125  0.2158E-02  0.2266E-02  0.2396E-02  0.2468E-02
     -2.109  0.2211E-02  0.2326E-02  0.2432E-02  0.2505E-02
     -2.093  0.2268E-02  0.2384E-02  0.2468E-02  0.2542E-02
     -2.077  0.2328E-02  0.2439E-02  0.2505E-02  0.2581E-02
     -2.061  0.2387E-02  0.2488E-02  0.2543E-02  0.2621E-02
     -2.046  0.2442E-02  0.2528E-02  0.2581E-02  0.2661E-02
     -2.030  0.2491E-02  0.2557E-02  0.2621E-02  0.2702E-02
     -2.014  0.2531E-02  0.2576E-02  0.2661E-02  0.2743E-02
     -1.998  0.2561E-02  0.2583E-02  0.2702E-02  0.2784E-02
     -1.982  0.2580E-02  0.2579E-02  0.2743E-02  0.2825E-02
     -1.966  0.2588E-02  0.2565E-02  0.2784E-02  0.2866E-02
     -1.950  0.2585E-02  0.2544E-02  0.2825E-02  0.2906E-02
     -1.934  0.2571E-02  0.2517E-02  0.2866E-02  0.2946E-02
     -1.918  0.2551E-02  0.2488E-02  0.2907E-02  0.2986E-02
     -1.902  0.2524E-02  0.2458E-02  0.2947E-02  0.3025E-02
     -1.887  0.2495E-02  0.2432E-02  0.2987E-02  0.3063E-02
     -1.871  0.2466E-02  0.2410E-02  0.3026E-02  0.3102E-02
     -1.855  0.2439E-02  0.2396E-02  0.3065E-02  0.3140E-02
     -1.839  0.2417E-02  0.2391E-02  0.3103E-02  0.3178E-02
     -1.823  0.2403E-02  0.2396E-02  0.3141E-02  0.3216E-02
     -1.807  0.2398E-02  0.2412E-02  0.3179E-02  0.3254E-02
     -1.791  0.2402E-02  0.2438E-02  0.3218E-02  0.3293E-02
     -1.775  0.2418E-02  0.2475E-02  0.3256E-02  0.3332E-02
     -1.759  0.2444E-02  0.2520E-02  0.3295E-02  0.3372E-02
     -1.743  0.2479E-02  0.2572E-02  0.3334E-02  0.3413E-02
     -1.727  0.2524E-02  0.2629E-02  0.3374E-02  0.3455E-02
     -1.712  0.2575E-02  0.2689E-02  0.3415E-02  0.3498E-02
     -1.696  0.2632E-02  0.2750E-02  0.3457E-02  0.3542E-02
     -1.680  0.2692E-02  0.2810E-02  0.3500E-02  0.3586E-02
     -1.664  0.2753E-02  0.2866E-02  0.3544E-02  0.3632E-02
     -1.648  0.2812E-02  0.2917E-02  0.3589E-02  0.3678E-02
     -1.632  0.2869E-02  0.2962E-02  0.3634E-02  0.3725E-02
     -1.616  0.2919E-02  0.2998E-02  0.3681E-02  0.3773E-02
     -1.600  0.2964E-02  0.3027E-02  0.3728E-02  0.3821E-02
     -1.584  0.3001E-02  0.3049E-02  0.3775E-02  0.3870E-02
     -1.568  0.3030E-02  0.3063E-02  0.3824E-02  0.3918E-02
     -1.553  0.3051E-02  0.3072E-02  0.3872E-02  0.3967E-02
     -1.537  0.3066E-02  0.3078E-02  0.3921E-02  0.4016E-02
     -1.521  0.3075E-02  0.3082E-02  0.3970E-02  0.4065E-02
     -1.505  0.3081E-02  0.3087E-02  0.4019E-02  0.4114E-02
     -1.489  0.3085E-02  0.3095E-02  0.4068E-02  0.4164E-02
     -1.473  0.3091E-02  0.3108E-02  0.4117E-02  0.4213E-02
     -1.457  0.3100E-02  0.3126E-02  0.4166E-02  0.4263E-02
     -1.441  0.3113E-02  0.3152E-02  0.4216E-02  0.4313E-02
     -1.425  0.3134E-02  0.3185E-02  0.4266E-02  0.4363E-02
     -1.409  0.3161E-02  0.3225E-02  0.4316E-02  0.4415E-02
     -1.394  0.3195E-02  0.3269E-02  0.4367E-02  0.4467E-02
     -1.378  0.3236E-02  0.3316E-02  0.4418E-02  0.4519E-02
     -1.362  0.3281E-02  0.3364E-02  0.4470E-02  0.4573E-02
     -1.346  0.3329E-02  0.3409E-02  0.4523E-02  0.4627E-02
     -1.330  0.3378E-02  0.3450E-02  0.4577E-02  0.4682E-02
     -1.314  0.3424E-02  0.3483E-02  0.4631E-02  0.4737E-02
     -1.298  0.3464E-02  0.3506E-02  0.4687E-02  0.4793E-02
     -1.282  0.3497E-02  0.3517E-02  0.4742E-02  0.4849E-02
     -1.266  0.3519E-02  0.3517E-02  0.4798E-02  0.4905E-02
     -1.250  0.3530E-02  0.3504E-02  0.4854E-02  0.4961E-02
     -1.235  0.3529E-02  0.3481E-02  0.4910E-02  0.5016E-02
     -1.219  0.3516E-02  0.3447E-02  0.4966E-02  0.5071E-02
     -1.203  0.3492E-02  0.3405E-02  0.5022E-02  0.5125E-02
     -1.187  0.3458E-02  0.3358E-02  0.5077E-02  0.5179E-02
     -1.171  0.3416E-02  0.3309E-02  0.5131E-02  0.5231E-02
     -1.155  0.3370E-02  0.3260E-02  0.5185E-02  0.5283E-02
     -1.139  0.3323E-02  0.3216E-02  0.5238E-02  0.5334E-02
     -1.123  0.3277E-02  0.3178E-02  0.5290E-02  0.5385E-02
     -1.107  0.3235E-02  0.3148E-02  0.5341E-02  0.5435E-02
     -1.091  0.3200E-02  0.3130E-02  0.5392E-02  0.5484E-02
     -1.075  0.3174E-02  0.3122E-02  0.5442E-02  0.5534E-02
     -1.060  0.3159E-02  0.3126E-02  0.5493E-02  0.5584E-02
     -1.044  0.3155E-02  0.3140E-02  0.5543E-02  0.5634E-02
     -1.028  0.3161E-02  0.3163E-02  0.5593E-02  0.5684E-02
     -1.012  0.3178E-02  0.3192E-02  0.5644E-02  0.5735E-02
     -0.996  0.3201E-02  0.3223E-02  0.5695E-02  0.5786E-02
     -0.980  0.3230E-02  0.3253E-02  0.5746E-02  0.5838E-02
     -0.964  0.3260E-02  0.3278E-02  0.5798E-02  0.5890E-02
     -0.948  0.3287E-02  0.3295E-02  0.5850E-02  0.5942E-02
     -0.932  0.3309E-02  0.3301E-02  0.5903E-02  0.5995E-02
     -0.916  0.3322E-02  0.3294E-02  0.5956E-02  0.6047E-02
     -0.901  0.3324E-02  0.3272E-02  0.6008E-02  0.6099E-02
     -0.885  0.3312E-02  0.3237E-02  0.6061E-02  0.6151E-02
     -0.869  0.3287E-02  0.3190E-02  0.6113E-02  0.6201E-02
     -0.853  0.3249E-02  0.3134E-02  0.6165E-02  0.6251E-02
     -0.837  0.3200E-02  0.3071E-02  0.6216E-02  0.6300E-02
     -0.821  0.3143E-02  0.3007E-02  0.6266E-02  0.6348E-02
     -0.805  0.3082E-02  0.2946E-02  0.6315E-02  0.6395E-02
     -0.789  0.3021E-02  0.2892E-02  0.6363E-02  0.6441E-02
     -0.773  0.2965E-02  0.2850E-02  0.6410E-02  0.6486E-02
     -0.757  0.2917E-02  0.2822E-02  0.6456E-02  0.6531E-02
     -0.742  0.2883E-02  0.2810E-02  0.6502E-02  0.6576E-02
     -0.726  0.2863E-02  0.2815E-02  0.6548E-02  0.6620E-02
     -0.710  0.2860E-02  0.2837E-02  0.6593E-02  0.6666E-02
     -0.694  0.2874E-02  0.2873E-02  0.6639E-02  0.6711E-02
     -0.678  0.2903E-02  0.2920E-02  0.6685E-02  0.6758E-02
     -0.662  0.2945E-02  0.2975E-02  0.6732E-02  0.6805E-02
     -0.646  0.2997E-02  0.3033E-02  0.6780E-02  0.6853E-02
     -0.630  0.3055E-02  0.3091E-02  0.6828E-02  0.6902E-02
     -0.614  0.3114E-02  0.3143E-02  0.6878E-02  0.6952E-02
     -0.598  0.3171E-02  0.3187E-02  0.6928E-02  0.7003E-02
     -0.583  0.3221E-02  0.3221E-02  0.6979E-02  0.7054E-02
     -0.567  0.3262E-02  0.3242E-02  0.7031E-02  0.7106E-02
     -0.551  0.3291E-02  0.3252E-02  0.7084E-02  0.7158E-02
     -0.535  0.3308E-02  0.3250E-02  0.7136E-02  0.7209E-02
     -0.519  0.3313E-02  0.3238E-02  0.7189E-02  0.7261E-02
     -0.503  0.3308E-02  0.3220E-02  0.7242E-02  0.7312E-02
     -0.487  0.3295E-02  0.3199E-02  0.7294E-02  0.7363E-02
     -0.471  0.3278E-02  0.3179E-02  0.7346E-02  0.7413E-02
     -0.455  0.3259E-02  0.3162E-02  0.7398E-02  0.7464E-02
     -0.439  0.3242E-02  0.3153E-02  0.7449E-02  0.7514E-02
     -0.423  0.3231E-02  0.3153E-02  0.7501E-02  0.7564E-02
     -0.408  0.3230E-02  0.3165E-02  0.7552E-02  0.7614E-02
     -0.392  0.3239E-02  0.3191E-02  0.7604E-02  0.7665E-02
     -0.376  0.3261E-02  0.3229E-02  0.7656E-02  0.7716E-02
     -0.360  0.3296E-02  0.3279E-02  0.7708E-02  0.7768E-02
     -0.344  0.3344E-02  0.3339E-02  0.7761E-02  0.7822E-02
     -0.328  0.3403E-02  0.3408E-02  0.7815E-02  0.7876E-02
     -0.312  0.3472E-02  0.3483E-02  0.7870E-02  0.7931E-02
     -0.296  0.3547E-02  0.3560E-02  0.7927E-02  0.7988E-02
     -0.280  0.3627E-02  0.3638E-02  0.7985E-02  0.8046E-02
     -0.264  0.3708E-02  0.3714E-02  0.8044E-02  0.8105E-02
     -0.249  0.3788E-02  0.3786E-02  0.8104E-02  0.8165E-02
     -0.233  0.3865E-02  0.3853E-02  0.8165E-02  0.8226E-02
     -0.217  0.3936E-02  0.3912E-02  0.8228E-02  0.8288E-02
     -0.201  0.4000E-02  0.3965E-02  0.8291E-02  0.8351E-02
     -0.185  0.4056E-02  0.4009E-02  0.8356E-02  0.8415E-02
     -0.169  0.4104E-02  0.4047E-02  0.8421E-02  0.8480E-02
     -0.153  0.4144E-02  0.4077E-02  0.8487E-02  0.8544E-02
     -0.137  0.4176E-02  0.4100E-02  0.8554E-02  0.8610E-02
     -0.121  0.4200E-02  0.4118E-02  0.8620E-02  0.8675E-02
     -0.105  0.4218E-02  0.4130E-02  0.8687E-02  0.8741E-02
     -0.090  0.4229E-02  0.4137E-02  0.8755E-02  0.8807E-02
     -0.074  0.4235E-02  0.4140E-02  0.8822E-02  0.8872E-02
     -0.058  0.4237E-02  0.4138E-02  0.8889E-02  0.8938E-02
     -0.042  0.4236E-02  0.4134E-02  0.8957E-02  0.9004E-02
     -0.026  0.4232E-02  0.4128E-02  0.9024E-02  0.9070E-02
     -0.010  0.4227E-02  0.4120E-02  0.9091E-02  0.9135E-02
      0.006  0.4223E-02  0.4112E-02  0.9158E-02  0.9200E-02
      0.022  0.4221E-02  0.4106E-02  0.9226E-02  0.9266E-02
      0.038  0.4224E-02  0.4104E-02  0.9293E-02  0.9331E-02
      0.054  0.4232E-02  0.4107E-02  0.9360E-02  0.9396E-02
      0.069  0.4248E-02  0.4118E-02  0.9428E-02  0.9462E-02
      0.085  0.4275E-02  0.4138E-02  0.9496E-02  0.9528E-02
      0.101  0.4314E-02  0.4169E-02  0.9564E-02  0.9594E-02
      0.117  0.4367E-02  0.4212E-02  0.9634E-02  0.9661E-02
      0.133  0.4434E-02  0.4269E-02  0.9704E-02  0.9729E-02
      0.149  0.4517E-02  0.4339E-02  0.9776E-02  0.9798E-02
      0.165  0.4613E-02  0.4422E-02  0.9849E-02  0.9868E-02
      0.181  0.4723E-02  0.4516E-02  0.9924E-02  0.9940E-02
      0.197  0.4844E-02  0.4621E-02  0.1000E-01  0.1001E-01
      0.213  0.4973E-02  0.4733E-02  0.1008E-01  0.1009E-01
      0.229  0.5105E-02  0.4850E-02  0.1016E-01  0.1017E-01
      0.244  0.5238E-02  0.4968E-02  0.1025E-01  0.1024E-01
      0.260  0.5365E-02  0.5083E-02  0.1033E-01  0.1033E-01
      0.276  0.5482E-02  0.5193E-02  0.1042E-01  0.1041E-01
      0.292  0.5584E-02  0.5293E-02  0.1051E-01  0.1049E-01
      0.308  0.5667E-02  0.5380E-02  0.1060E-01  0.1058E-01
      0.324  0.5724E-02  0.5450E-02  0.1069E-01  0.1066E-01
      0.340  0.5755E-02  0.5500E-02  0.1078E-01  0.1075E-01
      0.356  0.5755E-02  0.5527E-02  0.1087E-01  0.1084E-01
      0.372  0.5723E-02  0.5530E-02  0.1096E-01  0.1093E-01
      0.388  0.5659E-02  0.5506E-02  0.1105E-01  0.1102E-01
      0.403  0.5563E-02  0.5455E-02  0.1114E-01  0.1110E-01
      0.419  0.5437E-02  0.5376E-02  0.1123E-01  0.1119E-01
      0.435  0.5285E-02  0.5270E-02  0.1131E-01  0.1127E-01
      0.451  0.5109E-02  0.5139E-02  0.1139E-01  0.1135E-01
      0.467  0.4915E-02  0.4985E-02  0.1147E-01  0.1143E-01
      0.483  0.4708E-02  0.4811E-02  0.1154E-01  0.1151E-01
      0.499  0.4494E-02  0.4623E-02  0.1162E-01  0.1158E-01
      0.515  0.4280E-02  0.4424E-02  0.1168E-01  0.1165E-01
      0.531  0.4070E-02  0.4222E-02  0.1175E-01  0.1172E-01
      0.547  0.3871E-02  0.4021E-02  0.1181E-01  0.1178E-01
      0.562  0.3689E-02  0.3828E-02  0.1187E-01  0.1184E-01
      0.578  0.3527E-02  0.3648E-02  0.1193E-01  0.1190E-01
      0.594  0.3390E-02  0.3486E-02  0.1198E-01  0.1196E-01
      0.610  0.3279E-02  0.3347E-02  0.1203E-01  0.1201E-01
      0.626  0.3198E-02  0.3234E-02  0.1208E-01  0.1206E-01
      0.642  0.3146E-02  0.3150E-02  0.1213E-01  0.1211E-01
      0.658  0.3123E-02  0.3094E-02  0.1218E-01  0.1216E-01
      0.674  0.3127E-02  0.3066E-02  0.1223E-01  0.1221E-01
      0.690  0.3156E-02  0.3066E-02  0.1228E-01  0.1226E-01
      0.706  0.3208E-02  0.3092E-02  0.1233E-01  0.1231E-01
      0.721  0.3280E-02  0.3140E-02  0.1238E-01  0.1236E-01
      0.737  0.3368E-02  0.3207E-02  0.1244E-01  0.1241E-01
      0.753  0.3469E-02  0.3290E-02  0.1249E-01  0.1246E-01
      0.769  0.3580E-02  0.3386E-02  0.1255E-01  0.1252E-01
      0.785  0.3699E-02  0.3491E-02  0.1261E-01  0.1257E-01
      0.801  0.3822E-02  0.3603E-02  0.1267E-01  0.1263E-01
      0.817  0.3948E-02  0.3719E-02  0.1273E-01  0.1269E-01
      0.833  0.4076E-02  0.3837E-02  0.1280E-01  0.1275E-01
      0.849  0.4203E-02  0.3955E-02  0.1286E-01  0.1281E-01
      0.865  0.4330E-02  0.4072E-02  0.1293E-01  0.1288E-01
      0.881  0.4454E-02  0.4188E-02  0.1300E-01  0.1294E-01
      0.896  0.4576E-02  0.4301E-02  0.1308E-01  0.1301E-01
      0.912  0.4696E-02  0.4410E-02  0.1315E-01  0.1308E-01
      0.928  0.4813E-02  0.4516E-02  0.1323E-01  0.1315E-01
      0.944  0.4926E-02  0.4617E-02  0.1331E-01  0.1323E-01
      0.960  0.5036E-02  0.4715E-02  0.1339E-01  0.1330E-01
      0.976  0.5143E-02  0.4809E-02  0.1347E-01  0.1338E-01
      0.992  0.5247E-02  0.4899E-02  0.1355E-01  0.1346E-01
      1.008  0.5348E-02  0.4986E-02  0.1364E-01  0.1354E-01
      1.024  0.5447E-02  0.5069E-02  0.1372E-01  0.1362E-01
      1.040  0.5545E-02  0.5150E-02  0.1381E-01  0.1370E-01
      1.055  0.5642E-02  0.5229E-02  0.1390E-01  0.1378E-01
      1.071  0.5741E-02  0.5307E-02  0.1399E-01  0.1387E-01
      1.087  0.5842E-02  0.5385E-02  0.1409E-01  0.1395E-01
      1.103  0.5947E-02  0.5464E-02  0.1418E-01  0.1404E-01
      1.119  0.6058E-02  0.5545E-02  0.1428E-01  0.1413E-01
      1.135  0.6177E-02  0.5629E-02  0.1437E-01  0.1422E-01
      1.151  0.6304E-02  0.5717E-02  0.1448E-01  0.1431E-01
      1.167  0.6443E-02  0.5810E-02  0.1458E-01  0.1440E-01
      1.183  0.6592E-02  0.5910E-02  0.1468E-01  0.1449E-01
      1.199  0.6754E-02  0.6017E-02  0.1479E-01  0.1459E-01
      1.214  0.6928E-02  0.6132E-02  0.1490E-01  0.1469E-01
      1.230  0.7113E-02  0.6256E-02  0.1501E-01  0.1479E-01
      1.246  0.7308E-02  0.6389E-02  0.1513E-01  0.1489E-01
      1.262  0.7512E-02  0.6530E-02  0.1525E-01  0.1499E-01
      1.278  0.7722E-02  0.6681E-02  0.1537E-01  0.1510E-01
      1.294  0.7935E-02  0.6840E-02  0.1550E-01  0.1521E-01
      1.310  0.8148E-02  0.7006E-02  0.1563E-01  0.1532E-01
      1.326  0.8356E-02  0.7178E-02  0.1576E-01  0.1543E-01
      1.342  0.8557E-02  0.7353E-02  0.1590E-01  0.1555E-01
      1.358  0.8745E-02  0.7531E-02  0.1604E-01  0.1567E-01
      1.373  0.8918E-02  0.7707E-02  0.1618E-01  0.1579E-01
      1.389  0.9072E-02  0.7880E-02  0.1632E-01  0.1592E-01
      1.405  0.9204E-02  0.8046E-02  0.1647E-01  0.1604E-01
      1.421  0.9313E-02  0.8203E-02  0.1662E-01  0.1617E-01
      1.437  0.9398E-02  0.8348E-02  0.1677E-01  0.1631E-01
      1.453  0.9458E-02  0.8479E-02  0.1692E-01  0.1644E-01
      1.469  0.9494E-02  0.8594E-02  0.1707E-01  0.1658E-01
      1.485  0.9508E-02  0.8692E-02  0.1722E-01  0.1672E-01
      1.501  0.9503E-02  0.8772E-02  0.1737E-01  0.1686E-01
      1.517  0.9483E-02  0.8834E-02  0.1752E-01  0.1700E-01
      1.533  0.9452E-02  0.8879E-02  0.1767E-01  0.1714E-01
      1.548  0.9415E-02  0.8907E-02  0.1782E-01  0.1728E-01
      1.564  0.9380E-02  0.8919E-02  0.1797E-01  0.1742E-01
      1.580  0.9353E-02  0.8918E-02  0.1812E-01  0.1756E-01
      1.596  0.9342E-02  0.8905E-02  0.1827E-01  0.1771E-01
      1.612  0.9353E-02  0.8883E-02  0.1842E-01  0.1785E-01
      1.628  0.9395E-02  0.8856E-02  0.1856E-01  0.1799E-01
      1.644  0.9475E-02  0.8828E-02  0.1872E-01  0.1813E-01
      1.660  0.9599E-02  0.8803E-02  0.1887E-01  0.1827E-01
      1.676  0.9770E-02  0.8788E-02  0.1902E-01  0.1841E-01
      1.692  0.9993E-02  0.8789E-02  0.1918E-01  0.1855E-01
      1.707  0.1027E-01  0.8812E-02  0.1935E-01  0.1869E-01
      1.723  0.1059E-01  0.8864E-02  0.1951E-01  0.1883E-01
      1.739  0.1095E-01  0.8952E-02  0.1969E-01  0.1897E-01
      1.755  0.1134E-01  0.9080E-02  0.1987E-01  0.1912E-01
      1.771  0.1175E-01  0.9252E-02  0.2005E-01  0.1926E-01
      1.787  0.1217E-01  0.9470E-02  0.2025E-01  0.1941E-01
      1.803  0.1257E-01  0.9732E-02  0.2045E-01  0.1957E-01
      1.819  0.1295E-01  0.1003E-01  0.2065E-01  0.1973E-01
      1.835  0.1329E-01  0.1037E-01  0.2087E-01  0.1989E-01
      1.851  0.1356E-01  0.1073E-01  0.2108E-01  0.2006E-01
      1.866  0.1377E-01  0.1110E-01  0.2130E-01  0.2024E-01
      1.882  0.1389E-01  0.1147E-01  0.2152E-01  0.2042E-01
      1.898  0.1393E-01  0.1182E-01  0.2174E-01  0.2061E-01
      1.914  0.1389E-01  0.1214E-01  0.2196E-01  0.2080E-01
      1.930  0.1377E-01  0.1241E-01  0.2218E-01  0.2100E-01
      1.946  0.1359E-01  0.1262E-01  0.2240E-01  0.2120E-01
      1.962  0.1335E-01  0.1276E-01  0.2261E-01  0.2140E-01
      1.978  0.1308E-01  0.1283E-01  0.2282E-01  0.2161E-01
      1.994  0.1279E-01  0.1283E-01  0.2302E-01  0.2181E-01
      2.010  0.1250E-01  0.1275E-01  0.2322E-01  0.2201E-01
      2.025  0.1225E-01  0.1260E-01  0.2342E-01  0.2221E-01
      2.041  0.1203E-01  0.1240E-01  0.2361E-01  0.2241E-01
      2.057  0.1188E-01  0.1216E-01  0.2380E-01  0.2261E-01
      2.073  0.1179E-01  0.1189E-01  0.2398E-01  0.2279E-01
      2.089  0.1179E-01  0.1161E-01  0.2417E-01  0.2298E-01
      2.105  0.1187E-01  0.1134E-01  0.2436E-01  0.2316E-01
      2.121  0.1202E-01  0.1110E-01  0.2455E-01  0.2334E-01
      2.137  0.1225E-01  0.1090E-01  0.2475E-01  0.2351E-01
      2.153  0.1254E-01  0.1076E-01  0.2495E-01  0.2368E-01
      2.169  0.1286E-01  0.1068E-01  0.2515E-01  0.2385E-01
      2.185  0.1322E-01  0.1068E-01  0.2536E-01  0.2402E-01
      2.200  0.1357E-01  0.1074E-01  0.2558E-01  0.2419E-01
      2.216  0.1392E-01  0.1088E-01  0.2580E-01  0.2436E-01
      2.232  0.1423E-01  0.1108E-01  0.2602E-01  0.2454E-01
      2.248  0.1449E-01  0.1133E-01  0.2625E-01  0.2472E-01
      2.264  0.1469E-01  0.1162E-01  0.2649E-01  0.2490E-01
      2.280  0.1481E-01  0.1194E-01  0.2672E-01  0.2509E-01
      2.296  0.1487E-01  0.1227E-01  0.2696E-01  0.2529E-01
      2.312  0.1484E-01  0.1259E-01  0.2720E-01  0.2549E-01
      2.328  0.1474E-01  0.1289E-01  0.2743E-01  0.2569E-01
      2.344  0.1457E-01  0.1316E-01  0.2766E-01  0.2590E-01
      2.359  0.1435E-01  0.1338E-01  0.2789E-01  0.2612E-01
      2.375  0.1409E-01  0.1354E-01  0.2811E-01  0.2633E-01
      2.391  0.1379E-01  0.1364E-01  0.2833E-01  0.2655E-01
      2.407  0.1348E-01  0.1369E-01  0.2855E-01  0.2677E-01
      2.423  0.1317E-01  0.1367E-01  0.2876E-01  0.2698E-01
      2.439  0.1288E-01  0.1360E-01  0.2896E-01  0.2720E-01
      2.455  0.1263E-01  0.1348E-01  0.2916E-01  0.2741E-01
      2.471  0.1244E-01  0.1333E-01  0.2936E-01  0.2763E-01
      2.487  0.1232E-01  0.1315E-01  0.2956E-01  0.2784E-01
      2.503  0.1229E-01  0.1295E-01  0.2975E-01  0.2804E-01
      2.518  0.1238E-01  0.1275E-01  0.2995E-01  0.2824E-01
      2.534  0.1261E-01  0.1256E-01  0.3015E-01  0.2844E-01
      2.550  0.1301E-01  0.1238E-01  0.3036E-01  0.2864E-01
      2.566  0.1359E-01  0.1222E-01  0.3057E-01  0.2884E-01
      2.582  0.1437E-01  0.1210E-01  0.3080E-01  0.2903E-01
      2.598  0.1538E-01  0.1200E-01  0.3105E-01  0.2922E-01
      2.614  0.1664E-01  0.1195E-01  0.3131E-01  0.2941E-01
      2.630  0.1814E-01  0.1195E-01  0.3160E-01  0.2960E-01
      2.646  0.1990E-01  0.1201E-01  0.3191E-01  0.2979E-01
      2.662  0.2191E-01  0.1213E-01  0.3226E-01  0.2998E-01
      2.677  0.2415E-01  0.1232E-01  0.3265E-01  0.3018E-01
      2.693  0.2660E-01  0.1260E-01  0.3307E-01  0.3038E-01
      2.709  0.2921E-01  0.1299E-01  0.3353E-01  0.3059E-01
      2.725  0.3195E-01  0.1350E-01  0.3404E-01  0.3080E-01
      2.741  0.3476E-01  0.1415E-01  0.3460E-01  0.3103E-01
      2.757  0.3758E-01  0.1496E-01  0.3519E-01  0.3126E-01
      2.773  0.4034E-01  0.1594E-01  0.3583E-01  0.3152E-01
      2.789  0.4299E-01  0.1711E-01  0.3652E-01  0.3179E-01
      2.805  0.4545E-01  0.1847E-01  0.3724E-01  0.3208E-01
      2.821  0.4766E-01  0.2002E-01  0.3800E-01  0.3240E-01
      2.837  0.4958E-01  0.2178E-01  0.3879E-01  0.3275E-01
      2.852  0.5117E-01  0.2371E-01  0.3960E-01  0.3312E-01
      2.868  0.5239E-01  0.2581E-01  0.4043E-01  0.3354E-01
      2.884  0.5323E-01  0.2805E-01  0.4128E-01  0.3398E-01
      2.900  0.5369E-01  0.3039E-01  0.4213E-01  0.3446E-01
      2.916  0.5377E-01  0.3279E-01  0.4299E-01  0.3499E-01
      2.932  0.5350E-01  0.3520E-01  0.4384E-01  0.3555E-01
      2.948  0.5293E-01  0.3757E-01  0.4468E-01  0.3614E-01
      2.964  0.5209E-01  0.3985E-01  0.4551E-01  0.3678E-01
      2.980  0.5104E-01  0.4199E-01  0.4632E-01  0.3744E-01
      2.996  0.4984E-01  0.4392E-01  0.4711E-01  0.3814E-01
      3.011  0.4855E-01  0.4560E-01  0.4789E-01  0.3887E-01
      3.027  0.4723E-01  0.4698E-01  0.4864E-01  0.3961E-01
      3.043  0.4594E-01  0.4802E-01  0.4937E-01  0.4038E-01
      3.059  0.4471E-01  0.4870E-01  0.5008E-01  0.4115E-01
      3.075  0.4360E-01  0.4899E-01  0.5077E-01  0.4193E-01
      3.091  0.4262E-01  0.4888E-01  0.5145E-01  0.4271E-01
      3.107  0.4180E-01  0.4837E-01  0.5212E-01  0.4348E-01
      3.123  0.4115E-01  0.4750E-01  0.5277E-01  0.4423E-01
      3.139  0.4066E-01  0.4628E-01  0.5342E-01  0.4497E-01
      3.155  0.4032E-01  0.4476E-01  0.5406E-01  0.4568E-01
      3.170  0.4011E-01  0.4301E-01  0.5470E-01  0.4637E-01
      3.186  0.4001E-01  0.4108E-01  0.5533E-01  0.4702E-01
      3.202  0.4000E-01  0.3904E-01  0.5597E-01  0.4764E-01
      3.218  0.4005E-01  0.3699E-01  0.5660E-01  0.4823E-01
      3.234  0.4014E-01  0.3499E-01  0.5724E-01  0.4878E-01
      3.250  0.4023E-01  0.3312E-01  0.5788E-01  0.4931E-01
      3.266  0.4033E-01  0.3146E-01  0.5852E-01  0.4981E-01
      3.282  0.4040E-01  0.3005E-01  0.5917E-01  0.5029E-01
      3.298  0.4044E-01  0.2895E-01  0.5981E-01  0.5075E-01
      3.314  0.4044E-01  0.2820E-01  0.6045E-01  0.5120E-01
      3.329  0.4040E-01  0.2780E-01  0.6110E-01  0.5164E-01
      3.345  0.4031E-01  0.2776E-01  0.6174E-01  0.5208E-01
      3.361  0.4018E-01  0.2806E-01  0.6238E-01  0.5253E-01
      3.377  0.4000E-01  0.2869E-01  0.6301E-01  0.5298E-01
      3.393  0.3977E-01  0.2959E-01  0.6364E-01  0.5345E-01
      3.409  0.3949E-01  0.3072E-01  0.6427E-01  0.5394E-01
      3.425  0.3917E-01  0.3204E-01  0.6489E-01  0.5445E-01
      3.441  0.3880E-01  0.3347E-01  0.6551E-01  0.5498E-01
      3.457  0.3837E-01  0.3497E-01  0.6612E-01  0.5554E-01
      3.473  0.3789E-01  0.3648E-01  0.6672E-01  0.5612E-01
      3.489  0.3737E-01  0.3796E-01  0.6732E-01  0.5672E-01
      3.504  0.3681E-01  0.3935E-01  0.6790E-01  0.5735E-01
      3.520  0.3622E-01  0.4063E-01  0.6848E-01  0.5800E-01
      3.536  0.3561E-01  0.4177E-01  0.6905E-01  0.5866E-01
      3.552  0.3502E-01  0.4274E-01  0.6960E-01  0.5934E-01
      3.568  0.3445E-01  0.4353E-01  0.7015E-01  0.6003E-01
      3.584  0.3395E-01  0.4412E-01  0.7069E-01  0.6073E-01
      3.600  0.3354E-01  0.4451E-01  0.7122E-01  0.6144E-01
      3.616  0.3327E-01  0.4469E-01  0.7175E-01  0.6215E-01
      3.632  0.3317E-01  0.4467E-01  0.7228E-01  0.6286E-01
      3.648  0.3327E-01  0.4444E-01  0.7281E-01  0.6357E-01
      3.663  0.3361E-01  0.4402E-01  0.7334E-01  0.6427E-01
      3.679  0.3421E-01  0.4340E-01  0.7389E-01  0.6496E-01
      3.695  0.3508E-01  0.4260E-01  0.7445E-01  0.6564E-01
      3.711  0.3622E-01  0.4164E-01  0.7502E-01  0.6630E-01
      3.727  0.3762E-01  0.4053E-01  0.7562E-01  0.6694E-01
      3.743  0.3925E-01  0.3930E-01  0.7624E-01  0.6757E-01
      3.759  0.4106E-01  0.3797E-01  0.7690E-01  0.6817E-01
      3.775  0.4300E-01  0.3658E-01  0.7758E-01  0.6875E-01
      3.791  0.4500E-01  0.3516E-01  0.7830E-01  0.6931E-01
      3.807  0.4697E-01  0.3374E-01  0.7904E-01  0.6985E-01
      3.822  0.4884E-01  0.3237E-01  0.7982E-01  0.7036E-01
      3.838  0.5052E-01  0.3109E-01  0.8062E-01  0.7086E-01
      3.854  0.5193E-01  0.2993E-01  0.8145E-01  0.7134E-01
      3.870  0.5300E-01  0.2893E-01  0.8229E-01  0.7180E-01
      3.886  0.5367E-01  0.2811E-01  0.8315E-01  0.7224E-01
      3.902  0.5392E-01  0.2753E-01  0.8400E-01  0.7268E-01
      3.918  0.5371E-01  0.2719E-01  0.8486E-01  0.7311E-01
      3.934  0.5305E-01  0.2714E-01  0.8570E-01  0.7354E-01
      3.950  0.5197E-01  0.2737E-01  0.8653E-01  0.7398E-01
      3.966  0.5049E-01  0.2791E-01  0.8733E-01  0.7442E-01
      3.981  0.4869E-01  0.2876E-01  0.8811E-01  0.7488E-01
      3.997  0.4662E-01  0.2992E-01  0.8885E-01  0.7536E-01
      4.013  0.4437E-01  0.3136E-01  0.8955E-01  0.7586E-01
      4.029  0.4201E-01  0.3308E-01  0.9022E-01  0.7638E-01
      4.045  0.3963E-01  0.3502E-01  0.9085E-01  0.7694E-01
      4.061  0.3728E-01  0.3715E-01  0.9144E-01  0.7753E-01
      4.077  0.3504E-01  0.3940E-01  0.9200E-01  0.7816E-01
      4.093  0.3296E-01  0.4170E-01  0.9252E-01  0.7882E-01
      4.109  0.3107E-01  0.4399E-01  0.9302E-01  0.7952E-01
      4.125  0.2939E-01  0.4619E-01  0.9349E-01  0.8025E-01
      4.140  0.2793E-01  0.4821E-01  0.9393E-01  0.8102E-01
      4.156  0.2669E-01  0.4998E-01  0.9435E-01  0.8181E-01
      4.172  0.2567E-01  0.5145E-01  0.9476E-01  0.8263E-01
      4.188  0.2483E-01  0.5254E-01  0.9516E-01  0.8347E-01
      4.204  0.2416E-01  0.5323E-01  0.9554E-01  0.8431E-01
      4.220  0.2362E-01  0.5348E-01  0.9592E-01  0.8516E-01
      4.236  0.2321E-01  0.5330E-01  0.9629E-01  0.8601E-01
      4.252  0.2289E-01  0.5269E-01  0.9665E-01  0.8685E-01
      4.268  0.2264E-01  0.5169E-01  0.9701E-01  0.8767E-01
      4.284  0.2247E-01  0.5033E-01  0.9737E-01  0.8847E-01
      4.300  0.2236E-01  0.4868E-01  0.9772E-01  0.8925E-01
      4.315  0.2231E-01  0.4680E-01  0.9808E-01  0.8999E-01
      4.331  0.2233E-01  0.4475E-01  0.9843E-01  0.9070E-01
      4.347  0.2243E-01  0.4261E-01  0.9879E-01  0.9138E-01
      4.363  0.2263E-01  0.4044E-01  0.9915E-01  0.9202E-01
      4.379  0.2294E-01  0.3831E-01  0.9951E-01  0.9263E-01
      4.395  0.2338E-01  0.3624E-01  0.9989E-01  0.9321E-01
      4.411  0.2395E-01  0.3430E-01  0.1003E+00  0.9375E-01
      4.427  0.2468E-01  0.3250E-01  0.1007E+00  0.9427E-01
      4.443  0.2556E-01  0.3087E-01  0.1011E+00  0.9476E-01
      4.459  0.2662E-01  0.2942E-01  0.1015E+00  0.9523E-01
      4.474  0.2785E-01  0.2814E-01  0.1019E+00  0.9568E-01
      4.490  0.2925E-01  0.2703E-01  0.1024E+00  0.9611E-01
      4.506  0.3083E-01  0.2610E-01  0.1029E+00  0.9652E-01
      4.522  0.3257E-01  0.2533E-01  0.1034E+00  0.9692E-01
      4.538  0.3448E-01  0.2472E-01  0.1040E+00  0.9732E-01
      4.554  0.3655E-01  0.2427E-01  0.1045E+00  0.9770E-01
      4.570  0.3878E-01  0.2398E-01  0.1052E+00  0.9809E-01
      4.586  0.4116E-01  0.2386E-01  0.1058E+00  0.9846E-01
      4.602  0.4368E-01  0.2392E-01  0.1065E+00  0.9885E-01
      4.618  0.4634E-01  0.2416E-01  0.1072E+00  0.9923E-01
      4.633  0.4912E-01  0.2461E-01  0.1080E+00  0.9962E-01
      4.649  0.5199E-01  0.2526E-01  0.1088E+00  0.1000E+00
      4.665  0.5494E-01  0.2614E-01  0.1097E+00  0.1004E+00
      4.681  0.5794E-01  0.2725E-01  0.1106E+00  0.1009E+00
      4.697  0.6094E-01  0.2860E-01  0.1116E+00  0.1013E+00
      4.713  0.6390E-01  0.3017E-01  0.1126E+00  0.1018E+00
      4.729  0.6676E-01  0.3195E-01  0.1137E+00  0.1023E+00
      4.745  0.6948E-01  0.3394E-01  0.1148E+00  0.1029E+00
      4.761  0.7199E-01  0.3611E-01  0.1159E+00  0.1034E+00
      4.777  0.7424E-01  0.3843E-01  0.1171E+00  0.1040E+00
      4.792  0.7618E-01  0.4088E-01  0.1183E+00  0.1047E+00
      4.808  0.7777E-01  0.4341E-01  0.1196E+00  0.1054E+00
      4.824  0.7897E-01  0.4599E-01  0.1208E+00  0.1061E+00
      4.840  0.7975E-01  0.4858E-01  0.1221E+00  0.1069E+00
      4.856  0.8011E-01  0.5116E-01  0.1234E+00  0.1077E+00
      4.872  0.8004E-01  0.5369E-01  0.1246E+00  0.1086E+00
      4.888  0.7957E-01  0.5614E-01  0.1259E+00  0.1094E+00
      4.904  0.7871E-01  0.5849E-01  0.1272E+00  0.1104E+00
      4.920  0.7750E-01  0.6073E-01  0.1284E+00  0.1113E+00
      4.936  0.7598E-01  0.6285E-01  0.1296E+00  0.1123E+00
      4.952  0.7420E-01  0.6484E-01  0.1308E+00  0.1134E+00
      4.967  0.7220E-01  0.6670E-01  0.1319E+00  0.1144E+00
      4.983  0.7003E-01  0.6843E-01  0.1330E+00  0.1155E+00
      4.999  0.6776E-01  0.7003E-01  0.1341E+00  0.1166E+00
      5.015  0.6541E-01  0.7151E-01  0.1352E+00  0.1178E+00
      5.031  0.6306E-01  0.7285E-01  0.1362E+00  0.1189E+00
      5.047  0.6073E-01  0.7405E-01  0.1371E+00  0.1201E+00
      5.063  0.5847E-01  0.7509E-01  0.1381E+00  0.1213E+00
      5.079  0.5632E-01  0.7596E-01  0.1389E+00  0.1225E+00
      5.095  0.5431E-01  0.7663E-01  0.1398E+00  0.1237E+00
      5.111  0.5247E-01  0.7707E-01  0.1406E+00  0.1250E+00
      5.126  0.5082E-01  0.7726E-01  0.1415E+00  0.1262E+00
      5.142  0.4937E-01  0.7717E-01  0.1422E+00  0.1274E+00
      5.158  0.4815E-01  0.7677E-01  0.1430E+00  0.1286E+00
      5.174  0.4714E-01  0.7605E-01  0.1438E+00  0.1298E+00
      5.190  0.4633E-01  0.7501E-01  0.1445E+00  0.1310E+00
      5.206  0.4572E-01  0.7365E-01  0.1452E+00  0.1322E+00
      5.222  0.4528E-01  0.7199E-01  0.1459E+00  0.1333E+00
      5.238  0.4498E-01  0.7007E-01  0.1467E+00  0.1345E+00
      5.254  0.4479E-01  0.6793E-01  0.1474E+00  0.1355E+00
      5.270  0.4468E-01  0.6562E-01  0.1481E+00  0.1366E+00
      5.285  0.4460E-01  0.6320E-01  0.1488E+00  0.1376E+00
      5.301  0.4452E-01  0.6074E-01  0.1495E+00  0.1386E+00
      5.317  0.4441E-01  0.5831E-01  0.1502E+00  0.1395E+00
      5.333  0.4426E-01  0.5596E-01  0.1509E+00  0.1404E+00
      5.349  0.4403E-01  0.5374E-01  0.1516E+00  0.1412E+00
      5.365  0.4373E-01  0.5170E-01  0.1523E+00  0.1420E+00
      5.381  0.4335E-01  0.4987E-01  0.1530E+00  0.1428E+00
      5.397  0.4291E-01  0.4827E-01  0.1537E+00  0.1436E+00
      5.413  0.4240E-01  0.4689E-01  0.1543E+00  0.1444E+00
      5.429  0.4187E-01  0.4572E-01  0.1550E+00  0.1451E+00
      5.444  0.4131E-01  0.4473E-01  0.1557E+00  0.1458E+00
      5.460  0.4076E-01  0.4390E-01  0.1563E+00  0.1465E+00
      5.476  0.4022E-01  0.4318E-01  0.1570E+00  0.1472E+00
      5.492  0.3972E-01  0.4253E-01  0.1576E+00  0.1479E+00
      5.508  0.3925E-01  0.4189E-01  0.1582E+00  0.1485E+00
      5.524  0.3881E-01  0.4122E-01  0.1588E+00  0.1492E+00
      5.540  0.3838E-01  0.4050E-01  0.1594E+00  0.1498E+00
      5.556  0.3796E-01  0.3968E-01  0.1600E+00  0.1505E+00
      5.572  0.3750E-01  0.3876E-01  0.1606E+00  0.1511E+00
      5.588  0.3700E-01  0.3771E-01  0.1612E+00  0.1517E+00
      5.604  0.3640E-01  0.3656E-01  0.1618E+00  0.1522E+00
      5.619  0.3570E-01  0.3530E-01  0.1624E+00  0.1528E+00
      5.635  0.3485E-01  0.3396E-01  0.1629E+00  0.1534E+00
      5.651  0.3385E-01  0.3257E-01  0.1635E+00  0.1539E+00
      5.667  0.3269E-01  0.3116E-01  0.1640E+00  0.1544E+00
      5.683  0.3136E-01  0.2978E-01  0.1645E+00  0.1548E+00
      5.699  0.2986E-01  0.2845E-01  0.1650E+00  0.1553E+00
      5.715  0.2822E-01  0.2722E-01  0.1654E+00  0.1557E+00
      5.731  0.2646E-01  0.2611E-01  0.1658E+00  0.1561E+00
      5.747  0.2460E-01  0.2515E-01  0.1662E+00  0.1565E+00
      5.763  0.2268E-01  0.2437E-01  0.1666E+00  0.1569E+00
      5.778  0.2073E-01  0.2379E-01  0.1669E+00  0.1573E+00
      5.794  0.1879E-01  0.2340E-01  0.1672E+00  0.1577E+00
      5.810  0.1690E-01  0.2322E-01  0.1675E+00  0.1580E+00
      5.826  0.1509E-01  0.2323E-01  0.1677E+00  0.1584E+00
      5.842  0.1338E-01  0.2343E-01  0.1679E+00  0.1588E+00
      5.858  0.1179E-01  0.2378E-01  0.1681E+00  0.1592E+00
      5.874  0.1036E-01  0.2428E-01  0.1683E+00  0.1596E+00
      5.890  0.9075E-02  0.2488E-01  0.1684E+00  0.1599E+00
      5.906  0.7954E-02  0.2555E-01  0.1686E+00  0.1604E+00
      5.922  0.6993E-02  0.2625E-01  0.1687E+00  0.1608E+00
      5.937  0.6189E-02  0.2695E-01  0.1688E+00  0.1612E+00
      5.953  0.5531E-02  0.2760E-01  0.1689E+00  0.1616E+00
      5.969  0.5008E-02  0.2817E-01  0.1689E+00  0.1621E+00
      5.985  0.4606E-02  0.2863E-01  0.1690E+00  0.1625E+00
      6.001  0.4309E-02  0.2894E-01  0.1691E+00  0.1630E+00
      6.017  0.4101E-02  0.2909E-01  0.1691E+00  0.1635E+00
      6.033  0.3965E-02  0.2904E-01  0.1692E+00  0.1639E+00
      6.049  0.3887E-02  0.2881E-01  0.1693E+00  0.1644E+00
      6.065  0.3853E-02  0.2838E-01  0.1693E+00  0.1648E+00
      6.081  0.3850E-02  0.2775E-01  0.1694E+00  0.1653E+00
      6.096  0.3867E-02  0.2694E-01  0.1694E+00  0.1657E+00
      6.112  0.3896E-02  0.2597E-01  0.1695E+00  0.1661E+00
      6.128  0.3930E-02  0.2485E-01  0.1696E+00  0.1665E+00
      6.144  0.3962E-02  0.2360E-01  0.1696E+00  0.1669E+00
      6.160  0.3989E-02  0.2226E-01  0.1697E+00  0.1672E+00
      6.176  0.4008E-02  0.2085E-01  0.1698E+00  0.1676E+00
      6.192  0.4019E-02  0.1939E-01  0.1698E+00  0.1679E+00
      6.208  0.4021E-02  0.1791E-01  0.1699E+00  0.1682E+00
      6.224  0.4013E-02  0.1644E-01  0.1700E+00  0.1684E+00
      6.240  0.3999E-02  0.1499E-01  0.1700E+00  0.1687E+00
      6.256  0.3978E-02  0.1358E-01  0.1701E+00  0.1689E+00
      6.271  0.3953E-02  0.1224E-01  0.1701E+00  0.1691E+00
      6.287  0.3927E-02  0.1097E-01  0.1702E+00  0.1693E+00
      6.303  0.3902E-02  0.9785E-02  0.1703E+00  0.1694E+00
      6.319  0.3881E-02  0.8700E-02  0.1703E+00  0.1695E+00
      6.335  0.3865E-02  0.7717E-02  0.1704E+00  0.1697E+00
      6.351  0.3857E-02  0.6840E-02  0.1705E+00  0.1698E+00
      6.367  0.3860E-02  0.6070E-02  0.1705E+00  0.1699E+00
      6.383  0.3874E-02  0.5405E-02  0.1706E+00  0.1700E+00
      6.399  0.3902E-02  0.4843E-02  0.1706E+00  0.1700E+00
      6.415  0.3945E-02  0.4377E-02  0.1707E+00  0.1701E+00
      6.430  0.4003E-02  0.4001E-02  0.1708E+00  0.1702E+00
      6.446  0.4080E-02  0.3706E-02  0.1708E+00  0.1702E+00
      6.462  0.4174E-02  0.3482E-02  0.1709E+00  0.1703E+00
      6.478  0.4289E-02  0.3319E-02  0.1710E+00  0.1703E+00
      6.494  0.4425E-02  0.3208E-02  0.1710E+00  0.1704E+00
      6.510  0.4584E-02  0.3139E-02  0.1711E+00  0.1704E+00
      6.526  0.4767E-02  0.3102E-02  0.1712E+00  0.1705E+00
      6.542  0.4976E-02  0.3089E-02  0.1713E+00  0.1705E+00
      6.558  0.5211E-02  0.3093E-02  0.1713E+00  0.1706E+00
      6.574  0.5473E-02  0.3108E-02  0.1714E+00  0.1706E+00
      6.589  0.5760E-02  0.3130E-02  0.1715E+00  0.1707E+00
      6.605  0.6069E-02  0.3156E-02  0.1716E+00  0.1707E+00
      6.621  0.6398E-02  0.3184E-02  0.1717E+00  0.1708E+00
      6.637  0.6742E-02  0.3214E-02  0.1718E+00  0.1708E+00
      6.653  0.7093E-02  0.3246E-02  0.1719E+00  0.1709E+00
      6.669  0.7445E-02  0.3282E-02  0.1721E+00  0.1709E+00
      6.685  0.7791E-02  0.3325E-02  0.1722E+00  0.1710E+00
      6.701  0.8121E-02  0.3377E-02  0.1723E+00  0.1710E+00
      6.717  0.8429E-02  0.3441E-02  0.1724E+00  0.1711E+00
      6.733  0.8708E-02  0.3522E-02  0.1726E+00  0.1712E+00
      6.748  0.8953E-02  0.3622E-02  0.1727E+00  0.1712E+00
      6.764  0.9161E-02  0.3745E-02  0.1729E+00  0.1713E+00
      6.780  0.9330E-02  0.3895E-02  0.1730E+00  0.1713E+00
      6.796  0.9460E-02  0.4073E-02  0.1732E+00  0.1714E+00
      6.812  0.9555E-02  0.4283E-02  0.1733E+00  0.1715E+00
      6.828  0.9617E-02  0.4525E-02  0.1735E+00  0.1715E+00
      6.844  0.9653E-02  0.4799E-02  0.1736E+00  0.1716E+00
      6.860  0.9668E-02  0.5106E-02  0.1738E+00  0.1717E+00
      6.876  0.9667E-02  0.5443E-02  0.1739E+00  0.1718E+00
      6.892  0.9656E-02  0.5807E-02  0.1741E+00  0.1719E+00
      6.908  0.9639E-02  0.6194E-02  0.1742E+00  0.1720E+00
      6.923  0.9620E-02  0.6601E-02  0.1744E+00  0.1721E+00
      6.939  0.9601E-02  0.7021E-02  0.1746E+00  0.1722E+00
      6.955  0.9584E-02  0.7448E-02  0.1747E+00  0.1723E+00
      6.971  0.9567E-02  0.7878E-02  0.1749E+00  0.1724E+00
      6.987  0.9550E-02  0.8303E-02  0.1750E+00  0.1726E+00
      7.003  0.9531E-02  0.8719E-02  0.1752E+00  0.1727E+00
      7.019  0.9509E-02  0.9121E-02  0.1753E+00  0.1729E+00
      7.035  0.9480E-02  0.9504E-02  0.1755E+00  0.1730E+00
      7.051  0.9444E-02  0.9866E-02  0.1756E+00  0.1732E+00
      7.067  0.9398E-02  0.1020E-01  0.1758E+00  0.1733E+00
      7.082  0.9341E-02  0.1051E-01  0.1759E+00  0.1735E+00
      7.098  0.9271E-02  0.1079E-01  0.1761E+00  0.1737E+00
      7.114  0.9187E-02  0.1105E-01  0.1762E+00  0.1738E+00
      7.130  0.9089E-02  0.1127E-01  0.1763E+00  0.1740E+00
      7.146  0.8976E-02  0.1145E-01  0.1765E+00  0.1742E+00
      7.162  0.8849E-02  0.1160E-01  0.1766E+00  0.1744E+00
      7.178  0.8709E-02  0.1172E-01  0.1768E+00  0.1746E+00
      7.194  0.8556E-02  0.1179E-01  0.1769E+00  0.1748E+00
      7.210  0.8393E-02  0.1182E-01  0.1770E+00  0.1749E+00
      7.226  0.8222E-02  0.1181E-01  0.1772E+00  0.1751E+00
      7.241  0.8046E-02  0.1176E-01  0.1773E+00  0.1753E+00
      7.257  0.7868E-02  0.1166E-01  0.1774E+00  0.1755E+00
      7.273  0.7692E-02  0.1151E-01  0.1775E+00  0.1757E+00
      7.289  0.7521E-02  0.1133E-01  0.1777E+00  0.1759E+00
      7.305  0.7358E-02  0.1111E-01  0.1778E+00  0.1760E+00
      7.321  0.7207E-02  0.1085E-01  0.1779E+00  0.1762E+00
      7.337  0.7070E-02  0.1057E-01  0.1780E+00  0.1764E+00
      7.353  0.6949E-02  0.1027E-01  0.1781E+00  0.1765E+00
      7.369  0.6845E-02  0.9956E-02  0.1782E+00  0.1767E+00
      7.385  0.6757E-02  0.9638E-02  0.1783E+00  0.1769E+00
      7.400  0.6685E-02  0.9324E-02  0.1784E+00  0.1770E+00
      7.416  0.6628E-02  0.9021E-02  0.1785E+00  0.1772E+00
      7.432  0.6584E-02  0.8735E-02  0.1787E+00  0.1773E+00
      7.448  0.6551E-02  0.8474E-02  0.1788E+00  0.1774E+00
      7.464  0.6528E-02  0.8240E-02  0.1789E+00  0.1776E+00
      7.480  0.6513E-02  0.8038E-02  0.1790E+00  0.1777E+00
      7.496  0.6505E-02  0.7869E-02  0.1791E+00  0.1778E+00
      7.512  0.6503E-02  0.7732E-02  0.1792E+00  0.1779E+00
      7.528  0.6508E-02  0.7626E-02  0.1793E+00  0.1781E+00
      7.544  0.6519E-02  0.7548E-02  0.1794E+00  0.1782E+00
      7.560  0.6536E-02  0.7494E-02  0.1795E+00  0.1783E+00
      7.575  0.6558E-02  0.7459E-02  0.1796E+00  0.1784E+00
      7.591  0.6585E-02  0.7438E-02  0.1797E+00  0.1785E+00
      7.607  0.6615E-02  0.7426E-02  0.1798E+00  0.1786E+00
      7.623  0.6647E-02  0.7417E-02  0.1799E+00  0.1788E+00
      7.639  0.6677E-02  0.7408E-02  0.1800E+00  0.1789E+00
      7.655  0.6703E-02  0.7396E-02  0.1801E+00  0.1790E+00
      7.671  0.6720E-02  0.7377E-02  0.1802E+00  0.1791E+00
      7.687  0.6725E-02  0.7350E-02  0.1803E+00  0.1792E+00
      7.703  0.6715E-02  0.7317E-02  0.1804E+00  0.1794E+00
      7.719  0.6686E-02  0.7277E-02  0.1805E+00  0.1795E+00
      7.734  0.6636E-02  0.7232E-02  0.1806E+00  0.1796E+00
      7.750  0.6564E-02  0.7185E-02  0.1808E+00  0.1797E+00
      7.766  0.6471E-02  0.7137E-02  0.1809E+00  0.1798E+00
      7.782  0.6358E-02  0.7089E-02  0.1810E+00  0.1799E+00
      7.798  0.6228E-02  0.7044E-02  0.1811E+00  0.1800E+00
      7.814  0.6086E-02  0.7000E-02  0.1812E+00  0.1801E+00
      7.830  0.5937E-02  0.6958E-02  0.1812E+00  0.1803E+00
      7.846  0.5786E-02  0.6916E-02  0.1813E+00  0.1804E+00
      7.862  0.5639E-02  0.6871E-02  0.1814E+00  0.1805E+00
      7.878  0.5501E-02  0.6822E-02  0.1815E+00  0.1806E+00
      7.893  0.5377E-02  0.6766E-02  0.1816E+00  0.1807E+00
      7.909  0.5271E-02  0.6701E-02  0.1817E+00  0.1808E+00
      7.925  0.5184E-02  0.6625E-02  0.1818E+00  0.1809E+00
      7.941  0.5116E-02  0.6538E-02  0.1818E+00  0.1810E+00
      7.957  0.5069E-02  0.6441E-02  0.1819E+00  0.1811E+00
      7.973  0.5038E-02  0.6334E-02  0.1820E+00  0.1812E+00
      7.989  0.5022E-02  0.6220E-02  0.1821E+00  0.1813E+00
      8.005  0.5018E-02  0.6103E-02  0.1822E+00  0.1814E+00
      8.021  0.5021E-02  0.5986E-02  0.1822E+00  0.1815E+00
      8.037  0.5029E-02  0.5872E-02  0.1823E+00  0.1816E+00
      8.052  0.5040E-02  0.5766E-02  0.1824E+00  0.1817E+00
      8.068  0.5052E-02  0.5670E-02  0.1825E+00  0.1818E+00
      8.084  0.5064E-02  0.5586E-02  0.1826E+00  0.1819E+00
      8.100  0.5077E-02  0.5515E-02  0.1826E+00  0.1820E+00
      8.116  0.5092E-02  0.5457E-02  0.1827E+00  0.1820E+00
      8.132  0.5112E-02  0.5412E-02  0.1828E+00  0.1821E+00
      8.148  0.5137E-02  0.5378E-02  0.1829E+00  0.1822E+00
      8.164  0.5169E-02  0.5354E-02  0.1830E+00  0.1823E+00
      8.180  0.5210E-02  0.5339E-02  0.1831E+00  0.1824E+00
      8.196  0.5259E-02  0.5330E-02  0.1831E+00  0.1825E+00
      8.212  0.5314E-02  0.5326E-02  0.1832E+00  0.1826E+00
      8.227  0.5374E-02  0.5327E-02  0.1833E+00  0.1826E+00
      8.243  0.5433E-02  0.5333E-02  0.1834E+00  0.1827E+00
      8.259  0.5489E-02  0.5342E-02  0.1835E+00  0.1828E+00
      8.275  0.5534E-02  0.5357E-02  0.1836E+00  0.1829E+00
      8.291  0.5563E-02  0.5377E-02  0.1837E+00  0.1830E+00
      8.307  0.5572E-02  0.5401E-02  0.1838E+00  0.1831E+00
      8.323  0.5556E-02  0.5431E-02  0.1838E+00  0.1832E+00
      8.339  0.5512E-02  0.5464E-02  0.1839E+00  0.1832E+00
      8.355  0.5439E-02  0.5500E-02  0.1840E+00  0.1833E+00
      8.371  0.5336E-02  0.5535E-02  0.1841E+00  0.1834E+00
      8.386  0.5206E-02  0.5568E-02  0.1842E+00  0.1835E+00
      8.402  0.5053E-02  0.5595E-02  0.1843E+00  0.1836E+00
      8.418  0.4883E-02  0.5612E-02  0.1843E+00  0.1837E+00
      8.434  0.4702E-02  0.5615E-02  0.1844E+00  0.1838E+00
      8.450  0.4516E-02  0.5601E-02  0.1845E+00  0.1839E+00
      8.466  0.4334E-02  0.5568E-02  0.1846E+00  0.1839E+00
      8.482  0.4162E-02  0.5514E-02  0.1846E+00  0.1840E+00
      8.498  0.4007E-02  0.5438E-02  0.1847E+00  0.1841E+00
      8.514  0.3874E-02  0.5341E-02  0.1847E+00  0.1842E+00
      8.530  0.3766E-02  0.5224E-02  0.1848E+00  0.1843E+00
      8.545  0.3688E-02  0.5090E-02  0.1849E+00  0.1844E+00
      8.561  0.3638E-02  0.4944E-02  0.1849E+00  0.1844E+00
      8.577  0.3616E-02  0.4790E-02  0.1850E+00  0.1845E+00
      8.593  0.3620E-02  0.4634E-02  0.1850E+00  0.1846E+00
      8.609  0.3647E-02  0.4481E-02  0.1851E+00  0.1847E+00
      8.625  0.3691E-02  0.4337E-02  0.1852E+00  0.1847E+00
      8.641  0.3747E-02  0.4206E-02  0.1852E+00  0.1848E+00
      8.657  0.3811E-02  0.4093E-02  0.1853E+00  0.1849E+00
      8.673  0.3876E-02  0.4001E-02  0.1853E+00  0.1849E+00
      8.689  0.3937E-02  0.3930E-02  0.1854E+00  0.1850E+00
      8.704  0.3989E-02  0.3883E-02  0.1855E+00  0.1851E+00
      8.720  0.4030E-02  0.3856E-02  0.1855E+00  0.1851E+00
      8.736  0.4056E-02  0.3850E-02  0.1856E+00  0.1852E+00
      8.752  0.4067E-02  0.3859E-02  0.1857E+00  0.1852E+00
      8.768  0.4063E-02  0.3880E-02  0.1857E+00  0.1853E+00
      8.784  0.4046E-02  0.3908E-02  0.1858E+00  0.1854E+00
      8.800  0.4019E-02  0.3939E-02  0.1858E+00  0.1854E+00
      8.816  0.3987E-02  0.3969E-02  0.1859E+00  0.1855E+00
      8.832  0.3954E-02  0.3994E-02  0.1860E+00  0.1856E+00
      8.848  0.3923E-02  0.4013E-02  0.1860E+00  0.1856E+00
      8.864  0.3901E-02  0.4022E-02  0.1861E+00  0.1857E+00
      8.879  0.3889E-02  0.4024E-02  0.1862E+00  0.1857E+00
      8.895  0.3889E-02  0.4019E-02  0.1862E+00  0.1858E+00
      8.911  0.3904E-02  0.4009E-02  0.1863E+00  0.1859E+00
      8.927  0.3932E-02  0.3998E-02  0.1863E+00  0.1859E+00
      8.943  0.3970E-02  0.3989E-02  0.1864E+00  0.1860E+00
      8.959  0.4015E-02  0.3984E-02  0.1865E+00  0.1861E+00
      8.975  0.4063E-02  0.3988E-02  0.1865E+00  0.1861E+00
      8.991  0.4109E-02  0.4001E-02  0.1866E+00  0.1862E+00
      9.007  0.4147E-02  0.4025E-02  0.1867E+00  0.1863E+00
      9.023  0.4172E-02  0.4058E-02  0.1867E+00  0.1863E+00
      9.038  0.4180E-02  0.4100E-02  0.1868E+00  0.1864E+00
      9.054  0.4168E-02  0.4146E-02  0.1869E+00  0.1865E+00
      9.070  0.4133E-02  0.4194E-02  0.1869E+00  0.1865E+00
      9.086  0.4076E-02  0.4238E-02  0.1870E+00  0.1866E+00
      9.102  0.3996E-02  0.4275E-02  0.1871E+00  0.1867E+00
      9.118  0.3895E-02  0.4299E-02  0.1871E+00  0.1867E+00
      9.134  0.3776E-02  0.4307E-02  0.1872E+00  0.1868E+00
      9.150  0.3641E-02  0.4296E-02  0.1872E+00  0.1869E+00
      9.166  0.3496E-02  0.4264E-02  0.1873E+00  0.1869E+00
      9.182  0.3343E-02  0.4210E-02  0.1874E+00  0.1870E+00
      9.197  0.3188E-02  0.4133E-02  0.1874E+00  0.1871E+00
      9.213  0.3033E-02  0.4036E-02  0.1875E+00  0.1871E+00
      9.229  0.2885E-02  0.3920E-02  0.1875E+00  0.1872E+00
      9.245  0.2746E-02  0.3787E-02  0.1875E+00  0.1872E+00
      9.261  0.2621E-02  0.3641E-02  0.1876E+00  0.1873E+00
      9.277  0.2514E-02  0.3486E-02  0.1876E+00  0.1874E+00
      9.293  0.2428E-02  0.3325E-02  0.1877E+00  0.1874E+00
      9.309  0.2368E-02  0.3162E-02  0.1877E+00  0.1875E+00
      9.325  0.2334E-02  0.3002E-02  0.1877E+00  0.1875E+00
      9.341  0.2332E-02  0.2849E-02  0.1878E+00  0.1876E+00
      9.356  0.2361E-02  0.2708E-02  0.1878E+00  0.1876E+00
      9.372  0.2423E-02  0.2584E-02  0.1878E+00  0.1876E+00
      9.388  0.2517E-02  0.2481E-02  0.1879E+00  0.1877E+00
      9.404  0.2642E-02  0.2403E-02  0.1879E+00  0.1877E+00
      9.420  0.2795E-02  0.2353E-02  0.1880E+00  0.1878E+00
      9.436  0.2973E-02  0.2336E-02  0.1880E+00  0.1878E+00
      9.452  0.3169E-02  0.2353E-02  0.1881E+00  0.1878E+00
      9.468  0.3378E-02  0.2404E-02  0.1881E+00  0.1879E+00
      9.484  0.3594E-02  0.2490E-02  0.1882E+00  0.1879E+00
      9.500  0.3810E-02  0.2608E-02  0.1882E+00  0.1879E+00
      9.515  0.4019E-02  0.2756E-02  0.1883E+00  0.1880E+00
      9.531  0.4215E-02  0.2928E-02  0.1884E+00  0.1880E+00
      9.547  0.4393E-02  0.3120E-02  0.1884E+00  0.1881E+00
      9.563  0.4549E-02  0.3325E-02  0.1885E+00  0.1881E+00
      9.579  0.4680E-02  0.3536E-02  0.1886E+00  0.1882E+00
      9.595  0.4786E-02  0.3745E-02  0.1887E+00  0.1883E+00
      9.611  0.4865E-02  0.3948E-02  0.1887E+00  0.1883E+00
      9.627  0.4920E-02  0.4136E-02  0.1888E+00  0.1884E+00
      9.643  0.4954E-02  0.4305E-02  0.1889E+00  0.1885E+00
      9.659  0.4971E-02  0.4451E-02  0.1890E+00  0.1885E+00
      9.675  0.4975E-02  0.4572E-02  0.1891E+00  0.1886E+00
      9.690  0.4972E-02  0.4666E-02  0.1891E+00  0.1887E+00
      9.706  0.4966E-02  0.4733E-02  0.1892E+00  0.1887E+00
      9.722  0.4964E-02  0.4774E-02  0.1893E+00  0.1888E+00
      9.738  0.4969E-02  0.4792E-02  0.1894E+00  0.1889E+00
      9.754  0.4984E-02  0.4791E-02  0.1895E+00  0.1890E+00
      9.770  0.5013E-02  0.4773E-02  0.1895E+00  0.1891E+00
      9.786  0.5056E-02  0.4745E-02  0.1896E+00  0.1891E+00
      9.802  0.5113E-02  0.4710E-02  0.1897E+00  0.1892E+00
      9.818  0.5183E-02  0.4673E-02  0.1898E+00  0.1893E+00
      9.834  0.5264E-02  0.4639E-02  0.1899E+00  0.1894E+00
      9.849  0.5352E-02  0.4610E-02  0.1899E+00  0.1894E+00
      9.865  0.5445E-02  0.4591E-02  0.1900E+00  0.1895E+00
      9.881  0.5537E-02  0.4583E-02  0.1901E+00  0.1896E+00
      9.897  0.5627E-02  0.4589E-02  0.1902E+00  0.1896E+00
      9.913  0.5712E-02  0.4607E-02  0.1903E+00  0.1897E+00
      9.929  0.5789E-02  0.4639E-02  0.1904E+00  0.1898E+00
      9.945  0.5857E-02  0.4684E-02  0.1905E+00  0.1899E+00
      9.961  0.5917E-02  0.4740E-02  0.1906E+00  0.1899E+00
      9.977  0.5970E-02  0.4805E-02  0.1907E+00  0.1900E+00
      9.993  0.6015E-02  0.4879E-02  0.1908E+00  0.1901E+00
     10.008  0.6056E-02  0.4960E-02  0.1909E+00  0.1902E+00
     10.024  0.6093E-02  0.5046E-02  0.1910E+00  0.1903E+00
     10.040  0.6129E-02  0.5137E-02  0.1911E+00  0.1903E+00
     10.056  0.6164E-02  0.5233E-02  0.1912E+00  0.1904E+00
     10.072  0.6200E-02  0.5333E-02  0.1913E+00  0.1905E+00
     10.088  0.6236E-02  0.5437E-02  0.1914E+00  0.1906E+00
     10.104  0.6275E-02  0.5545E-02  0.1915E+00  0.1907E+00
     10.120  0.6315E-02  0.5658E-02  0.1916E+00  0.1908E+00
     10.136  0.6357E-02  0.5775E-02  0.1917E+00  0.1909E+00
     10.152  0.6401E-02  0.5896E-02  0.1918E+00  0.1910E+00
     10.167  0.6449E-02  0.6019E-02  0.1919E+00  0.1910E+00
     10.183  0.6500E-02  0.6144E-02  0.1920E+00  0.1911E+00
     10.199  0.6557E-02  0.6270E-02  0.1921E+00  0.1912E+00
     10.215  0.6619E-02  0.6394E-02  0.1922E+00  0.1913E+00
     10.231  0.6689E-02  0.6516E-02  0.1923E+00  0.1915E+00
     10.247  0.6765E-02  0.6635E-02  0.1924E+00  0.1916E+00
     10.263  0.6848E-02  0.6751E-02  0.1925E+00  0.1917E+00
     10.279  0.6937E-02  0.6861E-02  0.1926E+00  0.1918E+00
     10.295  0.7029E-02  0.6968E-02  0.1927E+00  0.1919E+00
     10.311  0.7122E-02  0.7070E-02  0.1928E+00  0.1920E+00
     10.327  0.7213E-02  0.7169E-02  0.1930E+00  0.1921E+00
     10.342  0.7299E-02  0.7264E-02  0.1931E+00  0.1922E+00
     10.358  0.7376E-02  0.7355E-02  0.1932E+00  0.1923E+00
     10.374  0.7443E-02  0.7443E-02  0.1933E+00  0.1925E+00
     10.390  0.7496E-02  0.7526E-02  0.1934E+00  0.1926E+00
     10.406  0.7536E-02  0.7604E-02  0.1935E+00  0.1927E+00
     10.422  0.7562E-02  0.7674E-02  0.1937E+00  0.1928E+00
     10.438  0.7574E-02  0.7736E-02  0.1938E+00  0.1929E+00
     10.454  0.7574E-02  0.7789E-02  0.1939E+00  0.1931E+00
     10.470  0.7562E-02  0.7830E-02  0.1940E+00  0.1932E+00
     10.486  0.7539E-02  0.7861E-02  0.1941E+00  0.1933E+00
     10.501  0.7508E-02  0.7880E-02  0.1943E+00  0.1934E+00
     10.517  0.7469E-02  0.7887E-02  0.1944E+00  0.1936E+00
     10.533  0.7421E-02  0.7884E-02  0.1945E+00  0.1937E+00
     10.549  0.7365E-02  0.7871E-02  0.1946E+00  0.1938E+00
     10.565  0.7301E-02  0.7850E-02  0.1947E+00  0.1939E+00
     10.581  0.7228E-02  0.7821E-02  0.1948E+00  0.1941E+00
     10.597  0.7146E-02  0.7785E-02  0.1950E+00  0.1942E+00
     10.613  0.7056E-02  0.7742E-02  0.1951E+00  0.1943E+00
     10.629  0.6957E-02  0.7694E-02  0.1952E+00  0.1944E+00
     10.645  0.6851E-02  0.7638E-02  0.1953E+00  0.1946E+00
     10.660  0.6740E-02  0.7575E-02  0.1954E+00  0.1947E+00
     10.676  0.6627E-02  0.7504E-02  0.1955E+00  0.1948E+00
     10.692  0.6516E-02  0.7424E-02  0.1956E+00  0.1949E+00
     10.708  0.6409E-02  0.7335E-02  0.1957E+00  0.1950E+00
     10.724  0.6311E-02  0.7237E-02  0.1958E+00  0.1952E+00
     10.740  0.6224E-02  0.7130E-02  0.1959E+00  0.1953E+00
     10.756  0.6153E-02  0.7016E-02  0.1960E+00  0.1954E+00
     10.772  0.6100E-02  0.6898E-02  0.1961E+00  0.1955E+00
     10.788  0.6065E-02  0.6778E-02  0.1962E+00  0.1956E+00
     10.804  0.6050E-02  0.6659E-02  0.1963E+00  0.1957E+00
     10.819  0.6055E-02  0.6545E-02  0.1964E+00  0.1958E+00
     10.835  0.6076E-02  0.6442E-02  0.1965E+00  0.1959E+00
     10.851  0.6113E-02  0.6352E-02  0.1966E+00  0.1960E+00
     10.867  0.6160E-02  0.6279E-02  0.1967E+00  0.1961E+00
     10.883  0.6214E-02  0.6226E-02  0.1968E+00  0.1962E+00
     10.899  0.6268E-02  0.6195E-02  0.1969E+00  0.1963E+00
     10.915  0.6318E-02  0.6187E-02  0.1970E+00  0.1964E+00
     10.931  0.6358E-02  0.6201E-02  0.1971E+00  0.1965E+00
     10.947  0.6383E-02  0.6235E-02  0.1972E+00  0.1966E+00
     10.963  0.6389E-02  0.6284E-02  0.1973E+00  0.1967E+00
     10.979  0.6373E-02  0.6344E-02  0.1974E+00  0.1968E+00
     10.994  0.6336E-02  0.6409E-02  0.1975E+00  0.1969E+00
     11.010  0.6277E-02  0.6470E-02  0.1976E+00  0.1970E+00
     11.026  0.6200E-02  0.6523E-02  0.1977E+00  0.1971E+00
     11.042  0.6109E-02  0.6560E-02  0.1978E+00  0.1972E+00
     11.058  0.6009E-02  0.6577E-02  0.1979E+00  0.1973E+00
     11.074  0.5908E-02  0.6571E-02  0.1980E+00  0.1974E+00
     11.090  0.5812E-02  0.6539E-02  0.1981E+00  0.1975E+00
     11.106  0.5727E-02  0.6483E-02  0.1982E+00  0.1976E+00
     11.122  0.5660E-02  0.6406E-02  0.1982E+00  0.1977E+00
     11.138  0.5615E-02  0.6312E-02  0.1983E+00  0.1978E+00
     11.153  0.5592E-02  0.6210E-02  0.1984E+00  0.1979E+00
     11.169  0.5594E-02  0.6105E-02  0.1985E+00  0.1980E+00
     11.185  0.5617E-02  0.6006E-02  0.1986E+00  0.1981E+00
     11.201  0.5658E-02  0.5919E-02  0.1987E+00  0.1982E+00
     11.217  0.5710E-02  0.5851E-02  0.1988E+00  0.1983E+00
     11.233  0.5767E-02  0.5804E-02  0.1989E+00  0.1984E+00
     11.249  0.5822E-02  0.5782E-02  0.1990E+00  0.1985E+00
     11.265  0.5867E-02  0.5782E-02  0.1991E+00  0.1986E+00
     11.281  0.5897E-02  0.5803E-02  0.1992E+00  0.1987E+00
     11.297  0.5907E-02  0.5838E-02  0.1993E+00  0.1988E+00
     11.312  0.5894E-02  0.5882E-02  0.1993E+00  0.1989E+00
     11.328  0.5859E-02  0.5926E-02  0.1994E+00  0.1990E+00
     11.344  0.5802E-02  0.5965E-02  0.1995E+00  0.1991E+00
     11.360  0.5727E-02  0.5991E-02  0.1996E+00  0.1992E+00
     11.376  0.5642E-02  0.5998E-02  0.1997E+00  0.1992E+00
     11.392  0.5552E-02  0.5984E-02  0.1998E+00  0.1993E+00
     11.408  0.5466E-02  0.5948E-02  0.1999E+00  0.1994E+00
     11.424  0.5391E-02  0.5889E-02  0.2000E+00  0.1995E+00
     11.440  0.5336E-02  0.5814E-02  0.2001E+00  0.1996E+00
     11.456  0.5304E-02  0.5726E-02  0.2001E+00  0.1997E+00
     11.471  0.5301E-02  0.5633E-02  0.2002E+00  0.1998E+00
     11.487  0.5328E-02  0.5543E-02  0.2003E+00  0.1999E+00
     11.503  0.5383E-02  0.5466E-02  0.2004E+00  0.2000E+00
     11.519  0.5463E-02  0.5407E-02  0.2005E+00  0.2001E+00
     11.535  0.5561E-02  0.5375E-02  0.2006E+00  0.2001E+00
     11.551  0.5670E-02  0.5372E-02  0.2007E+00  0.2002E+00
     11.567  0.5779E-02  0.5401E-02  0.2008E+00  0.2003E+00
     11.583  0.5878E-02  0.5460E-02  0.2008E+00  0.2004E+00
     11.599  0.5958E-02  0.5546E-02  0.2009E+00  0.2005E+00
     11.615  0.6010E-02  0.5652E-02  0.2010E+00  0.2006E+00
     11.631  0.6025E-02  0.5769E-02  0.2011E+00  0.2007E+00
     11.646  0.6000E-02  0.5888E-02  0.2012E+00  0.2008E+00
     11.662  0.5932E-02  0.5996E-02  0.2013E+00  0.2009E+00
     11.678  0.5821E-02  0.6084E-02  0.2014E+00  0.2010E+00
     11.694  0.5672E-02  0.6141E-02  0.2015E+00  0.2011E+00
     11.710  0.5492E-02  0.6159E-02  0.2016E+00  0.2012E+00
     11.726  0.5288E-02  0.6133E-02  0.2017E+00  0.2013E+00
     11.742  0.5072E-02  0.6061E-02  0.2018E+00  0.2014E+00
     11.758  0.4856E-02  0.5943E-02  0.2018E+00  0.2014E+00
     11.774  0.4650E-02  0.5784E-02  0.2019E+00  0.2015E+00
     11.790  0.4467E-02  0.5592E-02  0.2020E+00  0.2016E+00
     11.805  0.4317E-02  0.5375E-02  0.2020E+00  0.2017E+00
     11.821  0.4207E-02  0.5147E-02  0.2021E+00  0.2018E+00
     11.837  0.4144E-02  0.4921E-02  0.2022E+00  0.2019E+00
     11.853  0.4131E-02  0.4708E-02  0.2022E+00  0.2019E+00
     11.869  0.4167E-02  0.4523E-02  0.2023E+00  0.2020E+00
     11.885  0.4250E-02  0.4375E-02  0.2024E+00  0.2021E+00
     11.901  0.4374E-02  0.4273E-02  0.2025E+00  0.2022E+00
     11.917  0.4532E-02  0.4223E-02  0.2025E+00  0.2022E+00
     11.933  0.4716E-02  0.4227E-02  0.2026E+00  0.2023E+00
     11.949  0.4913E-02  0.4283E-02  0.2027E+00  0.2024E+00
     11.964  0.5114E-02  0.4386E-02  0.2028E+00  0.2024E+00
     11.980  0.5307E-02  0.4531E-02  0.2028E+00  0.2025E+00
     11.996  0.5484E-02  0.4707E-02  0.2029E+00  0.2026E+00
     12.012  0.5636E-02  0.4902E-02  0.2030E+00  0.2027E+00
     12.028  0.5756E-02  0.5106E-02  0.2031E+00  0.2027E+00
     12.044  0.5840E-02  0.5306E-02  0.2032E+00  0.2028E+00
     12.060  0.5887E-02  0.5490E-02  0.2033E+00  0.2029E+00
     12.076  0.5898E-02  0.5650E-02  0.2034E+00  0.2030E+00
     12.092  0.5876E-02  0.5777E-02  0.2035E+00  0.2031E+00
     12.108  0.5827E-02  0.5868E-02  0.2036E+00  0.2032E+00
     12.123  0.5758E-02  0.5919E-02  0.2037E+00  0.2033E+00
     12.139  0.5677E-02  0.5932E-02  0.2038E+00  0.2034E+00
     12.155  0.5594E-02  0.5910E-02  0.2038E+00  0.2035E+00
     12.171  0.5517E-02  0.5858E-02  0.2039E+00  0.2036E+00
     12.187  0.5455E-02  0.5785E-02  0.2040E+00  0.2036E+00
     12.203  0.5414E-02  0.5700E-02  0.2041E+00  0.2037E+00
     12.219  0.5400E-02  0.5611E-02  0.2042E+00  0.2038E+00
     12.235  0.5416E-02  0.5528E-02  0.2043E+00  0.2039E+00
     12.251  0.5463E-02  0.5461E-02  0.2044E+00  0.2040E+00
     12.267  0.5538E-02  0.5416E-02  0.2045E+00  0.2041E+00
     12.283  0.5640E-02  0.5400E-02  0.2045E+00  0.2042E+00
     12.298  0.5762E-02  0.5415E-02  0.2046E+00  0.2043E+00
     12.314  0.5899E-02  0.5464E-02  0.2047E+00  0.2043E+00
     12.330  0.6043E-02  0.5545E-02  0.2048E+00  0.2044E+00
     12.346  0.6187E-02  0.5656E-02  0.2049E+00  0.2045E+00
     12.362  0.6324E-02  0.5791E-02  0.2050E+00  0.2046E+00
     12.378  0.6449E-02  0.5944E-02  0.2051E+00  0.2047E+00
     12.394  0.6556E-02  0.6108E-02  0.2052E+00  0.2048E+00
     12.410  0.6642E-02  0.6275E-02  0.2053E+00  0.2049E+00
     12.426  0.6706E-02  0.6437E-02  0.2054E+00  0.2050E+00
     12.442  0.6747E-02  0.6586E-02  0.2056E+00  0.2051E+00
     12.457  0.6765E-02  0.6717E-02  0.2057E+00  0.2052E+00
     12.473  0.6764E-02  0.6823E-02  0.2058E+00  0.2053E+00
     12.489  0.6747E-02  0.6903E-02  0.2059E+00  0.2054E+00
     12.505  0.6716E-02  0.6954E-02  0.2060E+00  0.2056E+00
     12.521  0.6677E-02  0.6975E-02  0.2061E+00  0.2057E+00
     12.537  0.6633E-02  0.6969E-02  0.2062E+00  0.2058E+00
     12.553  0.6588E-02  0.6939E-02  0.2063E+00  0.2059E+00
     12.569  0.6546E-02  0.6888E-02  0.2064E+00  0.2060E+00
     12.585  0.6508E-02  0.6823E-02  0.2065E+00  0.2061E+00
     12.601  0.6478E-02  0.6748E-02  0.2066E+00  0.2062E+00
     12.616  0.6455E-02  0.6669E-02  0.2067E+00  0.2063E+00
     12.632  0.6441E-02  0.6593E-02  0.2068E+00  0.2064E+00
     12.648  0.6434E-02  0.6523E-02  0.2069E+00  0.2065E+00
     12.664  0.6434E-02  0.6464E-02  0.2070E+00  0.2066E+00
     12.680  0.6438E-02  0.6418E-02  0.2071E+00  0.2067E+00
     12.696  0.6445E-02  0.6388E-02  0.2072E+00  0.2068E+00
     12.712  0.6452E-02  0.6372E-02  0.2073E+00  0.2069E+00
     12.728  0.6457E-02  0.6372E-02  0.2074E+00  0.2070E+00
     12.744  0.6458E-02  0.6383E-02  0.2075E+00  0.2071E+00
     12.760  0.6455E-02  0.6404E-02  0.2076E+00  0.2072E+00
     12.775  0.6446E-02  0.6431E-02  0.2077E+00  0.2073E+00
     12.791  0.6432E-02  0.6461E-02  0.2078E+00  0.2074E+00
     12.807  0.6415E-02  0.6492E-02  0.2079E+00  0.2075E+00
     12.823  0.6395E-02  0.6520E-02  0.2080E+00  0.2077E+00
     12.839  0.6376E-02  0.6545E-02  0.2081E+00  0.2078E+00
     12.855  0.6360E-02  0.6566E-02  0.2082E+00  0.2079E+00
     12.871  0.6349E-02  0.6583E-02  0.2083E+00  0.2080E+00
     12.887  0.6346E-02  0.6598E-02  0.2084E+00  0.2081E+00
     12.903  0.6354E-02  0.6613E-02  0.2085E+00  0.2082E+00
     12.919  0.6374E-02  0.6630E-02  0.2086E+00  0.2083E+00
     12.935  0.6407E-02  0.6652E-02  0.2088E+00  0.2084E+00
     12.950  0.6453E-02  0.6680E-02  0.2089E+00  0.2085E+00
     12.966  0.6511E-02  0.6717E-02  0.2090E+00  0.2086E+00
     12.982  0.6581E-02  0.6762E-02  0.2091E+00  0.2087E+00
     12.998  0.6659E-02  0.6818E-02  0.2092E+00  0.2088E+00
     13.014  0.6745E-02  0.6882E-02  0.2093E+00  0.2089E+00
     13.030  0.6834E-02  0.6953E-02  0.2094E+00  0.2090E+00
     13.046  0.6926E-02  0.7030E-02  0.2095E+00  0.2091E+00
     13.062  0.7017E-02  0.7110E-02  0.2096E+00  0.2093E+00
     13.078  0.7105E-02  0.7192E-02  0.2097E+00  0.2094E+00
     13.094  0.7188E-02  0.7272E-02  0.2098E+00  0.2095E+00
     13.109  0.7266E-02  0.7350E-02  0.2099E+00  0.2096E+00
     13.125  0.7337E-02  0.7423E-02  0.2101E+00  0.2097E+00
     13.141  0.7401E-02  0.7492E-02  0.2102E+00  0.2098E+00
     13.157  0.7458E-02  0.7555E-02  0.2103E+00  0.2100E+00
     13.173  0.7507E-02  0.7612E-02  0.2104E+00  0.2101E+00
     13.189  0.7550E-02  0.7664E-02  0.2105E+00  0.2102E+00
     13.205  0.7588E-02  0.7711E-02  0.2107E+00  0.2103E+00
     13.221  0.7620E-02  0.7753E-02  0.2108E+00  0.2105E+00
     13.237  0.7648E-02  0.7790E-02  0.2109E+00  0.2106E+00
     13.253  0.7673E-02  0.7823E-02  0.2110E+00  0.2107E+00
     13.268  0.7697E-02  0.7852E-02  0.2111E+00  0.2108E+00
     13.284  0.7720E-02  0.7876E-02  0.2113E+00  0.2109E+00
     13.300  0.7744E-02  0.7895E-02  0.2114E+00  0.2111E+00
     13.316  0.7771E-02  0.7911E-02  0.2115E+00  0.2112E+00
     13.332  0.7803E-02  0.7923E-02  0.2116E+00  0.2113E+00
     13.348  0.7841E-02  0.7933E-02  0.2118E+00  0.2115E+00
     13.364  0.7888E-02  0.7942E-02  0.2119E+00  0.2116E+00
     13.380  0.7943E-02  0.7953E-02  0.2120E+00  0.2117E+00
     13.396  0.8008E-02  0.7968E-02  0.2121E+00  0.2118E+00
     13.412  0.8083E-02  0.7989E-02  0.2123E+00  0.2120E+00
     13.427  0.8168E-02  0.8020E-02  0.2124E+00  0.2121E+00
     13.443  0.8260E-02  0.8063E-02  0.2125E+00  0.2122E+00
     13.459  0.8357E-02  0.8118E-02  0.2127E+00  0.2123E+00
     13.475  0.8456E-02  0.8187E-02  0.2128E+00  0.2125E+00
     13.491  0.8553E-02  0.8269E-02  0.2129E+00  0.2126E+00
     13.507  0.8643E-02  0.8361E-02  0.2131E+00  0.2127E+00
     13.523  0.8723E-02  0.8461E-02  0.2132E+00  0.2129E+00
     13.539  0.8786E-02  0.8565E-02  0.2134E+00  0.2130E+00
     13.555  0.8830E-02  0.8667E-02  0.2135E+00  0.2131E+00
     13.571  0.8850E-02  0.8762E-02  0.2136E+00  0.2133E+00
     13.587  0.8845E-02  0.8843E-02  0.2138E+00  0.2134E+00
     13.602  0.8812E-02  0.8906E-02  0.2139E+00  0.2136E+00
     13.618  0.8751E-02  0.8944E-02  0.2141E+00  0.2137E+00
     13.634  0.8665E-02  0.8955E-02  0.2142E+00  0.2139E+00
     13.650  0.8555E-02  0.8936E-02  0.2143E+00  0.2140E+00
     13.666  0.8426E-02  0.8886E-02  0.2145E+00  0.2141E+00
     13.682  0.8282E-02  0.8806E-02  0.2146E+00  0.2143E+00
     13.698  0.8129E-02  0.8698E-02  0.2147E+00  0.2144E+00
     13.714  0.7972E-02  0.8568E-02  0.2149E+00  0.2146E+00
     13.730  0.7817E-02  0.8420E-02  0.2150E+00  0.2147E+00
     13.746  0.7669E-02  0.8260E-02  0.2151E+00  0.2148E+00
     13.761  0.7533E-02  0.8095E-02  0.2152E+00  0.2149E+00
     13.777  0.7411E-02  0.7932E-02  0.2153E+00  0.2151E+00
     13.793  0.7306E-02  0.7775E-02  0.2155E+00  0.2152E+00
     13.809  0.7217E-02  0.7630E-02  0.2156E+00  0.2153E+00
     13.825  0.7144E-02  0.7500E-02  0.2157E+00  0.2154E+00
     13.841  0.7086E-02  0.7387E-02  0.2158E+00  0.2156E+00
     13.857  0.7038E-02  0.7292E-02  0.2159E+00  0.2157E+00
     13.873  0.6999E-02  0.7213E-02  0.2160E+00  0.2158E+00
     13.889  0.6964E-02  0.7149E-02  0.2161E+00  0.2159E+00
     13.905  0.6932E-02  0.7096E-02  0.2162E+00  0.2160E+00
     13.920  0.6898E-02  0.7052E-02  0.2163E+00  0.2161E+00
     13.936  0.6863E-02  0.7013E-02  0.2165E+00  0.2162E+00
     13.952  0.6827E-02  0.6976E-02  0.2166E+00  0.2163E+00
     13.968  0.6789E-02  0.6940E-02  0.2167E+00  0.2165E+00
     13.984  0.6752E-02  0.6902E-02  0.2168E+00  0.2166E+00
     14.000  0.6719E-02  0.6864E-02  0.2169E+00  0.2167E+00
     14.016  0.6694E-02  0.6826E-02  0.2170E+00  0.2168E+00
     14.032  0.6680E-02  0.6791E-02  0.2171E+00  0.2169E+00
     14.048  0.6681E-02  0.6762E-02  0.2172E+00  0.2170E+00
     14.064  0.6700E-02  0.6741E-02  0.2173E+00  0.2171E+00
     14.079  0.6740E-02  0.6734E-02  0.2174E+00  0.2172E+00
     14.095  0.6803E-02  0.6745E-02  0.2175E+00  0.2173E+00
     14.111  0.6889E-02  0.6775E-02  0.2176E+00  0.2174E+00
     14.127  0.6997E-02  0.6827E-02  0.2177E+00  0.2175E+00
     14.143  0.7127E-02  0.6903E-02  0.2179E+00  0.2176E+00
     14.159  0.7273E-02  0.7002E-02  0.2180E+00  0.2178E+00
     14.175  0.7433E-02  0.7122E-02  0.2181E+00  0.2179E+00
     14.191  0.7600E-02  0.7261E-02  0.2182E+00  0.2180E+00
     14.207  0.7768E-02  0.7413E-02  0.2183E+00  0.2181E+00
     14.223  0.7929E-02  0.7573E-02  0.2185E+00  0.2182E+00
     14.239  0.8077E-02  0.7734E-02  0.2186E+00  0.2183E+00
     14.254  0.8204E-02  0.7890E-02  0.2187E+00  0.2185E+00
     14.270  0.8303E-02  0.8031E-02  0.2189E+00  0.2186E+00
     14.286  0.8368E-02  0.8152E-02  0.2190E+00  0.2187E+00
     14.302  0.8394E-02  0.8247E-02  0.2191E+00  0.2189E+00
     14.318  0.8378E-02  0.8309E-02  0.2193E+00  0.2190E+00
     14.334  0.8318E-02  0.8335E-02  0.2194E+00  0.2191E+00
     14.350  0.8217E-02  0.8322E-02  0.2195E+00  0.2193E+00
     14.366  0.8078E-02  0.8272E-02  0.2196E+00  0.2194E+00
     14.382  0.7905E-02  0.8186E-02  0.2198E+00  0.2195E+00
     14.398  0.7706E-02  0.8067E-02  0.2199E+00  0.2196E+00
     14.413  0.7491E-02  0.7920E-02  0.2200E+00  0.2198E+00
     14.429  0.7267E-02  0.7752E-02  0.2201E+00  0.2199E+00
     14.445  0.7044E-02  0.7569E-02  0.2202E+00  0.2200E+00
     14.461  0.6830E-02  0.7379E-02  0.2204E+00  0.2201E+00
     14.477  0.6633E-02  0.7189E-02  0.2205E+00  0.2203E+00
     14.493  0.6458E-02  0.7005E-02  0.2206E+00  0.2204E+00
     14.509  0.6308E-02  0.6830E-02  0.2207E+00  0.2205E+00
     14.525  0.6184E-02  0.6670E-02  0.2208E+00  0.2206E+00
     14.541  0.6084E-02  0.6525E-02  0.2209E+00  0.2207E+00
     14.557  0.6006E-02  0.6395E-02  0.2210E+00  0.2208E+00
     14.572  0.5946E-02  0.6281E-02  0.2210E+00  0.2209E+00
     14.588  0.5898E-02  0.6180E-02  0.2211E+00  0.2210E+00
     14.604  0.5858E-02  0.6090E-02  0.2212E+00  0.2211E+00
     14.620  0.5822E-02  0.6009E-02  0.2213E+00  0.2212E+00
     14.636  0.5787E-02  0.5935E-02  0.2214E+00  0.2213E+00
     14.652  0.5752E-02  0.5868E-02  0.2215E+00  0.2214E+00
     14.668  0.5719E-02  0.5806E-02  0.2216E+00  0.2215E+00
     14.684  0.5688E-02  0.5752E-02  0.2217E+00  0.2215E+00
     14.700  0.5664E-02  0.5707E-02  0.2218E+00  0.2216E+00
     14.716  0.5652E-02  0.5674E-02  0.2219E+00  0.2217E+00
     14.731  0.5657E-02  0.5656E-02  0.2220E+00  0.2218E+00
     14.747  0.5684E-02  0.5657E-02  0.2220E+00  0.2219E+00
     14.763  0.5736E-02  0.5680E-02  0.2221E+00  0.2220E+00
     14.779  0.5815E-02  0.5727E-02  0.2222E+00  0.2221E+00
     14.795  0.5923E-02  0.5798E-02  0.2223E+00  0.2222E+00
     14.811  0.6056E-02  0.5895E-02  0.2224E+00  0.2223E+00
     14.827  0.6213E-02  0.6016E-02  0.2225E+00  0.2224E+00
     14.843  0.6387E-02  0.6156E-02  0.2226E+00  0.2225E+00
     14.859  0.6572E-02  0.6312E-02  0.2227E+00  0.2226E+00
     14.875  0.6759E-02  0.6478E-02  0.2228E+00  0.2227E+00
     14.890  0.6941E-02  0.6647E-02  0.2229E+00  0.2228E+00
     14.906  0.7111E-02  0.6814E-02  0.2231E+00  0.2229E+00
     14.922  0.7260E-02  0.6972E-02  0.2232E+00  0.2230E+00
     14.938  0.7385E-02  0.7116E-02  0.2233E+00  0.2231E+00
     14.954  0.7480E-02  0.7239E-02  0.2234E+00  0.2232E+00
     14.970  0.7545E-02  0.7339E-02  0.2235E+00  0.2233E+00
     14.986  0.7577E-02  0.7413E-02  0.2237E+00  0.2235E+00
     15.002  0.7579E-02  0.7460E-02  0.2238E+00  0.2236E+00
     15.018  0.7552E-02  0.7479E-02  0.2239E+00  0.2237E+00
     15.034  0.7501E-02  0.7473E-02  0.2240E+00  0.2238E+00
     15.050  0.7428E-02  0.7442E-02  0.2241E+00  0.2239E+00
     15.065  0.7338E-02  0.7391E-02  0.2242E+00  0.2240E+00
     15.081  0.7237E-02  0.7322E-02  0.2244E+00  0.2242E+00
     15.097  0.7127E-02  0.7240E-02  0.2245E+00  0.2243E+00
     15.113  0.7015E-02  0.7147E-02  0.2246E+00  0.2244E+00
     15.129  0.6902E-02  0.7049E-02  0.2247E+00  0.2245E+00
     15.145  0.6795E-02  0.6949E-02  0.2248E+00  0.2246E+00
     15.161  0.6695E-02  0.6851E-02  0.2249E+00  0.2247E+00
     15.177  0.6606E-02  0.6758E-02  0.2250E+00  0.2248E+00
     15.193  0.6531E-02  0.6675E-02  0.2251E+00  0.2249E+00
     15.209  0.6471E-02  0.6605E-02  0.2252E+00  0.2250E+00
     15.224  0.6428E-02  0.6550E-02  0.2253E+00  0.2251E+00
     15.240  0.6404E-02  0.6512E-02  0.2254E+00  0.2253E+00
     15.256  0.6397E-02  0.6494E-02  0.2255E+00  0.2254E+00
     15.272  0.6408E-02  0.6495E-02  0.2256E+00  0.2255E+00
     15.288  0.6435E-02  0.6515E-02  0.2257E+00  0.2256E+00
     15.304  0.6475E-02  0.6554E-02  0.2258E+00  0.2257E+00
     15.320  0.6526E-02  0.6608E-02  0.2259E+00  0.2258E+00
     15.336  0.6584E-02  0.6676E-02  0.2260E+00  0.2259E+00
     15.352  0.6645E-02  0.6752E-02  0.2261E+00  0.2260E+00
     15.368  0.6707E-02  0.6832E-02  0.2263E+00  0.2261E+00
     15.383  0.6765E-02  0.6913E-02  0.2264E+00  0.2262E+00
     15.399  0.6816E-02  0.6988E-02  0.2265E+00  0.2263E+00
     15.415  0.6859E-02  0.7055E-02  0.2266E+00  0.2264E+00
     15.431  0.6891E-02  0.7109E-02  0.2267E+00  0.2265E+00
     15.447  0.6914E-02  0.7149E-02  0.2268E+00  0.2267E+00
     15.463  0.6927E-02  0.7174E-02  0.2269E+00  0.2268E+00
     15.479  0.6933E-02  0.7183E-02  0.2270E+00  0.2269E+00
     15.495  0.6934E-02  0.7179E-02  0.2271E+00  0.2270E+00
     15.511  0.6935E-02  0.7165E-02  0.2272E+00  0.2271E+00
     15.527  0.6940E-02  0.7145E-02  0.2274E+00  0.2272E+00
     15.542  0.6953E-02  0.7125E-02  0.2275E+00  0.2273E+00
     15.558  0.6979E-02  0.7109E-02  0.2276E+00  0.2275E+00
     15.574  0.7023E-02  0.7105E-02  0.2277E+00  0.2276E+00
     15.590  0.7087E-02  0.7117E-02  0.2278E+00  0.2277E+00
     15.606  0.7173E-02  0.7150E-02  0.2279E+00  0.2278E+00
     15.622  0.7282E-02  0.7208E-02  0.2280E+00  0.2279E+00
     15.638  0.7413E-02  0.7292E-02  0.2281E+00  0.2280E+00
     15.654  0.7564E-02  0.7403E-02  0.2283E+00  0.2281E+00
     15.670  0.7730E-02  0.7538E-02  0.2284E+00  0.2283E+00
     15.686  0.7907E-02  0.7695E-02  0.2285E+00  0.2284E+00
     15.702  0.8088E-02  0.7868E-02  0.2286E+00  0.2285E+00
     15.717  0.8266E-02  0.8050E-02  0.2288E+00  0.2286E+00
     15.733  0.8436E-02  0.8236E-02  0.2289E+00  0.2288E+00
     15.749  0.8591E-02  0.8416E-02  0.2290E+00  0.2289E+00
     15.765  0.8725E-02  0.8585E-02  0.2292E+00  0.2290E+00
     15.781  0.8835E-02  0.8735E-02  0.2293E+00  0.2292E+00
     15.797  0.8917E-02  0.8861E-02  0.2295E+00  0.2293E+00
     15.813  0.8971E-02  0.8958E-02  0.2296E+00  0.2295E+00
     15.829  0.8996E-02  0.9023E-02  0.2298E+00  0.2296E+00
     15.845  0.8992E-02  0.9055E-02  0.2299E+00  0.2297E+00
     15.861  0.8960E-02  0.9053E-02  0.2300E+00  0.2299E+00
     15.876  0.8905E-02  0.9019E-02  0.2302E+00  0.2300E+00
     15.892  0.8826E-02  0.8955E-02  0.2303E+00  0.2302E+00
     15.908  0.8727E-02  0.8865E-02  0.2305E+00  0.2303E+00
     15.924  0.8610E-02  0.8751E-02  0.2306E+00  0.2305E+00
     15.940  0.8477E-02  0.8618E-02  0.2307E+00  0.2306E+00
     15.956  0.8329E-02  0.8469E-02  0.2309E+00  0.2307E+00
     15.972  0.8168E-02  0.8306E-02  0.2310E+00  0.2309E+00
     15.988  0.7994E-02  0.8133E-02  0.2311E+00  0.2310E+00
     16.004  0.7811E-02  0.7953E-02  0.2312E+00  0.2311E+00
     16.020  0.7619E-02  0.7767E-02  0.2314E+00  0.2312E+00
     16.035  0.7421E-02  0.7578E-02  0.2315E+00  0.2314E+00
     16.051  0.7220E-02  0.7387E-02  0.2316E+00  0.2315E+00
     16.067  0.7020E-02  0.7197E-02  0.2317E+00  0.2316E+00
     16.083  0.6825E-02  0.7011E-02  0.2318E+00  0.2317E+00
     16.099  0.6641E-02  0.6832E-02  0.2319E+00  0.2318E+00
     16.115  0.6472E-02  0.6663E-02  0.2320E+00  0.2319E+00
     16.131  0.6324E-02  0.6509E-02  0.2321E+00  0.2320E+00
     16.147  0.6202E-02  0.6375E-02  0.2322E+00  0.2321E+00
     16.163  0.6110E-02  0.6263E-02  0.2323E+00  0.2322E+00
     16.179  0.6051E-02  0.6180E-02  0.2324E+00  0.2323E+00
     16.194  0.6026E-02  0.6126E-02  0.2325E+00  0.2324E+00
     16.210  0.6037E-02  0.6106E-02  0.2326E+00  0.2325E+00
     16.226  0.6083E-02  0.6120E-02  0.2327E+00  0.2326E+00
     16.242  0.6160E-02  0.6168E-02  0.2328E+00  0.2327E+00
     16.258  0.6265E-02  0.6248E-02  0.2329E+00  0.2328E+00
     16.274  0.6392E-02  0.6356E-02  0.2330E+00  0.2329E+00
     16.290  0.6538E-02  0.6489E-02  0.2331E+00  0.2330E+00
     16.306  0.6694E-02  0.6641E-02  0.2332E+00  0.2331E+00
     16.322  0.6855E-02  0.6806E-02  0.2333E+00  0.2332E+00
     16.338  0.7015E-02  0.6978E-02  0.2334E+00  0.2333E+00
     16.354  0.7168E-02  0.7150E-02  0.2336E+00  0.2335E+00
     16.369  0.7310E-02  0.7315E-02  0.2337E+00  0.2336E+00
     16.385  0.7436E-02  0.7469E-02  0.2338E+00  0.2337E+00
     16.401  0.7543E-02  0.7606E-02  0.2339E+00  0.2338E+00
     16.417  0.7630E-02  0.7723E-02  0.2340E+00  0.2339E+00
     16.433  0.7695E-02  0.7816E-02  0.2342E+00  0.2341E+00
     16.449  0.7736E-02  0.7883E-02  0.2343E+00  0.2342E+00
     16.465  0.7756E-02  0.7923E-02  0.2344E+00  0.2343E+00
     16.481  0.7753E-02  0.7936E-02  0.2345E+00  0.2344E+00
     16.497  0.7730E-02  0.7923E-02  0.2346E+00  0.2346E+00
     16.513  0.7688E-02  0.7886E-02  0.2348E+00  0.2347E+00
     16.528  0.7629E-02  0.7828E-02  0.2349E+00  0.2348E+00
     16.544  0.7556E-02  0.7751E-02  0.2350E+00  0.2349E+00
     16.560  0.7470E-02  0.7659E-02  0.2351E+00  0.2351E+00
     16.576  0.7375E-02  0.7556E-02  0.2352E+00  0.2352E+00
     16.592  0.7273E-02  0.7445E-02  0.2354E+00  0.2353E+00
     16.608  0.7164E-02  0.7330E-02  0.2355E+00  0.2354E+00
     16.624  0.7050E-02  0.7214E-02  0.2356E+00  0.2355E+00
     16.640  0.6933E-02  0.7097E-02  0.2357E+00  0.2356E+00
     16.656  0.6811E-02  0.6980E-02  0.2358E+00  0.2357E+00
     16.672  0.6685E-02  0.6862E-02  0.2359E+00  0.2359E+00
     16.687  0.6552E-02  0.6742E-02  0.2360E+00  0.2360E+00
     16.703  0.6411E-02  0.6616E-02  0.2361E+00  0.2361E+00
     16.719  0.6259E-02  0.6481E-02  0.2362E+00  0.2362E+00
     16.735  0.6094E-02  0.6333E-02  0.2363E+00  0.2363E+00
     16.751  0.5912E-02  0.6168E-02  0.2364E+00  0.2364E+00
     16.767  0.5712E-02  0.5981E-02  0.2365E+00  0.2365E+00
     16.783  0.5492E-02  0.5770E-02  0.2366E+00  0.2366E+00
     16.799  0.5253E-02  0.5535E-02  0.2367E+00  0.2366E+00
     16.815  0.4993E-02  0.5273E-02  0.2367E+00  0.2367E+00
     16.831  0.4715E-02  0.4988E-02  0.2368E+00  0.2368E+00
     16.846  0.4423E-02  0.4682E-02  0.2369E+00  0.2369E+00
     16.862  0.4120E-02  0.4361E-02  0.2370E+00  0.2370E+00
     16.878  0.3812E-02  0.4030E-02  0.2370E+00  0.2370E+00
     16.894  0.3505E-02  0.3696E-02  0.2371E+00  0.2371E+00
     16.910  0.3205E-02  0.3368E-02  0.2371E+00  0.2371E+00
     16.926  0.2919E-02  0.3054E-02  0.2372E+00  0.2372E+00
     16.942  0.2654E-02  0.2760E-02  0.2372E+00  0.2372E+00
     16.958  0.2416E-02  0.2494E-02  0.2373E+00  0.2373E+00
     16.974  0.2209E-02  0.2261E-02  0.2373E+00  0.2373E+00
     16.990  0.2037E-02  0.2066E-02  0.2373E+00  0.2373E+00
     17.006  0.1904E-02  0.1912E-02  0.2373E+00  0.2374E+00
     17.021  0.1809E-02  0.1799E-02  0.2374E+00  0.2374E+00
     17.037  0.1752E-02  0.1726E-02  0.2374E+00  0.2374E+00
     17.053  0.1731E-02  0.1693E-02  0.2374E+00  0.2374E+00
     17.069  0.1742E-02  0.1694E-02  0.2375E+00  0.2375E+00
     17.085  0.1780E-02  0.1726E-02  0.2375E+00  0.2375E+00
     17.101  0.1840E-02  0.1782E-02  0.2375E+00  0.2375E+00
     17.117  0.1915E-02  0.1857E-02  0.2375E+00  0.2376E+00
     17.133  0.1999E-02  0.1943E-02  0.2376E+00  0.2376E+00
     17.149  0.2085E-02  0.2034E-02  0.2376E+00  0.2376E+00
     17.165  0.2168E-02  0.2124E-02  0.2376E+00  0.2377E+00
     17.180  0.2243E-02  0.2209E-02  0.2377E+00  0.2377E+00
     17.196  0.2305E-02  0.2282E-02  0.2377E+00  0.2377E+00
     17.212  0.2351E-02  0.2341E-02  0.2378E+00  0.2378E+00
     17.228  0.2379E-02  0.2383E-02  0.2378E+00  0.2378E+00
     17.244  0.2387E-02  0.2405E-02  0.2378E+00  0.2378E+00
     17.260  0.2376E-02  0.2406E-02  0.2379E+00  0.2379E+00
     17.276  0.2346E-02  0.2387E-02  0.2379E+00  0.2379E+00
     17.292  0.2298E-02  0.2348E-02  0.2379E+00  0.2380E+00
     17.308  0.2233E-02  0.2289E-02  0.2380E+00  0.2380E+00
     17.324  0.2153E-02  0.2212E-02  0.2380E+00  0.2380E+00
     17.339  0.2061E-02  0.2119E-02  0.2380E+00  0.2381E+00
     17.355  0.1957E-02  0.2012E-02  0.2381E+00  0.2381E+00
     17.371  0.1845E-02  0.1893E-02  0.2381E+00  0.2381E+00
     17.387  0.1726E-02  0.1767E-02  0.2381E+00  0.2381E+00
     17.403  0.1603E-02  0.1634E-02  0.2382E+00  0.2382E+00
     17.419  0.1478E-02  0.1500E-02  0.2382E+00  0.2382E+00
     17.435  0.1354E-02  0.1366E-02  0.2382E+00  0.2382E+00
     17.451  0.1233E-02  0.1238E-02  0.2382E+00  0.2382E+00
     17.467  0.1119E-02  0.1117E-02  0.2382E+00  0.2383E+00
     17.483  0.1013E-02  0.1008E-02  0.2383E+00  0.2383E+00
     17.498  0.9183E-03  0.9117E-03  0.2383E+00  0.2383E+00
     17.514  0.8368E-03  0.8312E-03  0.2383E+00  0.2383E+00
     17.530  0.7700E-03  0.7675E-03  0.2383E+00  0.2383E+00
     17.546  0.7191E-03  0.7210E-03  0.2383E+00  0.2383E+00
     17.562  0.6841E-03  0.6912E-03  0.2383E+00  0.2383E+00
     17.578  0.6645E-03  0.6769E-03  0.2383E+00  0.2383E+00
     17.594  0.6590E-03  0.6760E-03  0.2383E+00  0.2384E+00
     17.610  0.6655E-03  0.6860E-03  0.2384E+00  0.2384E+00
     17.626  0.6816E-03  0.7040E-03  0.2384E+00  0.2384E+00
     17.642  0.7045E-03  0.7270E-03  0.2384E+00  0.2384E+00
     17.658  0.7310E-03  0.7519E-03  0.2384E+00  0.2384E+00
     17.673  0.7585E-03  0.7761E-03  0.2384E+00  0.2384E+00
     17.689  0.7843E-03  0.7976E-03  0.2384E+00  0.2384E+00
     17.705  0.8065E-03  0.8148E-03  0.2384E+00  0.2384E+00
     17.721  0.8235E-03  0.8269E-03  0.2384E+00  0.2385E+00
     17.737  0.8347E-03  0.8335E-03  0.2385E+00  0.2385E+00
     17.753  0.8398E-03  0.8352E-03  0.2385E+00  0.2385E+00
     17.769  0.8394E-03  0.8326E-03  0.2385E+00  0.2385E+00
     17.785  0.8343E-03  0.8267E-03  0.2385E+00  0.2385E+00
     17.801  0.8256E-03  0.8186E-03  0.2385E+00  0.2385E+00
     17.817  0.8146E-03  0.8095E-03  0.2385E+00  0.2385E+00
     17.832  0.8024E-03  0.8001E-03  0.2385E+00  0.2385E+00
     17.848  0.7901E-03  0.7910E-03  0.2385E+00  0.2386E+00
     17.864  0.7782E-03  0.7824E-03  0.2386E+00  0.2386E+00
     17.880  0.7673E-03  0.7744E-03  0.2386E+00  0.2386E+00
     17.896  0.7573E-03  0.7666E-03  0.2386E+00  0.2386E+00
     17.912  0.7481E-03  0.7586E-03  0.2386E+00  0.2386E+00
     17.928  0.7393E-03  0.7501E-03  0.2386E+00  0.2386E+00
     17.944  0.7304E-03  0.7406E-03  0.2386E+00  0.2386E+00
     17.960  0.7211E-03  0.7298E-03  0.2386E+00  0.2386E+00
     17.976  0.7109E-03  0.7179E-03  0.2386E+00  0.2387E+00
     17.991  0.6999E-03  0.7051E-03  0.2386E+00  0.2387E+00
     18.007  0.6882E-03  0.6917E-03  0.2387E+00  0.2387E+00
     18.023  0.6760E-03  0.6785E-03  0.2387E+00  0.2387E+00
     18.039  0.6640E-03  0.6662E-03  0.2387E+00  0.2387E+00
     18.055  0.6527E-03  0.6555E-03  0.2387E+00  0.2387E+00
     18.071  0.6429E-03  0.6471E-03  0.2387E+00  0.2387E+00
     18.087  0.6354E-03  0.6417E-03  0.2387E+00  0.2387E+00
     18.103  0.6307E-03  0.6396E-03  0.2387E+00  0.2387E+00
     18.119  0.6291E-03  0.6409E-03  0.2387E+00  0.2387E+00
     18.135  0.6310E-03  0.6453E-03  0.2387E+00  0.2388E+00
     18.150  0.6361E-03  0.6524E-03  0.2388E+00  0.2388E+00
     18.166  0.6441E-03  0.6615E-03  0.2388E+00  0.2388E+00
     18.182  0.6543E-03  0.6716E-03  0.2388E+00  0.2388E+00
     18.198  0.6658E-03  0.6814E-03  0.2388E+00  0.2388E+00
     18.214  0.6774E-03  0.6899E-03  0.2388E+00  0.2388E+00
     18.230  0.6881E-03  0.6957E-03  0.2388E+00  0.2388E+00
     18.246  0.6963E-03  0.6977E-03  0.2388E+00  0.2388E+00
     18.262  0.7010E-03  0.6948E-03  0.2388E+00  0.2388E+00
     18.278  0.7009E-03  0.6863E-03  0.2388E+00  0.2389E+00
     18.294  0.6952E-03  0.6717E-03  0.2389E+00  0.2389E+00
     18.310  0.6833E-03  0.6508E-03  0.2389E+00  0.2389E+00
     18.325  0.6649E-03  0.6240E-03  0.2389E+00  0.2389E+00
     18.341  0.6402E-03  0.5920E-03  0.2389E+00  0.2389E+00
     18.357  0.6097E-03  0.5557E-03  0.2389E+00  0.2389E+00
     18.373  0.5743E-03  0.5165E-03  0.2389E+00  0.2389E+00
     18.389  0.5354E-03  0.4760E-03  0.2389E+00  0.2389E+00
     18.405  0.4945E-03  0.4359E-03  0.2389E+00  0.2389E+00
     18.421  0.4534E-03  0.3977E-03  0.2389E+00  0.2389E+00
     18.437  0.4136E-03  0.3631E-03  0.2389E+00  0.2389E+00
     18.453  0.3770E-03  0.3333E-03  0.2389E+00  0.2389E+00
     18.469  0.3448E-03  0.3093E-03  0.2389E+00  0.2389E+00
     18.484  0.3182E-03  0.2917E-03  0.2389E+00  0.2390E+00
     18.500  0.2980E-03  0.2808E-03  0.2390E+00  0.2390E+00
     18.516  0.2844E-03  0.2763E-03  0.2390E+00  0.2390E+00
     18.532  0.2773E-03  0.2778E-03  0.2390E+00  0.2390E+00
     18.548  0.2764E-03  0.2845E-03  0.2390E+00  0.2390E+00
     18.564  0.2810E-03  0.2957E-03  0.2390E+00  0.2390E+00
     18.580  0.2902E-03  0.3103E-03  0.2390E+00  0.2390E+00
     18.596  0.3030E-03  0.3276E-03  0.2390E+00  0.2390E+00
     18.612  0.3187E-03  0.3469E-03  0.2390E+00  0.2390E+00
     18.628  0.3365E-03  0.3676E-03  0.2390E+00  0.2390E+00
     18.643  0.3558E-03  0.3894E-03  0.2390E+00  0.2390E+00
     18.659  0.3762E-03  0.4121E-03  0.2390E+00  0.2390E+00
     18.675  0.3976E-03  0.4356E-03  0.2390E+00  0.2390E+00
     18.691  0.4198E-03  0.4596E-03  0.2390E+00  0.2390E+00
     18.707  0.4429E-03  0.4841E-03  0.2390E+00  0.2390E+00
     18.723  0.4666E-03  0.5086E-03  0.2390E+00  0.2390E+00
     18.739  0.4908E-03  0.5328E-03  0.2390E+00  0.2390E+00
     18.755  0.5150E-03  0.5559E-03  0.2390E+00  0.2391E+00
     18.771  0.5388E-03  0.5770E-03  0.2391E+00  0.2391E+00
     18.787  0.5612E-03  0.5951E-03  0.2391E+00  0.2391E+00
     18.802  0.5813E-03  0.6093E-03  0.2391E+00  0.2391E+00
     18.818  0.5981E-03  0.6187E-03  0.2391E+00  0.2391E+00
     18.834  0.6105E-03  0.6226E-03  0.2391E+00  0.2391E+00
     18.850  0.6176E-03  0.6206E-03  0.2391E+00  0.2391E+00
     18.866  0.6189E-03  0.6126E-03  0.2391E+00  0.2391E+00
     18.882  0.6141E-03  0.5990E-03  0.2391E+00  0.2391E+00
     18.898  0.6034E-03  0.5808E-03  0.2391E+00  0.2391E+00
     18.914  0.5873E-03  0.5590E-03  0.2391E+00  0.2392E+00
     18.930  0.5669E-03  0.5351E-03  0.2391E+00  0.2392E+00
     18.946  0.5435E-03  0.5108E-03  0.2392E+00  0.2392E+00
     18.962  0.5187E-03  0.4876E-03  0.2392E+00  0.2392E+00
     18.977  0.4941E-03  0.4670E-03  0.2392E+00  0.2392E+00
     18.993  0.4714E-03  0.4503E-03  0.2392E+00  0.2392E+00
     19.009  0.4519E-03  0.4382E-03  0.2392E+00  0.2392E+00
     19.025  0.4367E-03  0.4311E-03  0.2392E+00  0.2392E+00
     19.041  0.4266E-03  0.4290E-03  0.2392E+00  0.2392E+00
     19.057  0.4217E-03  0.4314E-03  0.2392E+00  0.2392E+00
     19.073  0.4217E-03  0.4375E-03  0.2392E+00  0.2392E+00
     19.089  0.4260E-03  0.4461E-03  0.2392E+00  0.2392E+00
     19.105  0.4336E-03  0.4560E-03  0.2392E+00  0.2392E+00
     19.121  0.4434E-03  0.4661E-03  0.2392E+00  0.2392E+00
     19.136  0.4540E-03  0.4752E-03  0.2392E+00  0.2393E+00
     19.152  0.4643E-03  0.4826E-03  0.2392E+00  0.2393E+00
     19.168  0.4732E-03  0.4877E-03  0.2393E+00  0.2393E+00
     19.184  0.4800E-03  0.4901E-03  0.2393E+00  0.2393E+00
     19.200  0.4842E-03  0.4900E-03  0.2393E+00  0.2393E+00
     19.216  0.4857E-03  0.4877E-03  0.2393E+00  0.2393E+00
     19.232  0.4847E-03  0.4835E-03  0.2393E+00  0.2393E+00
     19.248  0.4815E-03  0.4781E-03  0.2393E+00  0.2393E+00
     19.264  0.4766E-03  0.4720E-03  0.2393E+00  0.2393E+00
     19.280  0.4707E-03  0.4656E-03  0.2393E+00  0.2393E+00
     19.295  0.4643E-03  0.4592E-03  0.2393E+00  0.2393E+00
     19.311  0.4579E-03  0.4529E-03  0.2393E+00  0.2393E+00
     19.327  0.4517E-03  0.4468E-03  0.2393E+00  0.2393E+00
     19.343  0.4458E-03  0.4407E-03  0.2393E+00  0.2394E+00
     19.359  0.4402E-03  0.4341E-03  0.2393E+00  0.2394E+00
     19.375  0.4346E-03  0.4268E-03  0.2394E+00  0.2394E+00
     19.391  0.4287E-03  0.4185E-03  0.2394E+00  0.2394E+00
     19.407  0.4220E-03  0.4089E-03  0.2394E+00  0.2394E+00
     19.423  0.4144E-03  0.3978E-03  0.2394E+00  0.2394E+00
     19.439  0.4054E-03  0.3852E-03  0.2394E+00  0.2394E+00
     19.454  0.3950E-03  0.3714E-03  0.2394E+00  0.2394E+00
     19.470  0.3831E-03  0.3566E-03  0.2394E+00  0.2394E+00
     19.486  0.3700E-03  0.3411E-03  0.2394E+00  0.2394E+00
     19.502  0.3558E-03  0.3256E-03  0.2394E+00  0.2394E+00
     19.518  0.3410E-03  0.3106E-03  0.2394E+00  0.2394E+00
     19.534  0.3260E-03  0.2964E-03  0.2394E+00  0.2394E+00
     19.550  0.3114E-03  0.2836E-03  0.2394E+00  0.2394E+00
     19.566  0.2977E-03  0.2726E-03  0.2394E+00  0.2394E+00
     19.582  0.2852E-03  0.2636E-03  0.2394E+00  0.2394E+00
     19.598  0.2744E-03  0.2568E-03  0.2394E+00  0.2394E+00
     19.614  0.2654E-03  0.2522E-03  0.2394E+00  0.2394E+00
     19.629  0.2585E-03  0.2497E-03  0.2394E+00  0.2394E+00
     19.645  0.2537E-03  0.2491E-03  0.2394E+00  0.2395E+00
     19.661  0.2509E-03  0.2502E-03  0.2394E+00  0.2395E+00
     19.677  0.2500E-03  0.2526E-03  0.2395E+00  0.2395E+00
     19.693  0.2506E-03  0.2559E-03  0.2395E+00  0.2395E+00
     19.709  0.2526E-03  0.2596E-03  0.2395E+00  0.2395E+00
     19.725  0.2554E-03  0.2632E-03  0.2395E+00  0.2395E+00
     19.741  0.2587E-03  0.2662E-03  0.2395E+00  0.2395E+00
     19.757  0.2619E-03  0.2681E-03  0.2395E+00  0.2395E+00
     19.773  0.2646E-03  0.2686E-03  0.2395E+00  0.2395E+00
     19.788  0.2663E-03  0.2672E-03  0.2395E+00  0.2395E+00
     19.804  0.2665E-03  0.2638E-03  0.2395E+00  0.2395E+00
     19.820  0.2649E-03  0.2582E-03  0.2395E+00  0.2395E+00
     19.836  0.2614E-03  0.2506E-03  0.2395E+00  0.2395E+00
     19.852  0.2558E-03  0.2411E-03  0.2395E+00  0.2395E+00
     19.868  0.2482E-03  0.2302E-03  0.2395E+00  0.2395E+00
     19.884  0.2389E-03  0.2183E-03  0.2395E+00  0.2395E+00
     19.900  0.2282E-03  0.2060E-03  0.2395E+00  0.2395E+00
     19.916  0.2165E-03  0.1939E-03  0.2395E+00  0.2395E+00
     19.932  0.2044E-03  0.1825E-03  0.2395E+00  0.2395E+00
     19.947  0.1926E-03  0.1723E-03  0.2395E+00  0.2395E+00
     19.963  0.1815E-03  0.1637E-03  0.2395E+00  0.2395E+00
     19.979  0.1716E-03  0.1572E-03  0.2395E+00  0.2395E+00
     19.995  0.1634E-03  0.1528E-03  0.2395E+00  0.2395E+00
     20.011  0.1571E-03  0.1508E-03  0.2395E+00  0.2395E+00
     20.027  0.1529E-03  0.1511E-03  0.2395E+00  0.2395E+00
     20.043  0.1510E-03  0.1538E-03  0.2395E+00  0.2395E+00
     20.059  0.1514E-03  0.1589E-03  0.2395E+00  0.2395E+00
     20.075  0.1540E-03  0.1665E-03  0.2395E+00  0.2395E+00
     20.091  0.1589E-03  0.1765E-03  0.2395E+00  0.2395E+00
     20.106  0.1661E-03  0.1890E-03  0.2395E+00  0.2396E+00
     20.122  0.1758E-03  0.2042E-03  0.2395E+00  0.2396E+00
     20.138  0.1879E-03  0.2222E-03  0.2396E+00  0.2396E+00
     20.154  0.2027E-03  0.2428E-03  0.2396E+00  0.2396E+00
     20.170  0.2203E-03  0.2660E-03  0.2396E+00  0.2396E+00
     20.186  0.2405E-03  0.2915E-03  0.2396E+00  0.2396E+00
     20.202  0.2634E-03  0.3187E-03  0.2396E+00  0.2396E+00
     20.218  0.2885E-03  0.3468E-03  0.2396E+00  0.2396E+00
     20.234  0.3155E-03  0.3751E-03  0.2396E+00  0.2396E+00
     20.250  0.3435E-03  0.4023E-03  0.2396E+00  0.2396E+00
     20.266  0.3717E-03  0.4275E-03  0.2396E+00  0.2396E+00
     20.281  0.3990E-03  0.4494E-03  0.2396E+00  0.2396E+00
     20.297  0.4243E-03  0.4672E-03  0.2396E+00  0.2396E+00
     20.313  0.4465E-03  0.4800E-03  0.2396E+00  0.2396E+00
     20.329  0.4644E-03  0.4874E-03  0.2396E+00  0.2396E+00
     20.345  0.4775E-03  0.4891E-03  0.2396E+00  0.2396E+00
     20.361  0.4850E-03  0.4855E-03  0.2396E+00  0.2396E+00
     20.377  0.4869E-03  0.4772E-03  0.2396E+00  0.2397E+00
     20.393  0.4834E-03  0.4649E-03  0.2396E+00  0.2397E+00
     20.409  0.4751E-03  0.4499E-03  0.2397E+00  0.2397E+00
     20.425  0.4628E-03  0.4333E-03  0.2397E+00  0.2397E+00
     20.440  0.4476E-03  0.4163E-03  0.2397E+00  0.2397E+00
     20.456  0.4307E-03  0.4000E-03  0.2397E+00  0.2397E+00
     20.472  0.4134E-03  0.3853E-03  0.2397E+00  0.2397E+00
     20.488  0.3969E-03  0.3729E-03  0.2397E+00  0.2397E+00
     20.504  0.3820E-03  0.3630E-03  0.2397E+00  0.2397E+00
     20.520  0.3693E-03  0.3556E-03  0.2397E+00  0.2397E+00
     20.536  0.3593E-03  0.3504E-03  0.2397E+00  0.2397E+00
     20.552  0.3519E-03  0.3466E-03  0.2397E+00  0.2397E+00
     20.568  0.3468E-03  0.3435E-03  0.2397E+00  0.2397E+00
     20.584  0.3433E-03  0.3403E-03  0.2397E+00  0.2397E+00
     20.599  0.3407E-03  0.3360E-03  0.2397E+00  0.2397E+00
     20.615  0.3381E-03  0.3298E-03  0.2397E+00  0.2397E+00
     20.631  0.3345E-03  0.3211E-03  0.2397E+00  0.2397E+00
     20.647  0.3292E-03  0.3094E-03  0.2397E+00  0.2398E+00
     20.663  0.3215E-03  0.2946E-03  0.2397E+00  0.2398E+00
     20.679  0.3108E-03  0.2767E-03  0.2398E+00  0.2398E+00
     20.695  0.2969E-03  0.2559E-03  0.2398E+00  0.2398E+00
     20.711  0.2799E-03  0.2327E-03  0.2398E+00  0.2398E+00
     20.727  0.2599E-03  0.2078E-03  0.2398E+00  0.2398E+00
     20.743  0.2374E-03  0.1819E-03  0.2398E+00  0.2398E+00
     20.758  0.2130E-03  0.1556E-03  0.2398E+00  0.2398E+00
     20.774  0.1874E-03  0.1298E-03  0.2398E+00  0.2398E+00
     20.790  0.1613E-03  0.1051E-03  0.2398E+00  0.2398E+00
     20.806  0.1355E-03  0.8202E-04  0.2398E+00  0.2398E+00
     20.822  0.1106E-03  0.6111E-04  0.2398E+00  0.2398E+00
     20.838  0.8720E-04  0.4266E-04  0.2398E+00  0.2398E+00
     20.854  0.6587E-04  0.2688E-04  0.2398E+00  0.2398E+00
     20.870  0.4692E-04  0.1386E-04  0.2398E+00  0.2398E+00
     20.886  0.3060E-04  0.3581E-05  0.2398E+00  0.2398E+00
     20.902  0.1700E-04 -0.4065E-05  0.2398E+00  0.2398E+00
     20.917  0.6134E-05 -0.9240E-05  0.2398E+00  0.2398E+00
     20.933 -0.2077E-05 -0.1215E-04  0.2398E+00  0.2398E+00
     20.949 -0.7785E-05 -0.1302E-04  0.2398E+00  0.2398E+00
     20.965 -0.1119E-04 -0.1207E-04  0.2398E+00  0.2398E+00
     20.981 -0.1250E-04 -0.9533E-05  0.2398E+00  0.2398E+00
     20.997 -0.1196E-04 -0.5586E-05  0.2398E+00  0.2398E+00
     21.013 -0.9789E-05 -0.3904E-06  0.2398E+00  0.2398E+00
     21.029 -0.6180E-05  0.5938E-05  0.2398E+00  0.2398E+00
     21.045 -0.1303E-05  0.1333E-04  0.2398E+00  0.2398E+00
     21.061  0.4710E-05  0.2175E-04  0.2398E+00  0.2398E+00
     21.077  0.1177E-04  0.3121E-04  0.2398E+00  0.2398E+00
     21.092  0.1984E-04  0.4174E-04  0.2398E+00  0.2398E+00
     21.108  0.2892E-04  0.5342E-04  0.2398E+00  0.2398E+00
     21.124  0.3903E-04  0.6628E-04  0.2398E+00  0.2398E+00
     21.140  0.5023E-04  0.8037E-04  0.2398E+00  0.2398E+00
     21.156  0.6259E-04  0.9568E-04  0.2398E+00  0.2398E+00
     21.172  0.7615E-04  0.1121E-03  0.2398E+00  0.2398E+00
     21.188  0.9093E-04  0.1296E-03  0.2398E+00  0.2398E+00
     21.204  0.1069E-03  0.1477E-03  0.2398E+00  0.2398E+00
     21.220  0.1239E-03  0.1661E-03  0.2398E+00  0.2398E+00
     21.236  0.1417E-03  0.1844E-03  0.2398E+00  0.2398E+00
     21.251  0.1599E-03  0.2019E-03  0.2398E+00  0.2398E+00
     21.267  0.1782E-03  0.2179E-03  0.2398E+00  0.2398E+00
     21.283  0.1959E-03  0.2318E-03  0.2398E+00  0.2398E+00
     21.299  0.2124E-03  0.2428E-03  0.2398E+00  0.2398E+00
     21.315  0.2270E-03  0.2504E-03  0.2398E+00  0.2398E+00
     21.331  0.2390E-03  0.2540E-03  0.2398E+00  0.2398E+00
     21.347  0.2477E-03  0.2533E-03  0.2398E+00  0.2398E+00
     21.363  0.2527E-03  0.2481E-03  0.2398E+00  0.2398E+00
     21.379  0.2534E-03  0.2385E-03  0.2398E+00  0.2398E+00
     21.395  0.2497E-03  0.2249E-03  0.2398E+00  0.2398E+00
     21.410  0.2416E-03  0.2076E-03  0.2398E+00  0.2398E+00
     21.426  0.2292E-03  0.1875E-03  0.2398E+00  0.2398E+00
     21.442  0.2131E-03  0.1654E-03  0.2398E+00  0.2399E+00
     21.458  0.1939E-03  0.1423E-03  0.2398E+00  0.2399E+00
     21.474  0.1724E-03  0.1194E-03  0.2399E+00  0.2399E+00
     21.490  0.1496E-03  0.9760E-04  0.2399E+00  0.2399E+00
     21.506  0.1265E-03  0.7804E-04  0.2399E+00  0.2399E+00
     21.522  0.1042E-03  0.6161E-04  0.2399E+00  0.2399E+00
     21.538  0.8385E-04  0.4913E-04  0.2399E+00  0.2399E+00
     21.554  0.6627E-04  0.4122E-04  0.2399E+00  0.2399E+00
     21.569  0.5237E-04  0.3832E-04  0.2399E+00  0.2399E+00
     21.585  0.4282E-04  0.4064E-04  0.2399E+00  0.2399E+00
     21.601  0.3812E-04  0.4819E-04  0.2399E+00  0.2399E+00
     21.617  0.3858E-04  0.6076E-04  0.2399E+00  0.2399E+00
     21.633  0.4426E-04  0.7791E-04  0.2399E+00  0.2399E+00
     21.649  0.5503E-04  0.9902E-04  0.2399E+00  0.2399E+00
     21.665  0.7055E-04  0.1233E-03  0.2399E+00  0.2399E+00
     21.681  0.9025E-04  0.1499E-03  0.2399E+00  0.2399E+00
     21.697  0.1134E-03  0.1776E-03  0.2399E+00  0.2399E+00
     21.713  0.1392E-03  0.2055E-03  0.2399E+00  0.2399E+00
     21.729  0.1665E-03  0.2324E-03  0.2399E+00  0.2399E+00
     21.744  0.1944E-03  0.2573E-03  0.2399E+00  0.2399E+00
     21.760  0.2218E-03  0.2793E-03  0.2399E+00  0.2399E+00
     21.776  0.2475E-03  0.2973E-03  0.2399E+00  0.2399E+00
     21.792  0.2706E-03  0.3109E-03  0.2399E+00  0.2399E+00
     21.808  0.2902E-03  0.3195E-03  0.2399E+00  0.2399E+00
     21.824  0.3056E-03  0.3229E-03  0.2399E+00  0.2399E+00
     21.840  0.3162E-03  0.3210E-03  0.2399E+00  0.2399E+00
     21.856  0.3216E-03  0.3140E-03  0.2399E+00  0.2399E+00
     21.872  0.3218E-03  0.3023E-03  0.2399E+00  0.2399E+00
     21.888  0.3168E-03  0.2864E-03  0.2399E+00  0.2399E+00
     21.903  0.3069E-03  0.2671E-03  0.2399E+00  0.2399E+00
     21.919  0.2927E-03  0.2450E-03  0.2399E+00  0.2399E+00
     21.935  0.2748E-03  0.2211E-03  0.2399E+00  0.2399E+00
     21.951  0.2538E-03  0.1961E-03  0.2399E+00  0.2399E+00
     21.967  0.2306E-03  0.1707E-03  0.2399E+00  0.2399E+00
     21.983  0.2061E-03  0.1458E-03  0.2399E+00  0.2399E+00
     21.999  0.1809E-03  0.1219E-03  0.2399E+00  0.2399E+00
     22.015  0.1558E-03  0.9960E-04  0.2399E+00  0.2400E+00
     22.031  0.1316E-03  0.7916E-04  0.2399E+00  0.2400E+00
     22.047  0.1086E-03  0.6090E-04  0.2400E+00  0.2400E+00
     22.062  0.8743E-04  0.4495E-04  0.2400E+00  0.2400E+00
     22.078  0.6831E-04  0.3135E-04  0.2400E+00  0.2400E+00
     22.094  0.5144E-04  0.2005E-04  0.2400E+00  0.2400E+00
     22.110  0.3691E-04  0.1093E-04  0.2400E+00  0.2400E+00
     22.126  0.2469E-04  0.3790E-05  0.2400E+00  0.2400E+00
     22.142  0.1468E-04 -0.1573E-05  0.2400E+00  0.2400E+00
     22.158  0.6742E-05 -0.5401E-05  0.2400E+00  0.2400E+00
     22.174  0.6575E-06 -0.7938E-05  0.2400E+00  0.2400E+00
     22.190 -0.3798E-05 -0.9424E-05  0.2400E+00  0.2400E+00
     22.206 -0.6866E-05 -0.1008E-04  0.2400E+00  0.2400E+00
     22.221 -0.8786E-05 -0.1012E-04  0.2400E+00  0.2400E+00
     22.237 -0.9787E-05 -0.9707E-05  0.2400E+00  0.2400E+00
     22.253 -0.1008E-04 -0.9004E-05  0.2400E+00  0.2400E+00
     22.269 -0.9859E-05 -0.8135E-05  0.2400E+00  0.2400E+00
     22.285 -0.9279E-05 -0.7200E-05  0.2400E+00  0.2400E+00
     22.301 -0.8480E-05 -0.6277E-05  0.2400E+00  0.2400E+00
     22.317 -0.7573E-05 -0.5424E-05  0.2400E+00  0.2400E+00
     22.333 -0.6644E-05 -0.4685E-05  0.2400E+00  0.2400E+00
     22.349 -0.5760E-05 -0.4087E-05  0.2400E+00  0.2400E+00
     22.365 -0.4971E-05 -0.3650E-05  0.2400E+00  0.2400E+00
     22.381 -0.4310E-05 -0.3383E-05  0.2400E+00  0.2400E+00
     22.396 -0.3801E-05 -0.3289E-05  0.2400E+00  0.2400E+00
     22.412 -0.3456E-05 -0.3366E-05  0.2400E+00  0.2400E+00
     22.428 -0.3283E-05 -0.3603E-05  0.2400E+00  0.2400E+00
     22.444 -0.3280E-05 -0.3983E-05  0.2400E+00  0.2400E+00
     22.460 -0.3443E-05 -0.4479E-05  0.2400E+00  0.2400E+00
     22.476 -0.3757E-05 -0.5051E-05  0.2400E+00  0.2400E+00
     22.492 -0.4201E-05 -0.5646E-05  0.2400E+00  0.2400E+00
     22.508 -0.4741E-05 -0.6190E-05  0.2400E+00  0.2400E+00
     22.524 -0.5332E-05 -0.6592E-05  0.2400E+00  0.2400E+00
     22.540 -0.5911E-05 -0.6740E-05  0.2400E+00  0.2400E+00
     22.555 -0.6395E-05 -0.6499E-05  0.2400E+00  0.2400E+00
     22.571 -0.6684E-05 -0.5722E-05  0.2400E+00  0.2400E+00
     22.587 -0.6654E-05 -0.4245E-05  0.2400E+00  0.2400E+00
     22.603 -0.6164E-05 -0.1903E-05  0.2400E+00  0.2400E+00
     22.619 -0.5059E-05  0.1461E-05  0.2400E+00  0.2400E+00
     22.635 -0.3174E-05  0.5986E-05  0.2400E+00  0.2400E+00
     22.651 -0.3460E-06  0.1178E-04  0.2400E+00  0.2400E+00
     22.667  0.3573E-05  0.1888E-04  0.2400E+00  0.2400E+00
     22.683  0.8706E-05  0.2730E-04  0.2400E+00  0.2400E+00
     22.699  0.1513E-04  0.3695E-04  0.2400E+00  0.2400E+00
     22.714  0.2288E-04  0.4765E-04  0.2400E+00  0.2400E+00
     22.730  0.3190E-04  0.5917E-04  0.2400E+00  0.2400E+00
     22.746  0.4208E-04  0.7118E-04  0.2400E+00  0.2400E+00
     22.762  0.5320E-04  0.8329E-04  0.2400E+00  0.2400E+00
     22.778  0.6498E-04  0.9505E-04  0.2400E+00  0.2400E+00
     22.794  0.7707E-04  0.1060E-03  0.2400E+00  0.2400E+00
     22.810  0.8904E-04  0.1157E-03  0.2400E+00  0.2400E+00
     22.826  0.1004E-03  0.1238E-03  0.2400E+00  0.2400E+00
     22.842  0.1108E-03  0.1298E-03  0.2400E+00  0.2400E+00
     22.858  0.1197E-03  0.1335E-03  0.2400E+00  0.2400E+00
     22.873  0.1268E-03  0.1348E-03  0.2400E+00  0.2400E+00
     22.889  0.1317E-03  0.1338E-03  0.2400E+00  0.2400E+00
     22.905  0.1343E-03  0.1304E-03  0.2400E+00  0.2400E+00
     22.921  0.1345E-03  0.1250E-03  0.2400E+00  0.2400E+00
     22.937  0.1323E-03  0.1179E-03  0.2400E+00  0.2400E+00
     22.953  0.1279E-03  0.1095E-03  0.2400E+00  0.2400E+00
     22.969  0.1216E-03  0.1004E-03  0.2400E+00  0.2400E+00
     22.985  0.1138E-03  0.9091E-04  0.2400E+00  0.2400E+00
     23.001  0.1050E-03  0.8161E-04  0.2400E+00  0.2400E+00
     23.017  0.9571E-04  0.7287E-04  0.2400E+00  0.2400E+00
     23.033  0.8629E-04  0.6500E-04  0.2400E+00  0.2400E+00
     23.048  0.7723E-04  0.5821E-04  0.2400E+00  0.2400E+00
     23.064  0.6889E-04  0.5262E-04  0.2400E+00  0.2400E+00
     23.080  0.6153E-04  0.4820E-04  0.2400E+00  0.2400E+00
     23.096  0.5532E-04  0.4488E-04  0.2400E+00  0.2400E+00
     23.112  0.5031E-04  0.4248E-04  0.2400E+00  0.2400E+00
     23.128  0.4645E-04  0.4076E-04  0.2400E+00  0.2400E+00
     23.144  0.4360E-04  0.3950E-04  0.2400E+00  0.2400E+00
     23.160  0.4157E-04  0.3842E-04  0.2400E+00  0.2400E+00
     23.176  0.4011E-04  0.3732E-04  0.2400E+00  0.2400E+00
     23.192  0.3898E-04  0.3601E-04  0.2400E+00  0.2400E+00
     23.207  0.3793E-04  0.3436E-04  0.2400E+00  0.2400E+00
     23.223  0.3676E-04  0.3229E-04  0.2400E+00  0.2400E+00
     23.239  0.3531E-04  0.2981E-04  0.2400E+00  0.2400E+00
     23.255  0.3347E-04  0.2694E-04  0.2400E+00  0.2400E+00
     23.271  0.3121E-04  0.2378E-04  0.2400E+00  0.2400E+00
     23.287  0.2854E-04  0.2042E-04  0.2400E+00  0.2400E+00
     23.303  0.2552E-04  0.1701E-04  0.2400E+00  0.2400E+00
     23.319  0.2226E-04  0.1365E-04  0.2400E+00  0.2400E+00
     23.335  0.1886E-04  0.1048E-04  0.2400E+00  0.2400E+00
     23.351  0.1545E-04  0.7573E-05  0.2400E+00  0.2400E+00
     23.366  0.1216E-04  0.5013E-05  0.2400E+00  0.2400E+00
     23.382  0.9102E-05  0.2838E-05  0.2400E+00  0.2400E+00
     23.398  0.6349E-05  0.1066E-05  0.2400E+00  0.2400E+00
     23.414  0.3962E-05 -0.3134E-06  0.2400E+00  0.2400E+00
     23.430  0.1972E-05 -0.1327E-05  0.2400E+00  0.2400E+00
     23.446  0.3830E-06 -0.2016E-05  0.2400E+00  0.2400E+00
     23.462 -0.8233E-06 -0.2433E-05  0.2400E+00  0.2400E+00
     23.478 -0.1682E-05 -0.2630E-05  0.2400E+00  0.2400E+00
     23.494 -0.2239E-05 -0.2660E-05  0.2400E+00  0.2400E+00
     23.510 -0.2547E-05 -0.2572E-05  0.2400E+00  0.2400E+00
     23.525 -0.2661E-05 -0.2405E-05  0.2400E+00  0.2400E+00
     23.541 -0.2631E-05 -0.2192E-05  0.2400E+00  0.2400E+00
     23.557 -0.2502E-05 -0.1955E-05  0.2400E+00  0.2400E+00
     23.573 -0.2310E-05 -0.1709E-05  0.2400E+00  0.2400E+00
     23.589 -0.2084E-05 -0.1459E-05  0.2400E+00  0.2400E+00
     23.605 -0.1842E-05 -0.1204E-05  0.2400E+00  0.2400E+00
     23.621 -0.1594E-05 -0.9389E-06  0.2400E+00  0.2400E+00
     23.637 -0.1342E-05 -0.6528E-06  0.2400E+00  0.2400E+00
     23.653 -0.1084E-05 -0.3348E-06  0.2400E+00  0.2400E+00
     23.669 -0.8106E-06  0.2669E-07  0.2400E+00  0.2400E+00
     23.685 -0.5116E-06  0.4413E-06  0.2400E+00  0.2400E+00
     23.700 -0.1752E-06  0.9156E-06  0.2400E+00  0.2400E+00
     23.716  0.2093E-06  0.1452E-05  0.2400E+00  0.2400E+00
     23.732  0.6505E-06  0.2047E-05  0.2400E+00  0.2400E+00
     23.748  0.1153E-05  0.2693E-05  0.2400E+00  0.2400E+00
     23.764  0.1717E-05  0.3374E-05  0.2400E+00  0.2400E+00
     23.780  0.2337E-05  0.4071E-05  0.2400E+00  0.2400E+00
     23.796  0.3001E-05  0.4760E-05  0.2400E+00  0.2400E+00
     23.812  0.3692E-05  0.5414E-05  0.2400E+00  0.2400E+00
     23.828  0.4388E-05  0.6004E-05  0.2400E+00  0.2400E+00
     23.844  0.5064E-05  0.6504E-05  0.2400E+00  0.2400E+00
     23.859  0.5693E-05  0.6889E-05  0.2400E+00  0.2400E+00
     23.875  0.6245E-05  0.7141E-05  0.2400E+00  0.2400E+00
     23.891  0.6695E-05  0.7246E-05  0.2400E+00  0.2400E+00
     23.907  0.7021E-05  0.7199E-05  0.2400E+00  0.2400E+00
     23.923  0.7207E-05  0.7002E-05  0.2400E+00  0.2400E+00
     23.939  0.7243E-05  0.6667E-05  0.2400E+00  0.2400E+00
     23.955  0.7127E-05  0.6210E-05  0.2400E+00  0.2400E+00
     23.971  0.6866E-05  0.5653E-05  0.2400E+00  0.2400E+00
     23.987  0.6472E-05  0.5025E-05  0.2400E+00  0.2400E+00
     24.003  0.5966E-05  0.4353E-05  0.2400E+00  0.2400E+00
     24.018  0.5374E-05  0.3665E-05  0.2400E+00  0.2400E+00
     24.034  0.4722E-05  0.2990E-05  0.2400E+00  0.2400E+00
     24.050  0.4039E-05  0.2349E-05  0.2400E+00  0.2400E+00
     24.066  0.3354E-05  0.1761E-05  0.2400E+00  0.2400E+00
     24.082  0.2691E-05  0.1241E-05  0.2400E+00  0.2400E+00
     24.098  0.2073E-05  0.7958E-06  0.2400E+00  0.2400E+00
     24.114  0.1515E-05  0.4292E-06  0.2400E+00  0.2400E+00
     24.130  0.1028E-05  0.1398E-06  0.2400E+00  0.2400E+00
     24.146  0.6187E-06 -0.7740E-07  0.2400E+00  0.2400E+00
     24.162  0.2877E-06 -0.2300E-06  0.2400E+00  0.2400E+00
     24.177  0.3208E-07 -0.3272E-06  0.2400E+00  0.2400E+00
     24.193 -0.1545E-06 -0.3792E-06  0.2400E+00  0.2400E+00
     24.209 -0.2806E-06 -0.3959E-06  0.2400E+00  0.2400E+00
     24.225 -0.3560E-06 -0.3867E-06  0.2400E+00  0.2400E+00
     24.241 -0.3906E-06 -0.3599E-06  0.2400E+00  0.2400E+00
     24.257 -0.3944E-06 -0.3224E-06  0.2400E+00  0.2400E+00
     24.273 -0.3762E-06 -0.2798E-06  0.2400E+00  0.2400E+00
     24.289 -0.3437E-06 -0.2362E-06  0.2400E+00  0.2400E+00
     24.305 -0.3033E-06 -0.1945E-06  0.2400E+00  0.2400E+00
     24.321 -0.2598E-06 -0.1567E-06  0.2400E+00  0.2400E+00
     24.337 -0.2168E-06 -0.1236E-06  0.2400E+00  0.2400E+00
     24.352 -0.1767E-06 -0.9555E-07  0.2400E+00  0.2400E+00
     24.368 -0.1409E-06 -0.7251E-07  0.2400E+00  0.2400E+00
     24.384 -0.1101E-06 -0.5405E-07  0.2400E+00  0.2400E+00
     24.400 -0.8443E-07 -0.3960E-07  0.2400E+00  0.2400E+00
     24.416 -0.6355E-07 -0.2853E-07  0.2400E+00  0.2400E+00
     24.432 -0.4699E-07 -0.2022E-07  0.2400E+00  0.2400E+00
     24.448 -0.3416E-07 -0.1410E-07  0.2400E+00  0.2400E+00
     24.464 -0.2443E-07 -0.9681E-08  0.2400E+00  0.2400E+00
     24.480 -0.1718E-07 -0.6545E-08  0.2400E+00  0.2400E+00
     24.496 -0.1190E-07 -0.4358E-08  0.2400E+00  0.2400E+00
     24.511 -0.8112E-08 -0.2859E-08  0.2400E+00  0.2400E+00
     24.527 -0.5446E-08 -0.1848E-08  0.2400E+00  0.2400E+00
     24.543 -0.3602E-08 -0.1177E-08  0.2400E+00  0.2400E+00
     24.559 -0.2347E-08 -0.7390E-09  0.2400E+00  0.2400E+00
     24.575 -0.1507E-08 -0.4573E-09  0.2400E+00  0.2400E+00
     24.591 -0.9534E-09 -0.2790E-09  0.2400E+00  0.2400E+00
     24.607 -0.5946E-09 -0.1678E-09  0.2400E+00  0.2400E+00
     24.623 -0.3656E-09 -0.9952E-10  0.2400E+00  0.2400E+00
     24.639 -0.2216E-09 -0.5821E-10  0.2400E+00  0.2400E+00
     24.655 -0.1324E-09 -0.3357E-10  0.2400E+00  0.2400E+00
     24.670 -0.7804E-10 -0.1910E-10  0.2400E+00  0.2400E+00
     24.686 -0.4535E-10 -0.1072E-10  0.2400E+00  0.2400E+00
     24.702 -0.2600E-10 -0.5931E-11  0.2400E+00  0.2400E+00
     24.718 -0.1469E-10 -0.3238E-11  0.2400E+00  0.2400E+00
     24.734 -0.8193E-11 -0.1744E-11  0.2400E+00  0.2400E+00
     24.750 -0.4506E-11 -0.9264E-12  0.2400E+00  0.2400E+00
     24.766 -0.2445E-11 -0.4856E-12  0.2400E+00  0.2400E+00
     24.782 -0.1309E-11 -0.2511E-12  0.2400E+00  0.2400E+00
     24.798 -0.6910E-12 -0.1281E-12  0.2400E+00  0.2400E+00
     24.814 -0.3600E-12 -0.6451E-13  0.2400E+00  0.2400E+00
     24.829 -0.1850E-12 -0.3205E-13  0.2400E+00  0.2400E+00
     24.845 -0.9382E-13 -0.1571E-13  0.2400E+00  0.2400E+00
     24.861 -0.4695E-13 -0.7598E-14  0.2400E+00  0.2400E+00
     24.877 -0.2318E-13 -0.3626E-14  0.2400E+00  0.2400E+00
     24.893 -0.1129E-13 -0.1708E-14  0.2400E+00  0.2400E+00
     24.909 -0.5429E-14 -0.7939E-15  0.2400E+00  0.2400E+00
     24.925 -0.2576E-14 -0.3642E-15  0.2400E+00  0.2400E+00
     24.941 -0.1206E-14 -0.1649E-15  0.2400E+00  0.2400E+00
     24.957 -0.5572E-15 -0.7367E-16  0.2400E+00  0.2400E+00
     24.973 -0.2540E-15 -0.3247E-16  0.2400E+00  0.2400E+00
     24.989 -0.1143E-15 -0.1415E-16  0.2400E+00  0.2400E+00
     25.004 -0.5078E-16 -0.6057E-17  0.2400E+00  0.2400E+00
     25.020 -0.2227E-16 -0.2586E-17  0.2400E+00  0.2400E+00
     25.036 -0.9625E-17 -0.1077E-17  0.2400E+00  0.2400E+00
     25.052 -0.4094E-17 -0.4549E-18  0.2400E+00  0.2400E+00
     25.068 -0.1724E-17 -0.1676E-18  0.2400E+00  0.2400E+00
     25.084 -0.7422E-18 -0.7183E-19  0.2400E+00  0.2400E+00
     25.100 -0.2634E-18 -0.2394E-19  0.2400E+00  0.2400E+00
     25.116 -0.1437E-18 -0.2394E-19  0.2400E+00  0.2400E+00
     25.132 -0.4788E-19  0.0000E+00  0.2400E+00  0.2400E+00
     25.148  0.0000E+00  0.0000E+00  0.2400E+00  0.2400E+00
     25.163 -0.2394E-19  0.0000E+00  0.2400E+00  0.2400E+00
     25.179  0.0000E+00  0.0000E+00  0.2400E+00  0.2400E+00
     25.195  0.0000E+00  0.0000E+00  0.2400E+00  0.2400E+00
     25.211  0.0000E+00  0.0000E+00  0.2400E+00  0.2400E+00
     25.227  0.0000E+00  0.0000E+00  0.2400E+00  0.2400E+00
     25.243  0.0000E+00  0.0000E+00  0.2400E+00  0.2400E+00
     25.259  0.0000E+00  0.0000E+00  0.2400E+00  0.2400E+00
     25.275  0.0000E+00  0.0000E+00  0.2400E+00  0.2400E+00
     25.291  0.0000E+00  0.0000E+00  0.2400E+00  0.2400E+00
     25.307  0.0000E+00  0.0000E+00  0.2400E+00  0.2400E+00
     25.322  0.0000E+00  0.0000E+00  0.2400E+00  0.2400E+00
     25.338  0.0000E+00  0.0000E+00  0.2400E+00  0.2400E+00
     25.354  0.0000E+00  0.0000E+00  0.2400E+00  0.2400E+00
     25.370  0.0000E+00  0.0000E+00  0.2400E+00  0.2400E+00
     25.386  0.0000E+00  0.0000E+00  0.2400E+00  0.2400E+00
     25.402  0.0000E+00  0.0000E+00  0.2400E+00  0.2400E+00
     25.418  0.0000E+00  0.0000E+00  0.2400E+00  0.2400E+00
     25.434  0.0000E+00  0.0000E+00  0.2400E+00  0.2400E+00
     25.450  0.0000E+00  0.0000E+00  0.2400E+00  0.2400E+00
     25.466  0.0000E+00  0.0000E+00  0.2400E+00  0.2400E+00
     25.481  0.0000E+00  0.0000E+00  0.2400E+00  0.2400E+00
     25.497  0.0000E+00  0.0000E+00  0.2400E+00  0.2400E+00
     25.513  0.0000E+00  0.0000E+00  0.2400E+00  0.2400E+00
     25.529  0.0000E+00  0.0000E+00  0.2400E+00  0.2400E+00
     25.545  0.0000E+00  0.0000E+00  0.2400E+00  0.2400E+00
     25.561  0.0000E+00  0.0000E+00  0.2400E+00  0.2400E+00
     25.577  0.0000E+00  0.0000E+00  0.2400E+00  0.2400E+00
     25.593  0.0000E+00  0.0000E+00  0.2400E+00  0.2400E+00
     25.609  0.0000E+00  0.0000E+00  0.2400E+00  0.2400E+00
     25.625  0.0000E+00  0.0000E+00  0.2400E+00  0.2400E+00
     25.641  0.0000E+00  0.0000E+00  0.2400E+00  0.2400E+00
     25.656  0.0000E+00  0.0000E+00  0.2400E+00  0.2400E+00
     25.672  0.0000E+00  0.0000E+00  0.2400E+00  0.2400E+00
     25.688  0.0000E+00  0.0000E+00  0.2400E+00  0.2400E+00
     25.704  0.0000E+00  0.0000E+00  0.2400E+00  0.2400E+00
     25.720  0.0000E+00  0.0000E+00  0.2400E+00  0.2400E+00
     25.736  0.0000E+00  0.0000E+00  0.2400E+00  0.2400E+00
     25.752  0.0000E+00  0.0000E+00  0.2400E+00  0.2400E+00
     25.768  0.0000E+00  0.0000E+00  0.2400E+00  0.2400E+00
     25.784  0.0000E+00  0.0000E+00  0.2400E+00  0.2400E+00
     25.800  0.0000E+00  0.0000E+00  0.2400E+00  0.2400E+00
     25.815  0.0000E+00  0.0000E+00  0.2400E+00  0.2400E+00
     25.831  0.0000E+00  0.0000E+00  0.2400E+00  0.2400E+00
     25.847  0.0000E+00  0.0000E+00  0.2400E+00  0.2400E+00
     25.863  0.0000E+00  0.0000E+00  0.2400E+00  0.2400E+00
     25.879  0.0000E+00  0.0000E+00  0.2400E+00  0.2400E+00
     25.895  0.0000E+00  0.0000E+00  0.2400E+00  0.2400E+00
     25.911  0.0000E+00  0.0000E+00  0.2400E+00  0.2400E+00
     25.927  0.0000E+00  0.0000E+00  0.2400E+00  0.2400E+00
