       N       E                     dE             d eps       ncg     rms          rms(c)
DAV:   1     0.157881595794E+03    0.15788E+03   -0.16582E+04 21204   0.195E+03
DAV:   2    -0.217846861394E+02   -0.17967E+03   -0.17341E+03 21180   0.293E+02
DAV:   3    -0.261675991391E+02   -0.43829E+01   -0.43263E+01 28392   0.647E+01
DAV:   4    -0.262073711468E+02   -0.39772E-01   -0.39765E-01 24612   0.490E+00
DAV:   5    -0.262083801723E+02   -0.10090E-02   -0.10090E-02 28872   0.785E-01    0.174E+01
DAV:   6    -0.275809643532E+02   -0.13726E+01   -0.52796E+01 23676   0.118E+02    0.179E+01
DAV:   7    -0.222688005885E+02    0.53122E+01   -0.23336E+01 24228   0.640E+01    0.200E+00
DAV:   8    -0.222242353939E+02    0.44565E-01   -0.23560E-01 22716   0.363E+00    0.115E+00
DAV:   9    -0.222065512592E+02    0.17684E-01   -0.31835E-02 28596   0.218E+00    0.723E-01
DAV:  10    -0.222081418171E+02   -0.15906E-02   -0.23510E-03 27576   0.613E-01    0.383E-01
DAV:  11    -0.222083810282E+02   -0.23921E-03   -0.58340E-03 26364   0.998E-01    0.188E-01
DAV:  12    -0.222088973464E+02   -0.51632E-03   -0.56186E-04 26628   0.325E-01    0.276E-02
DAV:  13    -0.222088928664E+02    0.44800E-05   -0.52901E-05 30576   0.857E-02    0.309E-02
DAV:  14    -0.222088995007E+02   -0.66343E-05   -0.10206E-05 24996   0.399E-02    0.157E-02
DAV:  15    -0.222089008119E+02   -0.13112E-05   -0.16768E-06 12204   0.164E-02    0.302E-03
DAV:  16    -0.222089004610E+02    0.35087E-06   -0.37257E-07 11568   0.600E-03
   1 F= -.22208900E+02 E0= -.22210346E+02  d E =-.222089E+02  mag=     0.7539
