       N       E                     dE             d eps       ncg     rms          rms(c)
DAV:   1     0.158806909448E+03    0.15881E+03   -0.16618E+04 21180   0.197E+03
DAV:   2    -0.217315919560E+02   -0.18054E+03   -0.17441E+03 21156   0.295E+02
DAV:   3    -0.262208706655E+02   -0.44893E+01   -0.44365E+01 28080   0.657E+01
DAV:   4    -0.262610687050E+02   -0.40198E-01   -0.40191E-01 24624   0.495E+00
DAV:   5    -0.262620507883E+02   -0.98208E-03   -0.98207E-03 29100   0.769E-01    0.175E+01
DAV:   6    -0.273555645467E+02   -0.10935E+01   -0.51968E+01 23712   0.118E+02    0.174E+01
DAV:   7    -0.222799031204E+02    0.50757E+01   -0.22607E+01 24312   0.634E+01    0.207E+00
DAV:   8    -0.222291796713E+02    0.50723E-01   -0.22529E-01 22788   0.363E+00    0.115E+00
DAV:   9    -0.222097476402E+02    0.19432E-01   -0.30345E-02 28704   0.217E+00    0.720E-01
DAV:  10    -0.222114167106E+02   -0.16691E-02   -0.21552E-03 27432   0.593E-01    0.446E-01
DAV:  11    -0.222123238645E+02   -0.90715E-03   -0.86585E-03 25824   0.124E+00    0.193E-01
DAV:  12    -0.222130346872E+02   -0.71082E-03   -0.78694E-04 25680   0.392E-01    0.218E-02
DAV:  13    -0.222130335872E+02    0.10999E-05   -0.31644E-05 30612   0.613E-02    0.260E-02
DAV:  14    -0.222130369722E+02   -0.33849E-05   -0.90272E-06 24060   0.396E-02    0.139E-02
DAV:  15    -0.222130380154E+02   -0.10432E-05   -0.11969E-06 11916   0.133E-02    0.334E-03
DAV:  16    -0.222130379754E+02    0.39987E-07   -0.24049E-07 11424   0.490E-03
   1 F= -.22213038E+02 E0= -.22214337E+02  d E =-.222130E+02  mag=     0.7423
