Al8 Ni24                                
   1.00000000000000     
     7.1380901779236217    0.0000000000000000   -0.0000000000000000
     0.0000000000000000    7.1380901779236217    0.0000000000000000
     0.0000000000000000    0.0000000000000000    7.1380901779236217
   Al   Ni
     8    24
Direct
 -0.0000000000000000  0.0000000000000000 -0.0000000000000000
 -0.0000000000000000  0.0000000000000000  0.5000000000000000
 -0.0000000000000000  0.5000000000000000 -0.0000000000000000
 -0.0000000000000000  0.5000000000000000  0.5000000000000000
  0.5000000000000000  0.0000000000000000  0.0000000000000000
  0.5000000000000000 -0.0000000000000000  0.5000000000000000
  0.5000000000000000  0.5000000000000000  0.0000000000000000
  0.5000000000000000  0.5000000000000000  0.5000000000000000
  0.2500000000000000  0.0000000000000000  0.2500000000000000
  0.2500000000000000 -0.0000000000000000  0.7500000000000000
  0.2500000000000000  0.5000000000000000  0.2500000000000000
  0.2500000000000000  0.5000000000000000  0.7500000000000000
  0.7500000000000000 -0.0000000000000000  0.2500000000000000
  0.7500000000000000  0.0000000000000000  0.7500000000000000
  0.7500000000000000  0.5000000000000000  0.2500000000000000
  0.7500000000000000  0.5000000000000000  0.7500000000000000
  0.2500000000000000  0.2500000000000000  0.0000000000000000
  0.2500000000000000  0.2500000000000000  0.5000000000000000
  0.2500000000000000  0.7500000000000000 -0.0000000000000000
  0.2500000000000000  0.7500000000000000  0.5000000000000000
  0.7500000000000000  0.2500000000000000  0.0000000000000000
  0.7500000000000000  0.2500000000000000  0.5000000000000000
  0.7500000000000000  0.7500000000000000  0.0000000000000000
  0.7500000000000000  0.7500000000000000  0.5000000000000000
  0.0000000000000000  0.2500000000000000  0.2500000000000000
  0.0000000000000000  0.2500000000000000  0.7500000000000000
 -0.0000000000000000  0.7500000000000000  0.2500000000000000
  0.0000000000000000  0.7500000000000000  0.7500000000000000
  0.5000000000000000  0.2500000000000000  0.2500000000000000
  0.5000000000000000  0.2500000000000000  0.7500000000000000
  0.5000000000000000  0.7500000000000000  0.2500000000000000
  0.5000000000000000  0.7500000000000000  0.7500000000000000
 
  0.00000000E+00  0.00000000E+00  0.00000000E+00
  0.00000000E+00  0.00000000E+00  0.00000000E+00
  0.00000000E+00  0.00000000E+00  0.00000000E+00
  0.00000000E+00  0.00000000E+00  0.00000000E+00
  0.00000000E+00  0.00000000E+00  0.00000000E+00
  0.00000000E+00  0.00000000E+00  0.00000000E+00
  0.00000000E+00  0.00000000E+00  0.00000000E+00
  0.00000000E+00  0.00000000E+00  0.00000000E+00
  0.00000000E+00  0.00000000E+00  0.00000000E+00
  0.00000000E+00  0.00000000E+00  0.00000000E+00
  0.00000000E+00  0.00000000E+00  0.00000000E+00
  0.00000000E+00  0.00000000E+00  0.00000000E+00
  0.00000000E+00  0.00000000E+00  0.00000000E+00
  0.00000000E+00  0.00000000E+00  0.00000000E+00
  0.00000000E+00  0.00000000E+00  0.00000000E+00
  0.00000000E+00  0.00000000E+00  0.00000000E+00
  0.00000000E+00  0.00000000E+00  0.00000000E+00
  0.00000000E+00  0.00000000E+00  0.00000000E+00
  0.00000000E+00  0.00000000E+00  0.00000000E+00
  0.00000000E+00  0.00000000E+00  0.00000000E+00
  0.00000000E+00  0.00000000E+00  0.00000000E+00
  0.00000000E+00  0.00000000E+00  0.00000000E+00
  0.00000000E+00  0.00000000E+00  0.00000000E+00
  0.00000000E+00  0.00000000E+00  0.00000000E+00
  0.00000000E+00  0.00000000E+00  0.00000000E+00
  0.00000000E+00  0.00000000E+00  0.00000000E+00
  0.00000000E+00  0.00000000E+00  0.00000000E+00
  0.00000000E+00  0.00000000E+00  0.00000000E+00
  0.00000000E+00  0.00000000E+00  0.00000000E+00
  0.00000000E+00  0.00000000E+00  0.00000000E+00
  0.00000000E+00  0.00000000E+00  0.00000000E+00
  0.00000000E+00  0.00000000E+00  0.00000000E+00
