       N       E                     dE             d eps       ncg     rms          rms(c)
DAV:   1     0.231231998491E+04    0.23123E+04   -0.12168E+05 22680   0.240E+03
DAV:   2     0.710320475358E+02   -0.22413E+04   -0.21608E+04 22680   0.498E+02
DAV:   3    -0.198105714912E+03   -0.26914E+03   -0.23357E+03 22686   0.200E+02
DAV:   4    -0.210231389081E+03   -0.12126E+02   -0.11737E+02 25608   0.457E+01
DAV:   5    -0.210513007933E+03   -0.28162E+00   -0.28075E+00 27348   0.590E+00    0.489E+01
DAV:   6    -0.219392790993E+03   -0.88798E+01   -0.56669E+02 25242   0.140E+02    0.488E+01
DAV:   7    -0.177928225238E+03    0.41465E+02   -0.17044E+02 25488   0.773E+01    0.507E+00
DAV:   8    -0.177845134015E+03    0.83091E-01   -0.51283E+00 23760   0.783E+00    0.389E+00
DAV:   9    -0.177639888011E+03    0.20525E+00   -0.49526E-01 27222   0.376E+00    0.141E+00
DAV:  10    -0.177644658145E+03   -0.47701E-02   -0.20351E-02 25284   0.617E-01    0.159E+00
DAV:  11    -0.177614616347E+03    0.30042E-01   -0.27343E-02 28596   0.826E-01    0.107E+00
DAV:  12    -0.177608002816E+03    0.66135E-02   -0.13690E-02 29028   0.618E-01    0.662E-01
DAV:  13    -0.177605521492E+03    0.24813E-02   -0.11332E-02 30054   0.592E-01    0.215E-01
DAV:  14    -0.177609586266E+03   -0.40648E-02   -0.33682E-03 31326   0.340E-01    0.225E-01
DAV:  15    -0.177609299317E+03    0.28695E-03   -0.14963E-03 27762   0.220E-01    0.304E-01
DAV:  16    -0.177608574368E+03    0.72495E-03   -0.63098E-04 28272   0.150E-01    0.224E-01
DAV:  17    -0.177608077577E+03    0.49679E-03   -0.24466E-03 28284   0.286E-01    0.325E-02
DAV:  18    -0.177609016624E+03   -0.93905E-03   -0.38109E-04 32952   0.151E-01    0.146E-01
DAV:  19    -0.177608572975E+03    0.44365E-03   -0.56177E-04 26682   0.128E-01    0.149E-01
DAV:  20    -0.177608340790E+03    0.23219E-03   -0.10234E-03 29076   0.188E-01    0.283E-02
DAV:  21    -0.177608676915E+03   -0.33612E-03   -0.13101E-04 31764   0.932E-02    0.749E-02
DAV:  22    -0.177608494403E+03    0.18251E-03   -0.35144E-04 26532   0.102E-01    0.583E-02
DAV:  23    -0.177608548053E+03   -0.53649E-04   -0.62905E-05 30102   0.587E-02    0.329E-03
DAV:  24    -0.177608568372E+03   -0.20319E-04   -0.13161E-05 29142   0.261E-02    0.212E-02
DAV:  25    -0.177608561712E+03    0.66597E-05   -0.63919E-06 26520   0.136E-02    0.200E-02
DAV:  26    -0.177608560044E+03    0.16684E-05   -0.20745E-06 31092   0.948E-03    0.122E-02
DAV:  27    -0.177608559891E+03    0.15235E-06   -0.18245E-06 29184   0.857E-03    0.444E-03
DAV:  28    -0.177608560697E+03   -0.80566E-06   -0.65201E-07 31404   0.542E-03    0.153E-03
DAV:  29    -0.177608560848E+03   -0.15130E-06   -0.15424E-07 27408   0.244E-03    0.380E-03
DAV:  30    -0.177608560632E+03    0.21676E-06   -0.21041E-07 25872   0.261E-03    0.291E-03
DAV:  31    -0.177608560628E+03    0.31614E-08   -0.81556E-08 22284   0.191E-03
   1 F= -.17760856E+03 E0= -.17757531E+03  d E =-.177609E+03  mag=     0.0015
       N       E                     dE             d eps       ncg     rms          rms(c)
DAV:   1    -0.177621302616E+03   -0.12742E-01   -0.13107E-01 23088   0.208E+00    0.102E+00
DAV:   2    -0.177626300313E+03   -0.49977E-02   -0.20785E-01 24960   0.266E+00    0.102E+00
DAV:   3    -0.177608948749E+03    0.17352E-01   -0.71701E-02 24846   0.163E+00    0.150E-01
DAV:   4    -0.177608643004E+03    0.30575E-03   -0.17496E-03 23532   0.172E-01    0.329E-02
DAV:   5    -0.177608613842E+03    0.29161E-04   -0.60554E-05 25968   0.374E-02    0.133E-02
DAV:   6    -0.177608604174E+03    0.96681E-05   -0.26189E-05 29130   0.194E-02    0.989E-03
DAV:   7    -0.177608602928E+03    0.12456E-05   -0.66740E-06 22986   0.150E-02    0.740E-03
DAV:   8    -0.177608602625E+03    0.30328E-06   -0.97987E-07 26082   0.548E-03    0.710E-03
DAV:   9    -0.177608602691E+03   -0.66255E-07   -0.23318E-07 29658   0.309E-03    0.437E-03
DAV:  10    -0.177608600493E+03    0.21986E-05   -0.33254E-07 24762   0.338E-03    0.259E-03
DAV:  11    -0.177608599958E+03    0.53522E-06   -0.18411E-07 22638   0.218E-03    0.847E-04
DAV:  12    -0.177608600011E+03   -0.53391E-07   -0.22081E-08 14814   0.103E-03    0.410E-04
DAV:  13    -0.177608600036E+03   -0.25593E-07   -0.85857E-09 11886   0.544E-04    0.828E-04
DAV:  14    -0.177608600034E+03    0.26957E-08   -0.29599E-09 11784   0.261E-04
   2 F= -.17760860E+03 E0= -.17757538E+03  d E =-.394054E-04  mag=    -0.0005
       N       E                     dE             d eps       ncg     rms          rms(c)
DAV:   1    -0.177611340916E+03   -0.27409E-02   -0.26784E-02 23106   0.946E-01    0.464E-01
DAV:   2    -0.177612357575E+03   -0.10167E-02   -0.42241E-02 24984   0.121E+00    0.464E-01
DAV:   3    -0.177608760426E+03    0.35971E-02   -0.14819E-02 24948   0.743E-01    0.671E-02
DAV:   4    -0.177608693107E+03    0.67319E-04   -0.36028E-04 23334   0.776E-02    0.162E-02
DAV:   5    -0.177608687850E+03    0.52569E-05   -0.12755E-05 26466   0.172E-02    0.650E-03
DAV:   6    -0.177608690102E+03   -0.22515E-05   -0.53242E-06 29226   0.897E-03    0.469E-03
DAV:   7    -0.177608690675E+03   -0.57374E-06   -0.12245E-06 23040   0.635E-03    0.441E-03
DAV:   8    -0.177608690299E+03    0.37620E-06   -0.37837E-07 26124   0.336E-03    0.409E-03
DAV:   9    -0.177608690227E+03    0.72210E-07   -0.17278E-07 27318   0.246E-03    0.211E-03
DAV:  10    -0.177608691205E+03   -0.97807E-06   -0.26767E-07 21474   0.275E-03    0.594E-04
DAV:  11    -0.177608691545E+03   -0.34025E-06   -0.29894E-08 16176   0.118E-03    0.142E-03
DAV:  12    -0.177608691512E+03    0.32906E-07   -0.27251E-08 15558   0.923E-04    0.126E-03
DAV:  13    -0.177608691480E+03    0.32407E-07   -0.10046E-07 22824   0.174E-03    0.240E-04
DAV:  14    -0.177608691535E+03   -0.54773E-07   -0.46726E-08 18774   0.140E-03    0.122E-03
DAV:  15    -0.177608691498E+03    0.36864E-07   -0.60969E-08 21354   0.146E-03    0.139E-03
DAV:  16    -0.177608691512E+03   -0.13792E-07   -0.57804E-09 11616   0.664E-04    0.978E-04
DAV:  17    -0.177608691519E+03   -0.78435E-08   -0.42991E-09 11586   0.351E-04
   3 F= -.17760869E+03 E0= -.17757546E+03  d E =-.130891E-03  mag=    -0.0023
