   4   4   0   0
  0.1660753E+02  0.4050000E-09  0.4050000E-09  0.4050000E-09  0.5000000E-15
  1.000000000000000E-004
  CAR 
 Al bulk fcc                             
     21.45221133     -5.12753327 2000      8.02817188      1.00000000
     -5.128  0.0000E+00  0.0000E+00
     -5.114  0.0000E+00  0.0000E+00
     -5.101  0.0000E+00  0.0000E+00
     -5.088  0.0000E+00  0.0000E+00
     -5.074  0.0000E+00  0.0000E+00
     -5.061  0.0000E+00  0.0000E+00
     -5.048  0.0000E+00  0.0000E+00
     -5.034  0.0000E+00  0.0000E+00
     -5.021  0.0000E+00  0.0000E+00
     -5.008  0.0000E+00  0.0000E+00
     -4.995  0.0000E+00  0.0000E+00
     -4.981  0.0000E+00  0.0000E+00
     -4.968  0.0000E+00  0.0000E+00
     -4.955  0.0000E+00  0.0000E+00
     -4.941  0.0000E+00  0.0000E+00
     -4.928  0.0000E+00  0.0000E+00
     -4.915  0.0000E+00  0.0000E+00
     -4.901  0.0000E+00  0.0000E+00
     -4.888  0.0000E+00  0.0000E+00
     -4.875  0.0000E+00  0.0000E+00
     -4.862  0.0000E+00  0.0000E+00
     -4.848  0.0000E+00  0.0000E+00
     -4.835  0.0000E+00  0.0000E+00
     -4.822  0.0000E+00  0.0000E+00
     -4.808  0.0000E+00  0.0000E+00
     -4.795  0.0000E+00  0.0000E+00
     -4.782  0.0000E+00  0.0000E+00
     -4.769  0.0000E+00  0.0000E+00
     -4.755  0.0000E+00  0.0000E+00
     -4.742  0.0000E+00  0.0000E+00
     -4.729 -0.6088E-31 -0.8095E-33
     -4.715 -0.1134E-30 -0.2317E-32
     -4.702 -0.5007E-30 -0.8975E-32
     -4.689 -0.1235E-29 -0.2540E-31
     -4.675 -0.3448E-29 -0.7125E-31
     -4.662 -0.1006E-28 -0.2050E-30
     -4.649 -0.2713E-28 -0.5657E-30
     -4.636 -0.7386E-28 -0.1548E-29
     -4.622 -0.1998E-27 -0.4205E-29
     -4.609 -0.5341E-27 -0.1131E-28
     -4.596 -0.1416E-26 -0.3014E-28
     -4.582 -0.3723E-26 -0.7964E-28
     -4.569 -0.9699E-26 -0.2086E-27
     -4.556 -0.2505E-25 -0.5417E-27
     -4.542 -0.6412E-25 -0.1394E-26
     -4.529 -0.1627E-24 -0.3558E-26
     -4.516 -0.4092E-24 -0.8999E-26
     -4.503 -0.1020E-23 -0.2257E-25
     -4.489 -0.2521E-23 -0.5609E-25
     -4.476 -0.6177E-23 -0.1382E-24
     -4.463 -0.1500E-22 -0.3376E-24
     -4.449 -0.3610E-22 -0.8176E-24
     -4.436 -0.8613E-22 -0.1963E-23
     -4.423 -0.2037E-21 -0.4671E-23
     -4.410 -0.4775E-21 -0.1102E-22
     -4.396 -0.1109E-20 -0.2577E-22
     -4.383 -0.2555E-20 -0.5975E-22
     -4.370 -0.5834E-20 -0.1373E-21
     -4.356 -0.1320E-19 -0.3129E-21
     -4.343 -0.2962E-19 -0.7067E-21
     -4.330 -0.6585E-19 -0.1582E-20
     -4.316 -0.1451E-18 -0.3512E-20
     -4.303 -0.3069E-18 -0.7593E-20
     -4.290 -0.6765E-18 -0.1659E-19
     -4.277 -0.1454E-17 -0.3592E-19
     -4.263 -0.3024E-17 -0.7613E-19
     -4.250 -0.6452E-17 -0.1619E-18
     -4.237 -0.1331E-16 -0.3389E-18
     -4.223 -0.2784E-16 -0.7090E-18
     -4.210 -0.5689E-16 -0.1466E-17
     -4.197 -0.1157E-15 -0.3004E-17
     -4.183 -0.2335E-15 -0.6109E-17
     -4.170 -0.4668E-15 -0.1232E-16
     -4.157 -0.9245E-15 -0.2461E-16
     -4.144 -0.1815E-14 -0.4875E-16
     -4.130 -0.3533E-14 -0.9572E-16
     -4.117 -0.6815E-14 -0.1863E-15
     -4.104 -0.1303E-13 -0.3596E-15
     -4.090 -0.2469E-13 -0.6879E-15
     -4.077 -0.4638E-13 -0.1305E-14
     -4.064 -0.8635E-13 -0.2453E-14
     -4.051 -0.1593E-12 -0.4571E-14
     -4.037 -0.2914E-12 -0.8445E-14
     -4.024 -0.5281E-12 -0.1547E-13
     -4.011 -0.9488E-12 -0.2808E-13
     -3.997 -0.1689E-11 -0.5054E-13
     -3.984 -0.2981E-11 -0.9018E-13
     -3.971 -0.5213E-11 -0.1595E-12
     -3.957 -0.9037E-11 -0.2797E-12
     -3.944 -0.1552E-10 -0.4861E-12
     -3.931 -0.2643E-10 -0.8375E-12
     -3.918 -0.4459E-10 -0.1430E-11
     -3.904 -0.7456E-10 -0.2422E-11
     -3.891 -0.1236E-09 -0.4065E-11
     -3.878 -0.2029E-09 -0.6762E-11
     -3.864 -0.3302E-09 -0.1115E-10
     -3.851 -0.5325E-09 -0.1823E-10
     -3.838 -0.8510E-09 -0.2955E-10
     -3.824 -0.1348E-08 -0.4747E-10
     -3.811 -0.2115E-08 -0.7559E-10
     -3.798 -0.3288E-08 -0.1193E-09
     -3.785 -0.5067E-08 -0.1867E-09
     -3.771 -0.7735E-08 -0.2895E-09
     -3.758 -0.1170E-07 -0.4451E-09
     -3.745 -0.1754E-07 -0.6783E-09
     -3.731 -0.2604E-07 -0.1024E-08
     -3.718 -0.3831E-07 -0.1534E-08
     -3.705 -0.5583E-07 -0.2276E-08
     -3.692 -0.8060E-07 -0.3348E-08
     -3.678 -0.1153E-06 -0.4881E-08
     -3.665 -0.1633E-06 -0.7052E-08
     -3.652 -0.2292E-06 -0.1010E-07
     -3.638 -0.3186E-06 -0.1434E-07
     -3.625 -0.4385E-06 -0.2017E-07
     -3.612 -0.5978E-06 -0.2812E-07
     -3.598 -0.8070E-06 -0.3885E-07
     -3.585 -0.1079E-05 -0.5319E-07
     -3.572 -0.1428E-05 -0.7217E-07
     -3.559 -0.1870E-05 -0.9704E-07
     -3.545 -0.2425E-05 -0.1293E-06
     -3.532 -0.3112E-05 -0.1707E-06
     -3.519 -0.3952E-05 -0.2232E-06
     -3.505 -0.4965E-05 -0.2892E-06
     -3.492 -0.6170E-05 -0.3713E-06
     -3.479 -0.7580E-05 -0.4721E-06
     -3.465 -0.9207E-05 -0.5945E-06
     -3.452 -0.1105E-04 -0.7414E-06
     -3.439 -0.1310E-04 -0.9155E-06
     -3.426 -0.1532E-04 -0.1119E-05
     -3.412 -0.1768E-04 -0.1354E-05
     -3.399 -0.2010E-04 -0.1622E-05
     -3.386 -0.2250E-04 -0.1921E-05
     -3.372 -0.2475E-04 -0.2250E-05
     -3.359 -0.2670E-04 -0.2605E-05
     -3.346 -0.2815E-04 -0.2979E-05
     -3.333 -0.2891E-04 -0.3364E-05
     -3.319 -0.2871E-04 -0.3745E-05
     -3.306 -0.2728E-04 -0.4108E-05
     -3.293 -0.2432E-04 -0.4431E-05
     -3.279 -0.1953E-04 -0.4691E-05
     -3.266 -0.1257E-04 -0.4858E-05
     -3.253 -0.3142E-05 -0.4900E-05
     -3.239  0.9061E-05 -0.4779E-05
     -3.226  0.2431E-04 -0.4456E-05
     -3.213  0.4284E-04 -0.3887E-05
     -3.200  0.6482E-04 -0.3025E-05
     -3.186  0.9038E-04 -0.1823E-05
     -3.173  0.1196E-03 -0.2332E-06
     -3.160  0.1523E-03  0.1792E-05
     -3.146  0.1886E-03  0.4300E-05
     -3.133  0.2281E-03  0.7333E-05
     -3.120  0.2707E-03  0.1093E-04
     -3.106  0.3160E-03  0.1513E-04
     -3.093  0.3636E-03  0.1997E-04
     -3.080  0.4130E-03  0.2546E-04
     -3.067  0.4639E-03  0.3163E-04
     -3.053  0.5157E-03  0.3849E-04
     -3.040  0.5680E-03  0.4604E-04
     -3.027  0.6203E-03  0.5429E-04
     -3.013  0.6723E-03  0.6322E-04
     -3.000  0.7235E-03  0.7284E-04
     -2.987  0.7737E-03  0.8313E-04
     -2.973  0.8227E-03  0.9407E-04
     -2.960  0.8702E-03  0.1056E-03
     -2.947  0.9162E-03  0.1178E-03
     -2.934  0.9605E-03  0.1306E-03
     -2.920  0.1003E-02  0.1439E-03
     -2.907  0.1044E-02  0.1578E-03
     -2.894  0.1084E-02  0.1722E-03
     -2.880  0.1121E-02  0.1871E-03
     -2.867  0.1158E-02  0.2025E-03
     -2.854  0.1192E-02  0.2184E-03
     -2.841  0.1225E-02  0.2347E-03
     -2.827  0.1257E-02  0.2514E-03
     -2.814  0.1286E-02  0.2685E-03
     -2.801  0.1315E-02  0.2860E-03
     -2.787  0.1342E-02  0.3038E-03
     -2.774  0.1367E-02  0.3220E-03
     -2.761  0.1391E-02  0.3405E-03
     -2.747  0.1414E-02  0.3593E-03
     -2.734  0.1436E-02  0.3784E-03
     -2.721  0.1457E-02  0.3977E-03
     -2.708  0.1478E-02  0.4174E-03
     -2.694  0.1498E-02  0.4373E-03
     -2.681  0.1519E-02  0.4575E-03
     -2.668  0.1540E-02  0.4780E-03
     -2.654  0.1563E-02  0.4988E-03
     -2.641  0.1586E-02  0.5198E-03
     -2.628  0.1610E-02  0.5412E-03
     -2.614  0.1635E-02  0.5630E-03
     -2.601  0.1662E-02  0.5851E-03
     -2.588  0.1689E-02  0.6075E-03
     -2.575  0.1717E-02  0.6304E-03
     -2.561  0.1745E-02  0.6536E-03
     -2.548  0.1772E-02  0.6771E-03
     -2.535  0.1798E-02  0.7010E-03
     -2.521  0.1823E-02  0.7253E-03
     -2.508  0.1845E-02  0.7498E-03
     -2.495  0.1865E-02  0.7746E-03
     -2.482  0.1882E-02  0.7996E-03
     -2.468  0.1896E-02  0.8248E-03
     -2.455  0.1908E-02  0.8502E-03
     -2.442  0.1917E-02  0.8757E-03
     -2.428  0.1924E-02  0.9013E-03
     -2.415  0.1930E-02  0.9269E-03
     -2.402  0.1935E-02  0.9527E-03
     -2.388  0.1941E-02  0.9785E-03
     -2.375  0.1948E-02  0.1004E-02
     -2.362  0.1958E-02  0.1030E-02
     -2.349  0.1970E-02  0.1057E-02
     -2.335  0.1986E-02  0.1083E-02
     -2.322  0.2006E-02  0.1110E-02
     -2.309  0.2029E-02  0.1137E-02
     -2.295  0.2057E-02  0.1164E-02
     -2.282  0.2088E-02  0.1192E-02
     -2.269  0.2121E-02  0.1220E-02
     -2.255  0.2157E-02  0.1249E-02
     -2.242  0.2193E-02  0.1278E-02
     -2.229  0.2228E-02  0.1307E-02
     -2.216  0.2262E-02  0.1338E-02
     -2.202  0.2293E-02  0.1368E-02
     -2.189  0.2320E-02  0.1399E-02
     -2.176  0.2343E-02  0.1430E-02
     -2.162  0.2361E-02  0.1461E-02
     -2.149  0.2374E-02  0.1493E-02
     -2.136  0.2382E-02  0.1525E-02
     -2.123  0.2386E-02  0.1556E-02
     -2.109  0.2386E-02  0.1588E-02
     -2.096  0.2383E-02  0.1620E-02
     -2.083  0.2378E-02  0.1651E-02
     -2.069  0.2373E-02  0.1683E-02
     -2.056  0.2367E-02  0.1714E-02
     -2.043  0.2363E-02  0.1746E-02
     -2.029  0.2361E-02  0.1777E-02
     -2.016  0.2362E-02  0.1809E-02
     -2.003  0.2366E-02  0.1840E-02
     -1.990  0.2373E-02  0.1872E-02
     -1.976  0.2385E-02  0.1903E-02
     -1.963  0.2400E-02  0.1935E-02
     -1.950  0.2418E-02  0.1967E-02
     -1.936  0.2439E-02  0.2000E-02
     -1.923  0.2462E-02  0.2033E-02
     -1.910  0.2488E-02  0.2066E-02
     -1.896  0.2515E-02  0.2099E-02
     -1.883  0.2543E-02  0.2133E-02
     -1.870  0.2572E-02  0.2167E-02
     -1.857  0.2602E-02  0.2202E-02
     -1.843  0.2632E-02  0.2237E-02
     -1.830  0.2663E-02  0.2272E-02
     -1.817  0.2694E-02  0.2308E-02
     -1.803  0.2724E-02  0.2344E-02
     -1.790  0.2755E-02  0.2381E-02
     -1.777  0.2785E-02  0.2418E-02
     -1.764  0.2814E-02  0.2455E-02
     -1.750  0.2841E-02  0.2493E-02
     -1.737  0.2867E-02  0.2531E-02
     -1.724  0.2889E-02  0.2570E-02
     -1.710  0.2908E-02  0.2608E-02
     -1.697  0.2922E-02  0.2647E-02
     -1.684  0.2932E-02  0.2686E-02
     -1.670  0.2935E-02  0.2725E-02
     -1.657  0.2933E-02  0.2764E-02
     -1.644  0.2924E-02  0.2803E-02
     -1.631  0.2910E-02  0.2842E-02
     -1.617  0.2891E-02  0.2880E-02
     -1.604  0.2867E-02  0.2918E-02
     -1.591  0.2840E-02  0.2956E-02
     -1.577  0.2811E-02  0.2993E-02
     -1.564  0.2783E-02  0.3030E-02
     -1.551  0.2756E-02  0.3067E-02
     -1.537  0.2734E-02  0.3103E-02
     -1.524  0.2716E-02  0.3140E-02
     -1.511  0.2707E-02  0.3176E-02
     -1.498  0.2706E-02  0.3211E-02
     -1.484  0.2715E-02  0.3248E-02
     -1.471  0.2735E-02  0.3284E-02
     -1.458  0.2765E-02  0.3321E-02
     -1.444  0.2806E-02  0.3358E-02
     -1.431  0.2857E-02  0.3396E-02
     -1.418  0.2915E-02  0.3435E-02
     -1.405  0.2981E-02  0.3474E-02
     -1.391  0.3051E-02  0.3515E-02
     -1.378  0.3123E-02  0.3556E-02
     -1.365  0.3194E-02  0.3599E-02
     -1.351  0.3263E-02  0.3642E-02
     -1.338  0.3327E-02  0.3687E-02
     -1.325  0.3384E-02  0.3732E-02
     -1.311  0.3431E-02  0.3777E-02
     -1.298  0.3468E-02  0.3823E-02
     -1.285  0.3494E-02  0.3870E-02
     -1.272  0.3507E-02  0.3916E-02
     -1.258  0.3509E-02  0.3963E-02
     -1.245  0.3500E-02  0.4010E-02
     -1.232  0.3480E-02  0.4056E-02
     -1.218  0.3451E-02  0.4102E-02
     -1.205  0.3416E-02  0.4147E-02
     -1.192  0.3374E-02  0.4192E-02
     -1.178  0.3330E-02  0.4236E-02
     -1.165  0.3284E-02  0.4280E-02
     -1.152  0.3240E-02  0.4323E-02
     -1.139  0.3197E-02  0.4366E-02
     -1.125  0.3159E-02  0.4408E-02
     -1.112  0.3126E-02  0.4449E-02
     -1.099  0.3100E-02  0.4490E-02
     -1.085  0.3082E-02  0.4531E-02
     -1.072  0.3071E-02  0.4572E-02
     -1.059  0.3068E-02  0.4613E-02
     -1.046  0.3074E-02  0.4654E-02
     -1.032  0.3088E-02  0.4695E-02
     -1.019  0.3109E-02  0.4736E-02
     -1.006  0.3137E-02  0.4778E-02
     -0.992  0.3171E-02  0.4820E-02
     -0.979  0.3211E-02  0.4863E-02
     -0.966  0.3257E-02  0.4906E-02
     -0.952  0.3306E-02  0.4950E-02
     -0.939  0.3358E-02  0.4995E-02
     -0.926  0.3412E-02  0.5040E-02
     -0.913  0.3468E-02  0.5086E-02
     -0.899  0.3523E-02  0.5133E-02
     -0.886  0.3577E-02  0.5181E-02
     -0.873  0.3628E-02  0.5229E-02
     -0.859  0.3675E-02  0.5278E-02
     -0.846  0.3717E-02  0.5327E-02
     -0.833  0.3753E-02  0.5377E-02
     -0.819  0.3782E-02  0.5427E-02
     -0.806  0.3803E-02  0.5478E-02
     -0.793  0.3817E-02  0.5529E-02
     -0.780  0.3823E-02  0.5579E-02
     -0.766  0.3822E-02  0.5630E-02
     -0.753  0.3814E-02  0.5681E-02
     -0.740  0.3800E-02  0.5732E-02
     -0.726  0.3783E-02  0.5782E-02
     -0.713  0.3764E-02  0.5832E-02
     -0.700  0.3744E-02  0.5882E-02
     -0.686  0.3725E-02  0.5931E-02
     -0.673  0.3709E-02  0.5981E-02
     -0.660  0.3697E-02  0.6030E-02
     -0.647  0.3691E-02  0.6079E-02
     -0.633  0.3690E-02  0.6128E-02
     -0.620  0.3695E-02  0.6177E-02
     -0.607  0.3705E-02  0.6226E-02
     -0.593  0.3720E-02  0.6276E-02
     -0.580  0.3738E-02  0.6325E-02
     -0.567  0.3758E-02  0.6375E-02
     -0.554  0.3778E-02  0.6426E-02
     -0.540  0.3796E-02  0.6476E-02
     -0.527  0.3810E-02  0.6527E-02
     -0.514  0.3820E-02  0.6577E-02
     -0.500  0.3823E-02  0.6628E-02
     -0.487  0.3820E-02  0.6679E-02
     -0.474  0.3811E-02  0.6730E-02
     -0.460  0.3795E-02  0.6780E-02
     -0.447  0.3774E-02  0.6830E-02
     -0.434  0.3748E-02  0.6880E-02
     -0.421  0.3721E-02  0.6930E-02
     -0.407  0.3693E-02  0.6979E-02
     -0.394  0.3667E-02  0.7028E-02
     -0.381  0.3645E-02  0.7076E-02
     -0.367  0.3628E-02  0.7124E-02
     -0.354  0.3618E-02  0.7172E-02
     -0.341  0.3616E-02  0.7220E-02
     -0.327  0.3624E-02  0.7269E-02
     -0.314  0.3641E-02  0.7317E-02
     -0.301  0.3667E-02  0.7366E-02
     -0.288  0.3702E-02  0.7415E-02
     -0.274  0.3746E-02  0.7465E-02
     -0.261  0.3796E-02  0.7515E-02
     -0.248  0.3853E-02  0.7567E-02
     -0.234  0.3914E-02  0.7619E-02
     -0.221  0.3980E-02  0.7672E-02
     -0.208  0.4048E-02  0.7725E-02
     -0.195  0.4118E-02  0.7780E-02
     -0.181  0.4188E-02  0.7836E-02
     -0.168  0.4258E-02  0.7892E-02
     -0.155  0.4326E-02  0.7950E-02
     -0.141  0.4392E-02  0.8008E-02
     -0.128  0.4455E-02  0.8068E-02
     -0.115  0.4513E-02  0.8128E-02
     -0.101  0.4565E-02  0.8188E-02
     -0.088  0.4610E-02  0.8250E-02
     -0.075  0.4646E-02  0.8311E-02
     -0.062  0.4672E-02  0.8373E-02
     -0.048  0.4686E-02  0.8436E-02
     -0.035  0.4687E-02  0.8498E-02
     -0.022  0.4673E-02  0.8560E-02
     -0.008  0.4644E-02  0.8622E-02
      0.005  0.4600E-02  0.8683E-02
      0.018  0.4541E-02  0.8744E-02
      0.032  0.4469E-02  0.8803E-02
      0.045  0.4384E-02  0.8861E-02
      0.058  0.4289E-02  0.8918E-02
      0.071  0.4187E-02  0.8974E-02
      0.085  0.4082E-02  0.9028E-02
      0.098  0.3976E-02  0.9081E-02
      0.111  0.3876E-02  0.9133E-02
      0.125  0.3783E-02  0.9183E-02
      0.138  0.3702E-02  0.9232E-02
      0.151  0.3637E-02  0.9281E-02
      0.164  0.3590E-02  0.9328E-02
      0.178  0.3564E-02  0.9376E-02
      0.191  0.3560E-02  0.9423E-02
      0.204  0.3577E-02  0.9471E-02
      0.218  0.3617E-02  0.9519E-02
      0.231  0.3677E-02  0.9568E-02
      0.244  0.3755E-02  0.9617E-02
      0.258  0.3849E-02  0.9669E-02
      0.271  0.3955E-02  0.9721E-02
      0.284  0.4069E-02  0.9775E-02
      0.297  0.4187E-02  0.9831E-02
      0.311  0.4305E-02  0.9888E-02
      0.324  0.4420E-02  0.9947E-02
      0.337  0.4529E-02  0.1001E-01
      0.351  0.4628E-02  0.1007E-01
      0.364  0.4715E-02  0.1013E-01
      0.377  0.4788E-02  0.1020E-01
      0.391  0.4848E-02  0.1026E-01
      0.404  0.4893E-02  0.1032E-01
      0.417  0.4925E-02  0.1039E-01
      0.430  0.4944E-02  0.1046E-01
      0.444  0.4952E-02  0.1052E-01
      0.457  0.4951E-02  0.1059E-01
      0.470  0.4941E-02  0.1065E-01
      0.484  0.4926E-02  0.1072E-01
      0.497  0.4906E-02  0.1078E-01
      0.510  0.4883E-02  0.1085E-01
      0.523  0.4858E-02  0.1091E-01
      0.537  0.4832E-02  0.1098E-01
      0.550  0.4806E-02  0.1104E-01
      0.563  0.4780E-02  0.1111E-01
      0.577  0.4753E-02  0.1117E-01
      0.590  0.4726E-02  0.1123E-01
      0.603  0.4698E-02  0.1129E-01
      0.617  0.4670E-02  0.1136E-01
      0.630  0.4641E-02  0.1142E-01
      0.643  0.4612E-02  0.1148E-01
      0.656  0.4583E-02  0.1154E-01
      0.670  0.4555E-02  0.1160E-01
      0.683  0.4529E-02  0.1166E-01
      0.696  0.4505E-02  0.1172E-01
      0.710  0.4484E-02  0.1178E-01
      0.723  0.4469E-02  0.1184E-01
      0.736  0.4459E-02  0.1190E-01
      0.750  0.4456E-02  0.1196E-01
      0.763  0.4459E-02  0.1202E-01
      0.776  0.4470E-02  0.1208E-01
      0.789  0.4488E-02  0.1214E-01
      0.803  0.4511E-02  0.1220E-01
      0.816  0.4540E-02  0.1226E-01
      0.829  0.4573E-02  0.1232E-01
      0.843  0.4608E-02  0.1238E-01
      0.856  0.4643E-02  0.1244E-01
      0.869  0.4676E-02  0.1250E-01
      0.882  0.4706E-02  0.1257E-01
      0.896  0.4732E-02  0.1263E-01
      0.909  0.4752E-02  0.1269E-01
      0.922  0.4765E-02  0.1275E-01
      0.936  0.4772E-02  0.1282E-01
      0.949  0.4772E-02  0.1288E-01
      0.962  0.4767E-02  0.1295E-01
      0.976  0.4757E-02  0.1301E-01
      0.989  0.4745E-02  0.1307E-01
      1.002  0.4731E-02  0.1313E-01
      1.015  0.4718E-02  0.1320E-01
      1.029  0.4708E-02  0.1326E-01
      1.042  0.4702E-02  0.1332E-01
      1.055  0.4701E-02  0.1338E-01
      1.069  0.4707E-02  0.1345E-01
      1.082  0.4719E-02  0.1351E-01
      1.095  0.4739E-02  0.1357E-01
      1.109  0.4766E-02  0.1364E-01
      1.122  0.4798E-02  0.1370E-01
      1.135  0.4835E-02  0.1376E-01
      1.148  0.4876E-02  0.1383E-01
      1.162  0.4920E-02  0.1389E-01
      1.175  0.4964E-02  0.1396E-01
      1.188  0.5007E-02  0.1403E-01
      1.202  0.5049E-02  0.1409E-01
      1.215  0.5088E-02  0.1416E-01
      1.228  0.5124E-02  0.1423E-01
      1.242  0.5156E-02  0.1430E-01
      1.255  0.5185E-02  0.1437E-01
      1.268  0.5210E-02  0.1444E-01
      1.281  0.5231E-02  0.1451E-01
      1.295  0.5251E-02  0.1458E-01
      1.308  0.5268E-02  0.1465E-01
      1.321  0.5284E-02  0.1472E-01
      1.335  0.5298E-02  0.1479E-01
      1.348  0.5313E-02  0.1486E-01
      1.361  0.5327E-02  0.1493E-01
      1.374  0.5340E-02  0.1500E-01
      1.388  0.5353E-02  0.1507E-01
      1.401  0.5366E-02  0.1514E-01
      1.414  0.5377E-02  0.1521E-01
      1.428  0.5386E-02  0.1529E-01
      1.441  0.5394E-02  0.1536E-01
      1.454  0.5398E-02  0.1543E-01
      1.468  0.5400E-02  0.1550E-01
      1.481  0.5398E-02  0.1557E-01
      1.494  0.5393E-02  0.1564E-01
      1.507  0.5384E-02  0.1572E-01
      1.521  0.5371E-02  0.1579E-01
      1.534  0.5354E-02  0.1586E-01
      1.547  0.5333E-02  0.1593E-01
      1.561  0.5308E-02  0.1600E-01
      1.574  0.5279E-02  0.1607E-01
      1.587  0.5247E-02  0.1614E-01
      1.601  0.5209E-02  0.1621E-01
      1.614  0.5168E-02  0.1628E-01
      1.627  0.5122E-02  0.1635E-01
      1.640  0.5072E-02  0.1641E-01
      1.654  0.5017E-02  0.1648E-01
      1.667  0.4960E-02  0.1655E-01
      1.680  0.4899E-02  0.1661E-01
      1.694  0.4836E-02  0.1668E-01
      1.707  0.4774E-02  0.1674E-01
      1.720  0.4713E-02  0.1680E-01
      1.733  0.4656E-02  0.1686E-01
      1.747  0.4606E-02  0.1692E-01
      1.760  0.4566E-02  0.1699E-01
      1.773  0.4537E-02  0.1705E-01
      1.787  0.4523E-02  0.1711E-01
      1.800  0.4527E-02  0.1717E-01
      1.813  0.4549E-02  0.1723E-01
      1.827  0.4591E-02  0.1729E-01
      1.840  0.4653E-02  0.1735E-01
      1.853  0.4736E-02  0.1741E-01
      1.866  0.4837E-02  0.1748E-01
      1.880  0.4956E-02  0.1754E-01
      1.893  0.5088E-02  0.1761E-01
      1.906  0.5232E-02  0.1768E-01
      1.920  0.5382E-02  0.1775E-01
      1.933  0.5536E-02  0.1782E-01
      1.946  0.5688E-02  0.1790E-01
      1.960  0.5836E-02  0.1798E-01
      1.973  0.5975E-02  0.1806E-01
      1.986  0.6102E-02  0.1814E-01
      1.999  0.6214E-02  0.1822E-01
      2.013  0.6309E-02  0.1831E-01
      2.026  0.6387E-02  0.1839E-01
      2.039  0.6445E-02  0.1848E-01
      2.053  0.6484E-02  0.1856E-01
      2.066  0.6504E-02  0.1865E-01
      2.079  0.6506E-02  0.1874E-01
      2.092  0.6489E-02  0.1882E-01
      2.106  0.6456E-02  0.1891E-01
      2.119  0.6408E-02  0.1899E-01
      2.132  0.6345E-02  0.1908E-01
      2.146  0.6269E-02  0.1916E-01
      2.159  0.6182E-02  0.1924E-01
      2.172  0.6085E-02  0.1932E-01
      2.186  0.5979E-02  0.1940E-01
      2.199  0.5866E-02  0.1948E-01
      2.212  0.5749E-02  0.1956E-01
      2.225  0.5630E-02  0.1963E-01
      2.239  0.5511E-02  0.1971E-01
      2.252  0.5395E-02  0.1978E-01
      2.265  0.5285E-02  0.1985E-01
      2.279  0.5184E-02  0.1992E-01
      2.292  0.5094E-02  0.1998E-01
      2.305  0.5019E-02  0.2005E-01
      2.319  0.4960E-02  0.2012E-01
      2.332  0.4919E-02  0.2018E-01
      2.345  0.4897E-02  0.2025E-01
      2.358  0.4896E-02  0.2031E-01
      2.372  0.4914E-02  0.2038E-01
      2.385  0.4949E-02  0.2044E-01
      2.398  0.5001E-02  0.2051E-01
      2.412  0.5067E-02  0.2058E-01
      2.425  0.5142E-02  0.2065E-01
      2.438  0.5224E-02  0.2072E-01
      2.451  0.5310E-02  0.2079E-01
      2.465  0.5394E-02  0.2086E-01
      2.478  0.5475E-02  0.2093E-01
      2.491  0.5549E-02  0.2100E-01
      2.505  0.5614E-02  0.2108E-01
      2.518  0.5668E-02  0.2115E-01
      2.531  0.5711E-02  0.2123E-01
      2.545  0.5743E-02  0.2131E-01
      2.558  0.5766E-02  0.2138E-01
      2.571  0.5780E-02  0.2146E-01
      2.584  0.5789E-02  0.2154E-01
      2.598  0.5795E-02  0.2161E-01
      2.611  0.5801E-02  0.2169E-01
      2.624  0.5810E-02  0.2177E-01
      2.638  0.5824E-02  0.2185E-01
      2.651  0.5846E-02  0.2192E-01
      2.664  0.5876E-02  0.2200E-01
      2.678  0.5916E-02  0.2208E-01
      2.691  0.5965E-02  0.2216E-01
      2.704  0.6022E-02  0.2224E-01
      2.717  0.6085E-02  0.2232E-01
      2.731  0.6151E-02  0.2240E-01
      2.744  0.6218E-02  0.2249E-01
      2.757  0.6280E-02  0.2257E-01
      2.771  0.6336E-02  0.2265E-01
      2.784  0.6380E-02  0.2274E-01
      2.797  0.6411E-02  0.2282E-01
      2.810  0.6425E-02  0.2291E-01
      2.824  0.6421E-02  0.2299E-01
      2.837  0.6399E-02  0.2308E-01
      2.850  0.6359E-02  0.2316E-01
      2.864  0.6301E-02  0.2325E-01
      2.877  0.6230E-02  0.2333E-01
      2.890  0.6148E-02  0.2341E-01
      2.904  0.6059E-02  0.2349E-01
      2.917  0.5969E-02  0.2357E-01
      2.930  0.5880E-02  0.2365E-01
      2.943  0.5799E-02  0.2373E-01
      2.957  0.5730E-02  0.2380E-01
      2.970  0.5675E-02  0.2388E-01
      2.983  0.5639E-02  0.2395E-01
      2.997  0.5623E-02  0.2403E-01
      3.010  0.5627E-02  0.2410E-01
      3.023  0.5653E-02  0.2418E-01
      3.037  0.5700E-02  0.2425E-01
      3.050  0.5764E-02  0.2433E-01
      3.063  0.5845E-02  0.2441E-01
      3.076  0.5938E-02  0.2449E-01
      3.090  0.6041E-02  0.2457E-01
      3.103  0.6149E-02  0.2465E-01
      3.116  0.6260E-02  0.2473E-01
      3.130  0.6370E-02  0.2482E-01
      3.143  0.6475E-02  0.2490E-01
      3.156  0.6572E-02  0.2499E-01
      3.169  0.6659E-02  0.2508E-01
      3.183  0.6733E-02  0.2517E-01
      3.196  0.6792E-02  0.2526E-01
      3.209  0.6834E-02  0.2535E-01
      3.223  0.6859E-02  0.2544E-01
      3.236  0.6864E-02  0.2553E-01
      3.249  0.6850E-02  0.2562E-01
      3.263  0.6817E-02  0.2571E-01
      3.276  0.6764E-02  0.2580E-01
      3.289  0.6693E-02  0.2589E-01
      3.302  0.6604E-02  0.2598E-01
      3.316  0.6501E-02  0.2607E-01
      3.329  0.6385E-02  0.2615E-01
      3.342  0.6261E-02  0.2624E-01
      3.356  0.6131E-02  0.2632E-01
      3.369  0.6001E-02  0.2640E-01
      3.382  0.5874E-02  0.2648E-01
      3.396  0.5756E-02  0.2655E-01
      3.409  0.5651E-02  0.2663E-01
      3.422  0.5563E-02  0.2670E-01
      3.435  0.5496E-02  0.2677E-01
      3.449  0.5453E-02  0.2685E-01
      3.462  0.5434E-02  0.2692E-01
      3.475  0.5442E-02  0.2699E-01
      3.489  0.5476E-02  0.2706E-01
      3.502  0.5532E-02  0.2714E-01
      3.515  0.5610E-02  0.2721E-01
      3.529  0.5704E-02  0.2729E-01
      3.542  0.5811E-02  0.2736E-01
      3.555  0.5925E-02  0.2744E-01
      3.568  0.6040E-02  0.2752E-01
      3.582  0.6152E-02  0.2761E-01
      3.595  0.6256E-02  0.2769E-01
      3.608  0.6348E-02  0.2777E-01
      3.622  0.6426E-02  0.2786E-01
      3.635  0.6487E-02  0.2795E-01
      3.648  0.6531E-02  0.2803E-01
      3.661  0.6559E-02  0.2812E-01
      3.675  0.6573E-02  0.2821E-01
      3.688  0.6575E-02  0.2829E-01
      3.701  0.6569E-02  0.2838E-01
      3.715  0.6557E-02  0.2847E-01
      3.728  0.6545E-02  0.2856E-01
      3.741  0.6534E-02  0.2864E-01
      3.755  0.6529E-02  0.2873E-01
      3.768  0.6532E-02  0.2882E-01
      3.781  0.6544E-02  0.2890E-01
      3.794  0.6565E-02  0.2899E-01
      3.808  0.6596E-02  0.2908E-01
      3.821  0.6635E-02  0.2917E-01
      3.834  0.6682E-02  0.2926E-01
      3.848  0.6733E-02  0.2934E-01
      3.861  0.6787E-02  0.2943E-01
      3.874  0.6842E-02  0.2953E-01
      3.888  0.6896E-02  0.2962E-01
      3.901  0.6946E-02  0.2971E-01
      3.914  0.6992E-02  0.2980E-01
      3.927  0.7033E-02  0.2990E-01
      3.941  0.7068E-02  0.2999E-01
      3.954  0.7097E-02  0.3008E-01
      3.967  0.7121E-02  0.3018E-01
      3.981  0.7141E-02  0.3027E-01
      3.994  0.7156E-02  0.3037E-01
      4.007  0.7166E-02  0.3046E-01
      4.020  0.7173E-02  0.3056E-01
      4.034  0.7175E-02  0.3066E-01
      4.047  0.7171E-02  0.3075E-01
      4.060  0.7162E-02  0.3085E-01
      4.074  0.7145E-02  0.3094E-01
      4.087  0.7119E-02  0.3104E-01
      4.100  0.7082E-02  0.3113E-01
      4.114  0.7033E-02  0.3122E-01
      4.127  0.6971E-02  0.3132E-01
      4.140  0.6894E-02  0.3141E-01
      4.153  0.6803E-02  0.3150E-01
      4.167  0.6699E-02  0.3159E-01
      4.180  0.6582E-02  0.3167E-01
      4.193  0.6456E-02  0.3176E-01
      4.207  0.6323E-02  0.3184E-01
      4.220  0.6186E-02  0.3193E-01
      4.233  0.6051E-02  0.3201E-01
      4.247  0.5922E-02  0.3209E-01
      4.260  0.5803E-02  0.3216E-01
      4.273  0.5700E-02  0.3224E-01
      4.286  0.5617E-02  0.3231E-01
      4.300  0.5558E-02  0.3239E-01
      4.313  0.5525E-02  0.3246E-01
      4.326  0.5521E-02  0.3253E-01
      4.340  0.5546E-02  0.3261E-01
      4.353  0.5601E-02  0.3268E-01
      4.366  0.5682E-02  0.3276E-01
      4.379  0.5789E-02  0.3284E-01
      4.393  0.5917E-02  0.3291E-01
      4.406  0.6063E-02  0.3299E-01
      4.419  0.6220E-02  0.3308E-01
      4.433  0.6386E-02  0.3316E-01
      4.446  0.6553E-02  0.3325E-01
      4.459  0.6719E-02  0.3334E-01
      4.473  0.6878E-02  0.3343E-01
      4.486  0.7028E-02  0.3352E-01
      4.499  0.7165E-02  0.3362E-01
      4.512  0.7288E-02  0.3372E-01
      4.526  0.7396E-02  0.3381E-01
      4.539  0.7489E-02  0.3391E-01
      4.552  0.7567E-02  0.3401E-01
      4.566  0.7632E-02  0.3412E-01
      4.579  0.7684E-02  0.3422E-01
      4.592  0.7725E-02  0.3432E-01
      4.606  0.7757E-02  0.3442E-01
      4.619  0.7780E-02  0.3453E-01
      4.632  0.7797E-02  0.3463E-01
      4.645  0.7807E-02  0.3473E-01
      4.659  0.7812E-02  0.3484E-01
      4.672  0.7811E-02  0.3494E-01
      4.685  0.7804E-02  0.3505E-01
      4.699  0.7792E-02  0.3515E-01
      4.712  0.7774E-02  0.3525E-01
      4.725  0.7751E-02  0.3536E-01
      4.738  0.7722E-02  0.3546E-01
      4.752  0.7687E-02  0.3556E-01
      4.765  0.7647E-02  0.3566E-01
      4.778  0.7602E-02  0.3576E-01
      4.792  0.7553E-02  0.3586E-01
      4.805  0.7502E-02  0.3596E-01
      4.818  0.7449E-02  0.3606E-01
      4.832  0.7395E-02  0.3616E-01
      4.845  0.7341E-02  0.3626E-01
      4.858  0.7288E-02  0.3636E-01
      4.871  0.7237E-02  0.3645E-01
      4.885  0.7187E-02  0.3655E-01
      4.898  0.7141E-02  0.3664E-01
      4.911  0.7097E-02  0.3674E-01
      4.925  0.7057E-02  0.3683E-01
      4.938  0.7019E-02  0.3692E-01
      4.951  0.6984E-02  0.3702E-01
      4.965  0.6953E-02  0.3711E-01
      4.978  0.6925E-02  0.3720E-01
      4.991  0.6901E-02  0.3729E-01
      5.004  0.6881E-02  0.3739E-01
      5.018  0.6867E-02  0.3748E-01
      5.031  0.6859E-02  0.3757E-01
      5.044  0.6859E-02  0.3766E-01
      5.058  0.6867E-02  0.3775E-01
      5.071  0.6884E-02  0.3784E-01
      5.084  0.6913E-02  0.3793E-01
      5.097  0.6952E-02  0.3803E-01
      5.111  0.7004E-02  0.3812E-01
      5.124  0.7068E-02  0.3821E-01
      5.137  0.7144E-02  0.3831E-01
      5.151  0.7231E-02  0.3840E-01
      5.164  0.7328E-02  0.3850E-01
      5.177  0.7433E-02  0.3860E-01
      5.191  0.7544E-02  0.3870E-01
      5.204  0.7659E-02  0.3880E-01
      5.217  0.7775E-02  0.3891E-01
      5.230  0.7889E-02  0.3901E-01
      5.244  0.8000E-02  0.3912E-01
      5.257  0.8103E-02  0.3923E-01
      5.270  0.8197E-02  0.3933E-01
      5.284  0.8279E-02  0.3944E-01
      5.297  0.8348E-02  0.3956E-01
      5.310  0.8401E-02  0.3967E-01
      5.324  0.8436E-02  0.3978E-01
      5.337  0.8454E-02  0.3989E-01
      5.350  0.8452E-02  0.4000E-01
      5.363  0.8430E-02  0.4012E-01
      5.377  0.8388E-02  0.4023E-01
      5.390  0.8326E-02  0.4034E-01
      5.403  0.8246E-02  0.4045E-01
      5.417  0.8148E-02  0.4056E-01
      5.430  0.8033E-02  0.4066E-01
      5.443  0.7906E-02  0.4077E-01
      5.456  0.7767E-02  0.4087E-01
      5.470  0.7622E-02  0.4097E-01
      5.483  0.7474E-02  0.4107E-01
      5.496  0.7328E-02  0.4117E-01
      5.510  0.7189E-02  0.4127E-01
      5.523  0.7063E-02  0.4136E-01
      5.536  0.6953E-02  0.4145E-01
      5.550  0.6864E-02  0.4154E-01
      5.563  0.6801E-02  0.4163E-01
      5.576  0.6765E-02  0.4172E-01
      5.589  0.6759E-02  0.4181E-01
      5.603  0.6783E-02  0.4190E-01
      5.616  0.6835E-02  0.4199E-01
      5.629  0.6913E-02  0.4209E-01
      5.643  0.7011E-02  0.4218E-01
      5.656  0.7125E-02  0.4227E-01
      5.669  0.7247E-02  0.4237E-01
      5.683  0.7370E-02  0.4247E-01
      5.696  0.7487E-02  0.4257E-01
      5.709  0.7590E-02  0.4267E-01
      5.722  0.7672E-02  0.4277E-01
      5.736  0.7727E-02  0.4287E-01
      5.749  0.7751E-02  0.4298E-01
      5.762  0.7740E-02  0.4308E-01
      5.776  0.7695E-02  0.4318E-01
      5.789  0.7615E-02  0.4328E-01
      5.802  0.7505E-02  0.4338E-01
      5.816  0.7369E-02  0.4348E-01
      5.829  0.7214E-02  0.4358E-01
      5.842  0.7046E-02  0.4367E-01
      5.855  0.6875E-02  0.4376E-01
      5.869  0.6709E-02  0.4385E-01
      5.882  0.6557E-02  0.4394E-01
      5.895  0.6427E-02  0.4402E-01
      5.909  0.6325E-02  0.4411E-01
      5.922  0.6256E-02  0.4419E-01
      5.935  0.6225E-02  0.4427E-01
      5.948  0.6234E-02  0.4436E-01
      5.962  0.6282E-02  0.4444E-01
      5.975  0.6367E-02  0.4452E-01
      5.988  0.6486E-02  0.4461E-01
      6.002  0.6634E-02  0.4470E-01
      6.015  0.6804E-02  0.4479E-01
      6.028  0.6990E-02  0.4488E-01
      6.042  0.7183E-02  0.4498E-01
      6.055  0.7375E-02  0.4508E-01
      6.068  0.7558E-02  0.4518E-01
      6.081  0.7726E-02  0.4528E-01
      6.095  0.7872E-02  0.4538E-01
      6.108  0.7990E-02  0.4549E-01
      6.121  0.8076E-02  0.4560E-01
      6.135  0.8128E-02  0.4571E-01
      6.148  0.8144E-02  0.4581E-01
      6.161  0.8124E-02  0.4592E-01
      6.175  0.8069E-02  0.4603E-01
      6.188  0.7981E-02  0.4614E-01
      6.201  0.7866E-02  0.4624E-01
      6.214  0.7726E-02  0.4634E-01
      6.228  0.7568E-02  0.4644E-01
      6.241  0.7397E-02  0.4654E-01
      6.254  0.7219E-02  0.4664E-01
      6.268  0.7041E-02  0.4673E-01
      6.281  0.6868E-02  0.4682E-01
      6.294  0.6708E-02  0.4691E-01
      6.307  0.6563E-02  0.4700E-01
      6.321  0.6440E-02  0.4708E-01
      6.334  0.6341E-02  0.4717E-01
      6.347  0.6270E-02  0.4725E-01
      6.361  0.6226E-02  0.4734E-01
      6.374  0.6212E-02  0.4742E-01
      6.387  0.6225E-02  0.4750E-01
      6.401  0.6263E-02  0.4758E-01
      6.414  0.6325E-02  0.4767E-01
      6.427  0.6407E-02  0.4775E-01
      6.440  0.6503E-02  0.4784E-01
      6.454  0.6611E-02  0.4793E-01
      6.467  0.6726E-02  0.4802E-01
      6.480  0.6842E-02  0.4811E-01
      6.494  0.6956E-02  0.4820E-01
      6.507  0.7065E-02  0.4829E-01
      6.520  0.7164E-02  0.4839E-01
      6.534  0.7252E-02  0.4849E-01
      6.547  0.7327E-02  0.4858E-01
      6.560  0.7387E-02  0.4868E-01
      6.573  0.7433E-02  0.4878E-01
      6.587  0.7465E-02  0.4888E-01
      6.600  0.7484E-02  0.4898E-01
      6.613  0.7491E-02  0.4908E-01
      6.627  0.7488E-02  0.4918E-01
      6.640  0.7478E-02  0.4928E-01
      6.653  0.7463E-02  0.4938E-01
      6.666  0.7445E-02  0.4948E-01
      6.680  0.7426E-02  0.4957E-01
      6.693  0.7408E-02  0.4967E-01
      6.706  0.7394E-02  0.4977E-01
      6.720  0.7384E-02  0.4987E-01
      6.733  0.7380E-02  0.4997E-01
      6.746  0.7383E-02  0.5007E-01
      6.760  0.7392E-02  0.5016E-01
      6.773  0.7407E-02  0.5026E-01
      6.786  0.7428E-02  0.5036E-01
      6.799  0.7453E-02  0.5046E-01
      6.813  0.7480E-02  0.5056E-01
      6.826  0.7509E-02  0.5066E-01
      6.839  0.7537E-02  0.5076E-01
      6.853  0.7563E-02  0.5086E-01
      6.866  0.7585E-02  0.5096E-01
      6.879  0.7601E-02  0.5106E-01
      6.893  0.7610E-02  0.5116E-01
      6.906  0.7613E-02  0.5127E-01
      6.919  0.7609E-02  0.5137E-01
      6.932  0.7598E-02  0.5147E-01
      6.946  0.7582E-02  0.5157E-01
      6.959  0.7563E-02  0.5167E-01
      6.972  0.7543E-02  0.5177E-01
      6.986  0.7525E-02  0.5187E-01
      6.999  0.7510E-02  0.5197E-01
      7.012  0.7502E-02  0.5207E-01
      7.025  0.7503E-02  0.5217E-01
      7.039  0.7515E-02  0.5227E-01
      7.052  0.7540E-02  0.5237E-01
      7.065  0.7578E-02  0.5247E-01
      7.079  0.7629E-02  0.5257E-01
      7.092  0.7692E-02  0.5267E-01
      7.105  0.7767E-02  0.5278E-01
      7.119  0.7850E-02  0.5288E-01
      7.132  0.7939E-02  0.5299E-01
      7.145  0.8031E-02  0.5309E-01
      7.158  0.8121E-02  0.5320E-01
      7.172  0.8207E-02  0.5331E-01
      7.185  0.8286E-02  0.5342E-01
      7.198  0.8352E-02  0.5353E-01
      7.212  0.8406E-02  0.5364E-01
      7.225  0.8443E-02  0.5376E-01
      7.238  0.8462E-02  0.5387E-01
      7.252  0.8464E-02  0.5398E-01
      7.265  0.8448E-02  0.5409E-01
      7.278  0.8414E-02  0.5420E-01
      7.291  0.8366E-02  0.5432E-01
      7.305  0.8304E-02  0.5443E-01
      7.318  0.8231E-02  0.5454E-01
      7.331  0.8151E-02  0.5464E-01
      7.345  0.8066E-02  0.5475E-01
      7.358  0.7980E-02  0.5486E-01
      7.371  0.7895E-02  0.5496E-01
      7.384  0.7814E-02  0.5507E-01
      7.398  0.7740E-02  0.5517E-01
      7.411  0.7674E-02  0.5527E-01
      7.424  0.7617E-02  0.5537E-01
      7.438  0.7571E-02  0.5547E-01
      7.451  0.7536E-02  0.5557E-01
      7.464  0.7510E-02  0.5567E-01
      7.478  0.7494E-02  0.5577E-01
      7.491  0.7486E-02  0.5587E-01
      7.504  0.7485E-02  0.5597E-01
      7.517  0.7488E-02  0.5607E-01
      7.531  0.7495E-02  0.5617E-01
      7.544  0.7504E-02  0.5627E-01
      7.557  0.7513E-02  0.5637E-01
      7.571  0.7522E-02  0.5647E-01
      7.584  0.7530E-02  0.5657E-01
      7.597  0.7535E-02  0.5667E-01
      7.611  0.7539E-02  0.5677E-01
      7.624  0.7542E-02  0.5687E-01
      7.637  0.7544E-02  0.5697E-01
      7.650  0.7546E-02  0.5707E-01
      7.664  0.7549E-02  0.5717E-01
      7.677  0.7556E-02  0.5727E-01
      7.690  0.7566E-02  0.5737E-01
      7.704  0.7580E-02  0.5747E-01
      7.717  0.7600E-02  0.5758E-01
      7.730  0.7625E-02  0.5768E-01
      7.743  0.7657E-02  0.5778E-01
      7.757  0.7693E-02  0.5788E-01
      7.770  0.7734E-02  0.5798E-01
      7.783  0.7777E-02  0.5809E-01
      7.797  0.7822E-02  0.5819E-01
      7.810  0.7866E-02  0.5830E-01
      7.823  0.7908E-02  0.5840E-01
      7.837  0.7944E-02  0.5851E-01
      7.850  0.7973E-02  0.5861E-01
      7.863  0.7994E-02  0.5872E-01
      7.876  0.8003E-02  0.5883E-01
      7.890  0.8000E-02  0.5893E-01
      7.903  0.7984E-02  0.5904E-01
      7.916  0.7954E-02  0.5914E-01
      7.930  0.7912E-02  0.5925E-01
      7.943  0.7858E-02  0.5935E-01
      7.956  0.7794E-02  0.5946E-01
      7.970  0.7721E-02  0.5956E-01
      7.983  0.7643E-02  0.5966E-01
      7.996  0.7561E-02  0.5976E-01
      8.009  0.7479E-02  0.5986E-01
      8.023  0.7400E-02  0.5996E-01
      8.036  0.7325E-02  0.6006E-01
      8.049  0.7259E-02  0.6015E-01
      8.063  0.7203E-02  0.6025E-01
      8.076  0.7159E-02  0.6034E-01
      8.089  0.7127E-02  0.6044E-01
      8.103  0.7110E-02  0.6053E-01
      8.116  0.7106E-02  0.6063E-01
      8.129  0.7117E-02  0.6072E-01
      8.142  0.7142E-02  0.6082E-01
      8.156  0.7181E-02  0.6091E-01
      8.169  0.7233E-02  0.6101E-01
      8.182  0.7299E-02  0.6111E-01
      8.196  0.7376E-02  0.6121E-01
      8.209  0.7467E-02  0.6130E-01
      8.222  0.7569E-02  0.6140E-01
      8.235  0.7684E-02  0.6151E-01
      8.249  0.7812E-02  0.6161E-01
      8.262  0.7952E-02  0.6172E-01
      8.275  0.8104E-02  0.6182E-01
      8.289  0.8268E-02  0.6193E-01
      8.302  0.8442E-02  0.6205E-01
      8.315  0.8624E-02  0.6216E-01
      8.329  0.8814E-02  0.6228E-01
      8.342  0.9007E-02  0.6240E-01
      8.355  0.9201E-02  0.6252E-01
      8.368  0.9391E-02  0.6265E-01
      8.382  0.9574E-02  0.6277E-01
      8.395  0.9746E-02  0.6290E-01
      8.408  0.9901E-02  0.6303E-01
      8.422  0.1004E-01  0.6317E-01
      8.435  0.1015E-01  0.6330E-01
      8.448  0.1024E-01  0.6344E-01
      8.462  0.1030E-01  0.6358E-01
      8.475  0.1033E-01  0.6371E-01
      8.488  0.1033E-01  0.6385E-01
      8.501  0.1030E-01  0.6399E-01
      8.515  0.1024E-01  0.6412E-01
      8.528  0.1015E-01  0.6426E-01
      8.541  0.1004E-01  0.6439E-01
      8.555  0.9911E-02  0.6452E-01
      8.568  0.9763E-02  0.6465E-01
      8.581  0.9601E-02  0.6478E-01
      8.594  0.9429E-02  0.6491E-01
      8.608  0.9250E-02  0.6503E-01
      8.621  0.9070E-02  0.6515E-01
      8.634  0.8890E-02  0.6527E-01
      8.648  0.8715E-02  0.6538E-01
      8.661  0.8548E-02  0.6550E-01
      8.674  0.8391E-02  0.6561E-01
      8.688  0.8247E-02  0.6572E-01
      8.701  0.8117E-02  0.6583E-01
      8.714  0.8002E-02  0.6593E-01
      8.727  0.7904E-02  0.6604E-01
      8.741  0.7822E-02  0.6614E-01
      8.754  0.7755E-02  0.6625E-01
      8.767  0.7702E-02  0.6635E-01
      8.781  0.7662E-02  0.6645E-01
      8.794  0.7632E-02  0.6655E-01
      8.807  0.7610E-02  0.6665E-01
      8.821  0.7593E-02  0.6675E-01
      8.834  0.7579E-02  0.6685E-01
      8.847  0.7564E-02  0.6695E-01
      8.860  0.7545E-02  0.6706E-01
      8.874  0.7522E-02  0.6716E-01
      8.887  0.7492E-02  0.6725E-01
      8.900  0.7453E-02  0.6735E-01
      8.914  0.7406E-02  0.6745E-01
      8.927  0.7350E-02  0.6755E-01
      8.940  0.7287E-02  0.6765E-01
      8.953  0.7217E-02  0.6774E-01
      8.967  0.7143E-02  0.6784E-01
      8.980  0.7068E-02  0.6793E-01
      8.993  0.6995E-02  0.6802E-01
      9.007  0.6927E-02  0.6812E-01
      9.020  0.6869E-02  0.6821E-01
      9.033  0.6823E-02  0.6830E-01
      9.047  0.6793E-02  0.6839E-01
      9.060  0.6784E-02  0.6848E-01
      9.073  0.6797E-02  0.6857E-01
      9.086  0.6835E-02  0.6866E-01
      9.100  0.6901E-02  0.6875E-01
      9.113  0.6994E-02  0.6885E-01
      9.126  0.7116E-02  0.6894E-01
      9.140  0.7266E-02  0.6904E-01
      9.153  0.7441E-02  0.6914E-01
      9.166  0.7640E-02  0.6924E-01
      9.180  0.7859E-02  0.6934E-01
      9.193  0.8095E-02  0.6945E-01
      9.206  0.8343E-02  0.6956E-01
      9.219  0.8597E-02  0.6967E-01
      9.233  0.8854E-02  0.6979E-01
      9.246  0.9109E-02  0.6991E-01
      9.259  0.9356E-02  0.7004E-01
      9.273  0.9593E-02  0.7017E-01
      9.286  0.9814E-02  0.7030E-01
      9.299  0.1002E-01  0.7043E-01
      9.312  0.1020E-01  0.7056E-01
      9.326  0.1036E-01  0.7070E-01
      9.339  0.1050E-01  0.7084E-01
      9.352  0.1061E-01  0.7098E-01
      9.366  0.1070E-01  0.7113E-01
      9.379  0.1077E-01  0.7127E-01
      9.392  0.1081E-01  0.7141E-01
      9.406  0.1082E-01  0.7156E-01
      9.419  0.1081E-01  0.7170E-01
      9.432  0.1078E-01  0.7184E-01
      9.445  0.1072E-01  0.7199E-01
      9.459  0.1064E-01  0.7213E-01
      9.472  0.1053E-01  0.7227E-01
      9.485  0.1040E-01  0.7241E-01
      9.499  0.1024E-01  0.7254E-01
      9.512  0.1006E-01  0.7268E-01
      9.525  0.9860E-02  0.7281E-01
      9.539  0.9638E-02  0.7294E-01
      9.552  0.9399E-02  0.7306E-01
      9.565  0.9147E-02  0.7318E-01
      9.578  0.8884E-02  0.7330E-01
      9.592  0.8616E-02  0.7341E-01
      9.605  0.8347E-02  0.7353E-01
      9.618  0.8082E-02  0.7363E-01
      9.632  0.7826E-02  0.7374E-01
      9.645  0.7584E-02  0.7384E-01
      9.658  0.7360E-02  0.7394E-01
      9.671  0.7160E-02  0.7403E-01
      9.685  0.6987E-02  0.7412E-01
      9.698  0.6844E-02  0.7421E-01
      9.711  0.6735E-02  0.7430E-01
      9.725  0.6661E-02  0.7439E-01
      9.738  0.6624E-02  0.7448E-01
      9.751  0.6625E-02  0.7457E-01
      9.765  0.6665E-02  0.7466E-01
      9.778  0.6742E-02  0.7475E-01
      9.791  0.6855E-02  0.7484E-01
      9.804  0.7003E-02  0.7493E-01
      9.818  0.7184E-02  0.7503E-01
      9.831  0.7393E-02  0.7513E-01
      9.844  0.7627E-02  0.7523E-01
      9.858  0.7881E-02  0.7533E-01
      9.871  0.8151E-02  0.7544E-01
      9.884  0.8431E-02  0.7555E-01
      9.898  0.8715E-02  0.7567E-01
      9.911  0.8997E-02  0.7579E-01
      9.924  0.9270E-02  0.7591E-01
      9.937  0.9530E-02  0.7604E-01
      9.951  0.9769E-02  0.7617E-01
      9.964  0.9982E-02  0.7630E-01
      9.977  0.1016E-01  0.7644E-01
      9.991  0.1031E-01  0.7657E-01
     10.004  0.1042E-01  0.7671E-01
     10.017  0.1049E-01  0.7685E-01
     10.031  0.1053E-01  0.7699E-01
     10.044  0.1052E-01  0.7713E-01
     10.057  0.1047E-01  0.7727E-01
     10.070  0.1039E-01  0.7741E-01
     10.084  0.1028E-01  0.7754E-01
     10.097  0.1014E-01  0.7768E-01
     10.110  0.9985E-02  0.7781E-01
     10.124  0.9812E-02  0.7794E-01
     10.137  0.9630E-02  0.7807E-01
     10.150  0.9445E-02  0.7820E-01
     10.163  0.9264E-02  0.7832E-01
     10.177  0.9090E-02  0.7844E-01
     10.190  0.8929E-02  0.7856E-01
     10.203  0.8785E-02  0.7868E-01
     10.217  0.8660E-02  0.7879E-01
     10.230  0.8556E-02  0.7890E-01
     10.243  0.8475E-02  0.7902E-01
     10.257  0.8417E-02  0.7913E-01
     10.270  0.8382E-02  0.7924E-01
     10.283  0.8368E-02  0.7935E-01
     10.296  0.8374E-02  0.7946E-01
     10.310  0.8397E-02  0.7957E-01
     10.323  0.8435E-02  0.7969E-01
     10.336  0.8485E-02  0.7980E-01
     10.350  0.8544E-02  0.7991E-01
     10.363  0.8609E-02  0.8003E-01
     10.376  0.8677E-02  0.8014E-01
     10.390  0.8744E-02  0.8026E-01
     10.403  0.8809E-02  0.8038E-01
     10.416  0.8867E-02  0.8049E-01
     10.429  0.8918E-02  0.8061E-01
     10.443  0.8959E-02  0.8073E-01
     10.456  0.8988E-02  0.8085E-01
     10.469  0.9004E-02  0.8097E-01
     10.483  0.9006E-02  0.8109E-01
     10.496  0.8995E-02  0.8121E-01
     10.509  0.8969E-02  0.8133E-01
     10.522  0.8931E-02  0.8145E-01
     10.536  0.8880E-02  0.8157E-01
     10.549  0.8819E-02  0.8168E-01
     10.562  0.8750E-02  0.8180E-01
     10.576  0.8675E-02  0.8192E-01
     10.589  0.8597E-02  0.8203E-01
     10.602  0.8520E-02  0.8214E-01
     10.616  0.8446E-02  0.8226E-01
     10.629  0.8379E-02  0.8237E-01
     10.642  0.8323E-02  0.8248E-01
     10.655  0.8281E-02  0.8259E-01
     10.669  0.8256E-02  0.8270E-01
     10.682  0.8251E-02  0.8281E-01
     10.695  0.8267E-02  0.8292E-01
     10.709  0.8307E-02  0.8303E-01
     10.722  0.8370E-02  0.8314E-01
     10.735  0.8457E-02  0.8325E-01
     10.749  0.8566E-02  0.8337E-01
     10.762  0.8697E-02  0.8348E-01
     10.775  0.8846E-02  0.8360E-01
     10.788  0.9010E-02  0.8372E-01
     10.802  0.9187E-02  0.8384E-01
     10.815  0.9371E-02  0.8397E-01
     10.828  0.9559E-02  0.8409E-01
     10.842  0.9748E-02  0.8422E-01
     10.855  0.9932E-02  0.8435E-01
     10.868  0.1011E-01  0.8449E-01
     10.881  0.1027E-01  0.8463E-01
     10.895  0.1042E-01  0.8476E-01
     10.908  0.1056E-01  0.8490E-01
     10.921  0.1067E-01  0.8505E-01
     10.935  0.1076E-01  0.8519E-01
     10.948  0.1083E-01  0.8533E-01
     10.961  0.1088E-01  0.8548E-01
     10.975  0.1090E-01  0.8562E-01
     10.988  0.1090E-01  0.8577E-01
     11.001  0.1088E-01  0.8591E-01
     11.014  0.1084E-01  0.8606E-01
     11.028  0.1078E-01  0.8620E-01
     11.041  0.1069E-01  0.8634E-01
     11.054  0.1059E-01  0.8648E-01
     11.068  0.1048E-01  0.8662E-01
     11.081  0.1036E-01  0.8676E-01
     11.094  0.1022E-01  0.8690E-01
     11.108  0.1009E-01  0.8703E-01
     11.121  0.9944E-02  0.8716E-01
     11.134  0.9802E-02  0.8729E-01
     11.147  0.9662E-02  0.8742E-01
     11.161  0.9527E-02  0.8755E-01
     11.174  0.9398E-02  0.8767E-01
     11.187  0.9278E-02  0.8780E-01
     11.201  0.9168E-02  0.8792E-01
     11.214  0.9069E-02  0.8804E-01
     11.227  0.8983E-02  0.8816E-01
     11.240  0.8908E-02  0.8828E-01
     11.254  0.8847E-02  0.8839E-01
     11.267  0.8799E-02  0.8851E-01
     11.280  0.8764E-02  0.8863E-01
     11.294  0.8742E-02  0.8874E-01
     11.307  0.8732E-02  0.8886E-01
     11.320  0.8735E-02  0.8898E-01
     11.334  0.8749E-02  0.8909E-01
     11.347  0.8774E-02  0.8921E-01
     11.360  0.8809E-02  0.8933E-01
     11.373  0.8852E-02  0.8944E-01
     11.387  0.8903E-02  0.8956E-01
     11.400  0.8959E-02  0.8968E-01
     11.413  0.9020E-02  0.8980E-01
     11.427  0.9083E-02  0.8992E-01
     11.440  0.9147E-02  0.9004E-01
     11.453  0.9209E-02  0.9017E-01
     11.467  0.9269E-02  0.9029E-01
     11.480  0.9324E-02  0.9041E-01
     11.493  0.9372E-02  0.9054E-01
     11.506  0.9414E-02  0.9066E-01
     11.520  0.9447E-02  0.9079E-01
     11.533  0.9472E-02  0.9091E-01
     11.546  0.9487E-02  0.9104E-01
     11.560  0.9492E-02  0.9117E-01
     11.573  0.9488E-02  0.9129E-01
     11.586  0.9475E-02  0.9142E-01
     11.599  0.9453E-02  0.9154E-01
     11.613  0.9424E-02  0.9167E-01
     11.626  0.9388E-02  0.9180E-01
     11.639  0.9347E-02  0.9192E-01
     11.653  0.9303E-02  0.9204E-01
     11.666  0.9258E-02  0.9217E-01
     11.679  0.9215E-02  0.9229E-01
     11.693  0.9176E-02  0.9241E-01
     11.706  0.9144E-02  0.9253E-01
     11.719  0.9121E-02  0.9265E-01
     11.732  0.9110E-02  0.9277E-01
     11.746  0.9112E-02  0.9290E-01
     11.759  0.9129E-02  0.9302E-01
     11.772  0.9162E-02  0.9314E-01
     11.786  0.9210E-02  0.9326E-01
     11.799  0.9273E-02  0.9338E-01
     11.812  0.9347E-02  0.9351E-01
     11.826  0.9431E-02  0.9363E-01
     11.839  0.9520E-02  0.9376E-01
     11.852  0.9611E-02  0.9389E-01
     11.865  0.9699E-02  0.9402E-01
     11.879  0.9780E-02  0.9415E-01
     11.892  0.9851E-02  0.9428E-01
     11.905  0.9909E-02  0.9441E-01
     11.919  0.9951E-02  0.9454E-01
     11.932  0.9976E-02  0.9468E-01
     11.945  0.9985E-02  0.9481E-01
     11.958  0.9980E-02  0.9494E-01
     11.972  0.9961E-02  0.9507E-01
     11.985  0.9935E-02  0.9521E-01
     11.998  0.9903E-02  0.9534E-01
     12.012  0.9872E-02  0.9547E-01
     12.025  0.9847E-02  0.9560E-01
     12.038  0.9831E-02  0.9573E-01
     12.052  0.9830E-02  0.9586E-01
     12.065  0.9846E-02  0.9599E-01
     12.078  0.9883E-02  0.9612E-01
     12.091  0.9941E-02  0.9626E-01
     12.105  0.1002E-01  0.9639E-01
     12.118  0.1012E-01  0.9652E-01
     12.131  0.1024E-01  0.9666E-01
     12.145  0.1037E-01  0.9680E-01
     12.158  0.1050E-01  0.9694E-01
     12.171  0.1065E-01  0.9708E-01
     12.185  0.1079E-01  0.9722E-01
     12.198  0.1092E-01  0.9737E-01
     12.211  0.1104E-01  0.9751E-01
     12.224  0.1115E-01  0.9766E-01
     12.238  0.1123E-01  0.9781E-01
     12.251  0.1128E-01  0.9796E-01
     12.264  0.1131E-01  0.9811E-01
     12.278  0.1130E-01  0.9826E-01
     12.291  0.1127E-01  0.9841E-01
     12.304  0.1121E-01  0.9856E-01
     12.318  0.1111E-01  0.9871E-01
     12.331  0.1100E-01  0.9885E-01
     12.344  0.1086E-01  0.9900E-01
     12.357  0.1071E-01  0.9914E-01
     12.371  0.1055E-01  0.9928E-01
     12.384  0.1038E-01  0.9942E-01
     12.397  0.1021E-01  0.9956E-01
     12.411  0.1005E-01  0.9969E-01
     12.424  0.9891E-02  0.9982E-01
     12.437  0.9751E-02  0.9995E-01
     12.450  0.9629E-02  0.1001E+00
     12.464  0.9529E-02  0.1002E+00
     12.477  0.9455E-02  0.1003E+00
     12.490  0.9406E-02  0.1005E+00
     12.504  0.9384E-02  0.1006E+00
     12.517  0.9389E-02  0.1007E+00
     12.530  0.9419E-02  0.1008E+00
     12.544  0.9472E-02  0.1010E+00
     12.557  0.9545E-02  0.1011E+00
     12.570  0.9633E-02  0.1012E+00
     12.583  0.9732E-02  0.1013E+00
     12.597  0.9837E-02  0.1015E+00
     12.610  0.9943E-02  0.1016E+00
     12.623  0.1004E-01  0.1017E+00
     12.637  0.1014E-01  0.1019E+00
     12.650  0.1021E-01  0.1020E+00
     12.663  0.1027E-01  0.1021E+00
     12.677  0.1032E-01  0.1023E+00
     12.690  0.1033E-01  0.1024E+00
     12.703  0.1033E-01  0.1026E+00
     12.716  0.1031E-01  0.1027E+00
     12.730  0.1026E-01  0.1028E+00
     12.743  0.1020E-01  0.1030E+00
     12.756  0.1013E-01  0.1031E+00
     12.770  0.1005E-01  0.1032E+00
     12.783  0.9962E-02  0.1034E+00
     12.796  0.9877E-02  0.1035E+00
     12.809  0.9798E-02  0.1036E+00
     12.823  0.9729E-02  0.1038E+00
     12.836  0.9673E-02  0.1039E+00
     12.849  0.9633E-02  0.1040E+00
     12.863  0.9611E-02  0.1041E+00
     12.876  0.9608E-02  0.1043E+00
     12.889  0.9622E-02  0.1044E+00
     12.903  0.9654E-02  0.1045E+00
     12.916  0.9699E-02  0.1047E+00
     12.929  0.9755E-02  0.1048E+00
     12.942  0.9818E-02  0.1049E+00
     12.956  0.9884E-02  0.1050E+00
     12.969  0.9949E-02  0.1052E+00
     12.982  0.1001E-01  0.1053E+00
     12.996  0.1006E-01  0.1054E+00
     13.009  0.1009E-01  0.1056E+00
     13.022  0.1011E-01  0.1057E+00
     13.036  0.1011E-01  0.1058E+00
     13.049  0.1010E-01  0.1060E+00
     13.062  0.1006E-01  0.1061E+00
     13.075  0.1000E-01  0.1063E+00
     13.089  0.9931E-02  0.1064E+00
     13.102  0.9843E-02  0.1065E+00
     13.115  0.9743E-02  0.1066E+00
     13.129  0.9634E-02  0.1068E+00
     13.142  0.9519E-02  0.1069E+00
     13.155  0.9401E-02  0.1070E+00
     13.168  0.9284E-02  0.1071E+00
     13.182  0.9170E-02  0.1073E+00
     13.195  0.9062E-02  0.1074E+00
     13.208  0.8960E-02  0.1075E+00
     13.222  0.8867E-02  0.1076E+00
     13.235  0.8782E-02  0.1077E+00
     13.248  0.8705E-02  0.1079E+00
     13.262  0.8635E-02  0.1080E+00
     13.275  0.8573E-02  0.1081E+00
     13.288  0.8515E-02  0.1082E+00
     13.301  0.8461E-02  0.1083E+00
     13.315  0.8410E-02  0.1084E+00
     13.328  0.8360E-02  0.1085E+00
     13.341  0.8311E-02  0.1086E+00
     13.355  0.8262E-02  0.1088E+00
     13.368  0.8214E-02  0.1089E+00
     13.381  0.8166E-02  0.1090E+00
     13.395  0.8119E-02  0.1091E+00
     13.408  0.8075E-02  0.1092E+00
     13.421  0.8034E-02  0.1093E+00
     13.434  0.7997E-02  0.1094E+00
     13.448  0.7964E-02  0.1095E+00
     13.461  0.7935E-02  0.1096E+00
     13.474  0.7912E-02  0.1097E+00
     13.488  0.7892E-02  0.1098E+00
     13.501  0.7874E-02  0.1099E+00
     13.514  0.7858E-02  0.1100E+00
     13.527  0.7841E-02  0.1101E+00
     13.541  0.7821E-02  0.1102E+00
     13.554  0.7796E-02  0.1103E+00
     13.567  0.7764E-02  0.1104E+00
     13.581  0.7724E-02  0.1106E+00
     13.594  0.7674E-02  0.1107E+00
     13.607  0.7613E-02  0.1108E+00
     13.621  0.7542E-02  0.1109E+00
     13.634  0.7461E-02  0.1110E+00
     13.647  0.7370E-02  0.1111E+00
     13.660  0.7271E-02  0.1111E+00
     13.674  0.7166E-02  0.1112E+00
     13.687  0.7055E-02  0.1113E+00
     13.700  0.6940E-02  0.1114E+00
     13.714  0.6821E-02  0.1115E+00
     13.727  0.6701E-02  0.1116E+00
     13.740  0.6578E-02  0.1117E+00
     13.754  0.6453E-02  0.1118E+00
     13.767  0.6325E-02  0.1119E+00
     13.780  0.6193E-02  0.1119E+00
     13.793  0.6056E-02  0.1120E+00
     13.807  0.5913E-02  0.1121E+00
     13.820  0.5762E-02  0.1122E+00
     13.833  0.5604E-02  0.1123E+00
     13.847  0.5438E-02  0.1123E+00
     13.860  0.5265E-02  0.1124E+00
     13.873  0.5086E-02  0.1125E+00
     13.886  0.4904E-02  0.1125E+00
     13.900  0.4720E-02  0.1126E+00
     13.913  0.4539E-02  0.1127E+00
     13.926  0.4363E-02  0.1127E+00
     13.940  0.4197E-02  0.1128E+00
     13.953  0.4044E-02  0.1128E+00
     13.966  0.3908E-02  0.1129E+00
     13.980  0.3791E-02  0.1129E+00
     13.993  0.3697E-02  0.1130E+00
     14.006  0.3626E-02  0.1130E+00
     14.019  0.3581E-02  0.1131E+00
     14.033  0.3559E-02  0.1131E+00
     14.046  0.3562E-02  0.1132E+00
     14.059  0.3587E-02  0.1132E+00
     14.073  0.3631E-02  0.1133E+00
     14.086  0.3692E-02  0.1133E+00
     14.099  0.3766E-02  0.1134E+00
     14.113  0.3851E-02  0.1134E+00
     14.126  0.3942E-02  0.1135E+00
     14.139  0.4035E-02  0.1135E+00
     14.152  0.4127E-02  0.1136E+00
     14.166  0.4215E-02  0.1136E+00
     14.179  0.4295E-02  0.1137E+00
     14.192  0.4365E-02  0.1137E+00
     14.206  0.4421E-02  0.1138E+00
     14.219  0.4461E-02  0.1139E+00
     14.232  0.4483E-02  0.1139E+00
     14.245  0.4486E-02  0.1140E+00
     14.259  0.4468E-02  0.1140E+00
     14.272  0.4428E-02  0.1141E+00
     14.285  0.4367E-02  0.1142E+00
     14.299  0.4284E-02  0.1142E+00
     14.312  0.4180E-02  0.1143E+00
     14.325  0.4058E-02  0.1143E+00
     14.339  0.3920E-02  0.1144E+00
     14.352  0.3769E-02  0.1144E+00
     14.365  0.3610E-02  0.1145E+00
     14.378  0.3448E-02  0.1145E+00
     14.392  0.3286E-02  0.1146E+00
     14.405  0.3132E-02  0.1146E+00
     14.418  0.2989E-02  0.1146E+00
     14.432  0.2864E-02  0.1147E+00
     14.445  0.2761E-02  0.1147E+00
     14.458  0.2685E-02  0.1148E+00
     14.472  0.2637E-02  0.1148E+00
     14.485  0.2620E-02  0.1148E+00
     14.498  0.2635E-02  0.1149E+00
     14.511  0.2681E-02  0.1149E+00
     14.525  0.2757E-02  0.1149E+00
     14.538  0.2858E-02  0.1150E+00
     14.551  0.2982E-02  0.1150E+00
     14.565  0.3122E-02  0.1151E+00
     14.578  0.3274E-02  0.1151E+00
     14.591  0.3430E-02  0.1151E+00
     14.605  0.3585E-02  0.1152E+00
     14.618  0.3732E-02  0.1152E+00
     14.631  0.3865E-02  0.1153E+00
     14.644  0.3980E-02  0.1153E+00
     14.658  0.4072E-02  0.1154E+00
     14.671  0.4137E-02  0.1155E+00
     14.684  0.4173E-02  0.1155E+00
     14.698  0.4179E-02  0.1156E+00
     14.711  0.4154E-02  0.1156E+00
     14.724  0.4099E-02  0.1157E+00
     14.737  0.4016E-02  0.1157E+00
     14.751  0.3906E-02  0.1158E+00
     14.764  0.3774E-02  0.1158E+00
     14.777  0.3622E-02  0.1159E+00
     14.791  0.3455E-02  0.1159E+00
     14.804  0.3277E-02  0.1160E+00
     14.817  0.3093E-02  0.1160E+00
     14.831  0.2908E-02  0.1160E+00
     14.844  0.2725E-02  0.1161E+00
     14.857  0.2549E-02  0.1161E+00
     14.870  0.2385E-02  0.1161E+00
     14.884  0.2235E-02  0.1162E+00
     14.897  0.2103E-02  0.1162E+00
     14.910  0.1990E-02  0.1162E+00
     14.924  0.1899E-02  0.1163E+00
     14.937  0.1831E-02  0.1163E+00
     14.950  0.1786E-02  0.1163E+00
     14.964  0.1764E-02  0.1163E+00
     14.977  0.1763E-02  0.1164E+00
     14.990  0.1783E-02  0.1164E+00
     15.003  0.1822E-02  0.1164E+00
     15.017  0.1877E-02  0.1164E+00
     15.030  0.1944E-02  0.1165E+00
     15.043  0.2023E-02  0.1165E+00
     15.057  0.2108E-02  0.1165E+00
     15.070  0.2198E-02  0.1165E+00
     15.083  0.2289E-02  0.1166E+00
     15.096  0.2379E-02  0.1166E+00
     15.110  0.2465E-02  0.1166E+00
     15.123  0.2545E-02  0.1167E+00
     15.136  0.2618E-02  0.1167E+00
     15.150  0.2681E-02  0.1167E+00
     15.163  0.2734E-02  0.1168E+00
     15.176  0.2775E-02  0.1168E+00
     15.190  0.2806E-02  0.1168E+00
     15.203  0.2825E-02  0.1169E+00
     15.216  0.2833E-02  0.1169E+00
     15.229  0.2830E-02  0.1170E+00
     15.243  0.2817E-02  0.1170E+00
     15.256  0.2794E-02  0.1170E+00
     15.269  0.2764E-02  0.1171E+00
     15.283  0.2725E-02  0.1171E+00
     15.296  0.2681E-02  0.1171E+00
     15.309  0.2632E-02  0.1172E+00
     15.323  0.2579E-02  0.1172E+00
     15.336  0.2522E-02  0.1172E+00
     15.349  0.2464E-02  0.1173E+00
     15.362  0.2404E-02  0.1173E+00
     15.376  0.2343E-02  0.1173E+00
     15.389  0.2283E-02  0.1174E+00
     15.402  0.2222E-02  0.1174E+00
     15.416  0.2160E-02  0.1174E+00
     15.429  0.2099E-02  0.1175E+00
     15.442  0.2037E-02  0.1175E+00
     15.455  0.1974E-02  0.1175E+00
     15.469  0.1910E-02  0.1175E+00
     15.482  0.1844E-02  0.1176E+00
     15.495  0.1777E-02  0.1176E+00
     15.509  0.1708E-02  0.1176E+00
     15.522  0.1639E-02  0.1176E+00
     15.535  0.1568E-02  0.1176E+00
     15.549  0.1499E-02  0.1177E+00
     15.562  0.1431E-02  0.1177E+00
     15.575  0.1366E-02  0.1177E+00
     15.588  0.1306E-02  0.1177E+00
     15.602  0.1253E-02  0.1177E+00
     15.615  0.1208E-02  0.1178E+00
     15.628  0.1173E-02  0.1178E+00
     15.642  0.1149E-02  0.1178E+00
     15.655  0.1136E-02  0.1178E+00
     15.668  0.1136E-02  0.1178E+00
     15.682  0.1147E-02  0.1178E+00
     15.695  0.1169E-02  0.1178E+00
     15.708  0.1200E-02  0.1179E+00
     15.721  0.1240E-02  0.1179E+00
     15.735  0.1287E-02  0.1179E+00
     15.748  0.1337E-02  0.1179E+00
     15.761  0.1390E-02  0.1179E+00
     15.775  0.1442E-02  0.1180E+00
     15.788  0.1493E-02  0.1180E+00
     15.801  0.1541E-02  0.1180E+00
     15.814  0.1584E-02  0.1180E+00
     15.828  0.1623E-02  0.1180E+00
     15.841  0.1656E-02  0.1181E+00
     15.854  0.1684E-02  0.1181E+00
     15.868  0.1707E-02  0.1181E+00
     15.881  0.1725E-02  0.1181E+00
     15.894  0.1741E-02  0.1181E+00
     15.908  0.1753E-02  0.1182E+00
     15.921  0.1763E-02  0.1182E+00
     15.934  0.1772E-02  0.1182E+00
     15.947  0.1778E-02  0.1182E+00
     15.961  0.1783E-02  0.1183E+00
     15.974  0.1785E-02  0.1183E+00
     15.987  0.1783E-02  0.1183E+00
     16.001  0.1778E-02  0.1183E+00
     16.014  0.1767E-02  0.1184E+00
     16.027  0.1750E-02  0.1184E+00
     16.041  0.1726E-02  0.1184E+00
     16.054  0.1693E-02  0.1184E+00
     16.067  0.1652E-02  0.1185E+00
     16.080  0.1601E-02  0.1185E+00
     16.094  0.1543E-02  0.1185E+00
     16.107  0.1476E-02  0.1185E+00
     16.120  0.1403E-02  0.1185E+00
     16.134  0.1324E-02  0.1186E+00
     16.147  0.1242E-02  0.1186E+00
     16.160  0.1160E-02  0.1186E+00
     16.173  0.1078E-02  0.1186E+00
     16.187  0.9996E-03  0.1186E+00
     16.200  0.9275E-03  0.1186E+00
     16.213  0.8638E-03  0.1186E+00
     16.227  0.8104E-03  0.1186E+00
     16.240  0.7692E-03  0.1187E+00
     16.253  0.7413E-03  0.1187E+00
     16.267  0.7276E-03  0.1187E+00
     16.280  0.7284E-03  0.1187E+00
     16.293  0.7433E-03  0.1187E+00
     16.306  0.7717E-03  0.1187E+00
     16.320  0.8120E-03  0.1187E+00
     16.333  0.8625E-03  0.1187E+00
     16.346  0.9207E-03  0.1187E+00
     16.360  0.9842E-03  0.1188E+00
     16.373  0.1050E-02  0.1188E+00
     16.386  0.1115E-02  0.1188E+00
     16.400  0.1177E-02  0.1188E+00
     16.413  0.1231E-02  0.1188E+00
     16.426  0.1277E-02  0.1188E+00
     16.439  0.1311E-02  0.1188E+00
     16.453  0.1333E-02  0.1189E+00
     16.466  0.1339E-02  0.1189E+00
     16.479  0.1331E-02  0.1189E+00
     16.493  0.1308E-02  0.1189E+00
     16.506  0.1270E-02  0.1189E+00
     16.519  0.1219E-02  0.1190E+00
     16.532  0.1156E-02  0.1190E+00
     16.546  0.1085E-02  0.1190E+00
     16.559  0.1007E-02  0.1190E+00
     16.572  0.9260E-03  0.1190E+00
     16.586  0.8446E-03  0.1190E+00
     16.599  0.7662E-03  0.1190E+00
     16.612  0.6936E-03  0.1190E+00
     16.626  0.6296E-03  0.1190E+00
     16.639  0.5767E-03  0.1191E+00
     16.652  0.5368E-03  0.1191E+00
     16.665  0.5111E-03  0.1191E+00
     16.679  0.5005E-03  0.1191E+00
     16.692  0.5050E-03  0.1191E+00
     16.705  0.5241E-03  0.1191E+00
     16.719  0.5565E-03  0.1191E+00
     16.732  0.6006E-03  0.1191E+00
     16.745  0.6540E-03  0.1191E+00
     16.759  0.7141E-03  0.1191E+00
     16.772  0.7781E-03  0.1191E+00
     16.785  0.8428E-03  0.1191E+00
     16.798  0.9053E-03  0.1192E+00
     16.812  0.9627E-03  0.1192E+00
     16.825  0.1012E-02  0.1192E+00
     16.838  0.1052E-02  0.1192E+00
     16.852  0.1080E-02  0.1192E+00
     16.865  0.1096E-02  0.1192E+00
     16.878  0.1098E-02  0.1192E+00
     16.892  0.1087E-02  0.1193E+00
     16.905  0.1063E-02  0.1193E+00
     16.918  0.1028E-02  0.1193E+00
     16.931  0.9833E-03  0.1193E+00
     16.945  0.9312E-03  0.1193E+00
     16.958  0.8740E-03  0.1193E+00
     16.971  0.8141E-03  0.1193E+00
     16.985  0.7541E-03  0.1193E+00
     16.998  0.6964E-03  0.1193E+00
     17.011  0.6433E-03  0.1194E+00
     17.024  0.5966E-03  0.1194E+00
     17.038  0.5579E-03  0.1194E+00
     17.051  0.5283E-03  0.1194E+00
     17.064  0.5084E-03  0.1194E+00
     17.078  0.4983E-03  0.1194E+00
     17.091  0.4976E-03  0.1194E+00
     17.104  0.5056E-03  0.1194E+00
     17.118  0.5210E-03  0.1194E+00
     17.131  0.5424E-03  0.1194E+00
     17.144  0.5681E-03  0.1194E+00
     17.157  0.5962E-03  0.1194E+00
     17.171  0.6249E-03  0.1194E+00
     17.184  0.6524E-03  0.1195E+00
     17.197  0.6770E-03  0.1195E+00
     17.211  0.6973E-03  0.1195E+00
     17.224  0.7121E-03  0.1195E+00
     17.237  0.7206E-03  0.1195E+00
     17.251  0.7221E-03  0.1195E+00
     17.264  0.7166E-03  0.1195E+00
     17.277  0.7040E-03  0.1195E+00
     17.290  0.6848E-03  0.1195E+00
     17.304  0.6595E-03  0.1195E+00
     17.317  0.6291E-03  0.1195E+00
     17.330  0.5943E-03  0.1196E+00
     17.344  0.5564E-03  0.1196E+00
     17.357  0.5165E-03  0.1196E+00
     17.370  0.4757E-03  0.1196E+00
     17.383  0.4353E-03  0.1196E+00
     17.397  0.3964E-03  0.1196E+00
     17.410  0.3601E-03  0.1196E+00
     17.423  0.3275E-03  0.1196E+00
     17.437  0.2995E-03  0.1196E+00
     17.450  0.2770E-03  0.1196E+00
     17.463  0.2608E-03  0.1196E+00
     17.477  0.2515E-03  0.1196E+00
     17.490  0.2494E-03  0.1196E+00
     17.503  0.2549E-03  0.1196E+00
     17.516  0.2679E-03  0.1196E+00
     17.530  0.2881E-03  0.1196E+00
     17.543  0.3150E-03  0.1196E+00
     17.556  0.3477E-03  0.1196E+00
     17.570  0.3853E-03  0.1196E+00
     17.583  0.4263E-03  0.1196E+00
     17.596  0.4693E-03  0.1196E+00
     17.610  0.5125E-03  0.1197E+00
     17.623  0.5543E-03  0.1197E+00
     17.636  0.5928E-03  0.1197E+00
     17.649  0.6263E-03  0.1197E+00
     17.663  0.6534E-03  0.1197E+00
     17.676  0.6728E-03  0.1197E+00
     17.689  0.6836E-03  0.1197E+00
     17.703  0.6851E-03  0.1197E+00
     17.716  0.6772E-03  0.1197E+00
     17.729  0.6602E-03  0.1197E+00
     17.742  0.6347E-03  0.1197E+00
     17.756  0.6017E-03  0.1197E+00
     17.769  0.5627E-03  0.1198E+00
     17.782  0.5193E-03  0.1198E+00
     17.796  0.4732E-03  0.1198E+00
     17.809  0.4265E-03  0.1198E+00
     17.822  0.3809E-03  0.1198E+00
     17.836  0.3384E-03  0.1198E+00
     17.849  0.3006E-03  0.1198E+00
     17.862  0.2688E-03  0.1198E+00
     17.875  0.2441E-03  0.1198E+00
     17.889  0.2273E-03  0.1198E+00
     17.902  0.2188E-03  0.1198E+00
     17.915  0.2185E-03  0.1198E+00
     17.929  0.2260E-03  0.1198E+00
     17.942  0.2408E-03  0.1198E+00
     17.955  0.2616E-03  0.1198E+00
     17.969  0.2874E-03  0.1198E+00
     17.982  0.3166E-03  0.1198E+00
     17.995  0.3478E-03  0.1198E+00
     18.008  0.3793E-03  0.1198E+00
     18.022  0.4097E-03  0.1198E+00
     18.035  0.4374E-03  0.1198E+00
     18.048  0.4611E-03  0.1198E+00
     18.062  0.4797E-03  0.1199E+00
     18.075  0.4923E-03  0.1199E+00
     18.088  0.4984E-03  0.1199E+00
     18.101  0.4977E-03  0.1199E+00
     18.115  0.4901E-03  0.1199E+00
     18.128  0.4759E-03  0.1199E+00
     18.141  0.4558E-03  0.1199E+00
     18.155  0.4304E-03  0.1199E+00
     18.168  0.4009E-03  0.1199E+00
     18.181  0.3682E-03  0.1199E+00
     18.195  0.3338E-03  0.1199E+00
     18.208  0.2987E-03  0.1199E+00
     18.221  0.2642E-03  0.1199E+00
     18.234  0.2316E-03  0.1199E+00
     18.248  0.2018E-03  0.1199E+00
     18.261  0.1758E-03  0.1199E+00
     18.274  0.1542E-03  0.1199E+00
     18.288  0.1376E-03  0.1199E+00
     18.301  0.1260E-03  0.1199E+00
     18.314  0.1197E-03  0.1199E+00
     18.328  0.1182E-03  0.1199E+00
     18.341  0.1213E-03  0.1199E+00
     18.354  0.1283E-03  0.1199E+00
     18.367  0.1384E-03  0.1199E+00
     18.381  0.1508E-03  0.1199E+00
     18.394  0.1645E-03  0.1199E+00
     18.407  0.1787E-03  0.1199E+00
     18.421  0.1923E-03  0.1200E+00
     18.434  0.2047E-03  0.1200E+00
     18.447  0.2149E-03  0.1200E+00
     18.460  0.2224E-03  0.1200E+00
     18.474  0.2268E-03  0.1200E+00
     18.487  0.2278E-03  0.1200E+00
     18.500  0.2253E-03  0.1200E+00
     18.514  0.2193E-03  0.1200E+00
     18.527  0.2101E-03  0.1200E+00
     18.540  0.1980E-03  0.1200E+00
     18.554  0.1835E-03  0.1200E+00
     18.567  0.1670E-03  0.1200E+00
     18.580  0.1493E-03  0.1200E+00
     18.593  0.1308E-03  0.1200E+00
     18.607  0.1121E-03  0.1200E+00
     18.620  0.9381E-04  0.1200E+00
     18.633  0.7632E-04  0.1200E+00
     18.647  0.6002E-04  0.1200E+00
     18.660  0.4521E-04  0.1200E+00
     18.673  0.3208E-04  0.1200E+00
     18.687  0.2075E-04  0.1200E+00
     18.700  0.1123E-04  0.1200E+00
     18.713  0.3501E-05  0.1200E+00
     18.726 -0.2554E-05  0.1200E+00
     18.740 -0.7077E-05  0.1200E+00
     18.753 -0.1025E-04  0.1200E+00
     18.766 -0.1225E-04  0.1200E+00
     18.780 -0.1330E-04  0.1200E+00
     18.793 -0.1358E-04  0.1200E+00
     18.806 -0.1328E-04  0.1200E+00
     18.820 -0.1255E-04  0.1200E+00
     18.833 -0.1154E-04  0.1200E+00
     18.846 -0.1037E-04  0.1200E+00
     18.859 -0.9133E-05  0.1200E+00
     18.873 -0.7901E-05  0.1200E+00
     18.886 -0.6729E-05  0.1200E+00
     18.899 -0.5652E-05  0.1200E+00
     18.913 -0.4693E-05  0.1200E+00
     18.926 -0.3863E-05  0.1200E+00
     18.939 -0.3164E-05  0.1200E+00
     18.952 -0.2594E-05  0.1200E+00
     18.966 -0.2145E-05  0.1200E+00
     18.979 -0.1807E-05  0.1200E+00
     18.992 -0.1570E-05  0.1200E+00
     19.006 -0.1423E-05  0.1200E+00
     19.019 -0.1355E-05  0.1200E+00
     19.032 -0.1356E-05  0.1200E+00
     19.046 -0.1414E-05  0.1200E+00
     19.059 -0.1518E-05  0.1200E+00
     19.072 -0.1656E-05  0.1200E+00
     19.085 -0.1814E-05  0.1200E+00
     19.099 -0.1976E-05  0.1200E+00
     19.112 -0.2123E-05  0.1200E+00
     19.125 -0.2234E-05  0.1200E+00
     19.139 -0.2282E-05  0.1200E+00
     19.152 -0.2240E-05  0.1200E+00
     19.165 -0.2076E-05  0.1200E+00
     19.179 -0.1757E-05  0.1200E+00
     19.192 -0.1248E-05  0.1200E+00
     19.205 -0.5163E-06  0.1200E+00
     19.218  0.4703E-06  0.1200E+00
     19.232  0.1738E-05  0.1200E+00
     19.245  0.3307E-05  0.1200E+00
     19.258  0.5188E-05  0.1200E+00
     19.272  0.7381E-05  0.1200E+00
     19.285  0.9871E-05  0.1200E+00
     19.298  0.1263E-04  0.1200E+00
     19.311  0.1562E-04  0.1200E+00
     19.325  0.1878E-04  0.1200E+00
     19.338  0.2203E-04  0.1200E+00
     19.351  0.2530E-04  0.1200E+00
     19.365  0.2850E-04  0.1200E+00
     19.378  0.3153E-04  0.1200E+00
     19.391  0.3429E-04  0.1200E+00
     19.405  0.3669E-04  0.1200E+00
     19.418  0.3866E-04  0.1200E+00
     19.431  0.4011E-04  0.1200E+00
     19.444  0.4100E-04  0.1200E+00
     19.458  0.4130E-04  0.1200E+00
     19.471  0.4099E-04  0.1200E+00
     19.484  0.4008E-04  0.1200E+00
     19.498  0.3862E-04  0.1200E+00
     19.511  0.3664E-04  0.1200E+00
     19.524  0.3423E-04  0.1200E+00
     19.538  0.3146E-04  0.1200E+00
     19.551  0.2843E-04  0.1200E+00
     19.564  0.2523E-04  0.1200E+00
     19.577  0.2195E-04  0.1200E+00
     19.591  0.1870E-04  0.1200E+00
     19.604  0.1555E-04  0.1200E+00
     19.617  0.1256E-04  0.1200E+00
     19.631  0.9810E-05  0.1200E+00
     19.644  0.7326E-05  0.1200E+00
     19.657  0.5141E-05  0.1200E+00
     19.670  0.3268E-05  0.1200E+00
     19.684  0.1706E-05  0.1200E+00
     19.697  0.4460E-06  0.1200E+00
     19.710 -0.5330E-06  0.1200E+00
     19.724 -0.1257E-05  0.1200E+00
     19.737 -0.1758E-05  0.1200E+00
     19.750 -0.2069E-05  0.1200E+00
     19.764 -0.2224E-05  0.1200E+00
     19.777 -0.2255E-05  0.1200E+00
     19.790 -0.2192E-05  0.1200E+00
     19.803 -0.2062E-05  0.1200E+00
     19.817 -0.1888E-05  0.1200E+00
     19.830 -0.1690E-05  0.1200E+00
     19.843 -0.1482E-05  0.1200E+00
     19.857 -0.1276E-05  0.1200E+00
     19.870 -0.1081E-05  0.1200E+00
     19.883 -0.9011E-06  0.1200E+00
     19.897 -0.7404E-06  0.1200E+00
     19.910 -0.5999E-06  0.1200E+00
     19.923 -0.4796E-06  0.1200E+00
     19.936 -0.3786E-06  0.1200E+00
     19.950 -0.2951E-06  0.1200E+00
     19.963 -0.2273E-06  0.1200E+00
     19.976 -0.1730E-06  0.1200E+00
     19.990 -0.1302E-06  0.1200E+00
     20.003 -0.9690E-07  0.1200E+00
     20.016 -0.7131E-07  0.1200E+00
     20.029 -0.5191E-07  0.1200E+00
     20.043 -0.3738E-07  0.1200E+00
     20.056 -0.2663E-07  0.1200E+00
     20.069 -0.1878E-07  0.1200E+00
     20.083 -0.1310E-07  0.1200E+00
     20.096 -0.9050E-08  0.1200E+00
     20.109 -0.6187E-08  0.1200E+00
     20.123 -0.4187E-08  0.1200E+00
     20.136 -0.2805E-08  0.1200E+00
     20.149 -0.1861E-08  0.1200E+00
     20.162 -0.1222E-08  0.1200E+00
     20.176 -0.7949E-09  0.1200E+00
     20.189 -0.5119E-09  0.1200E+00
     20.202 -0.3264E-09  0.1200E+00
     20.216 -0.2062E-09  0.1200E+00
     20.229 -0.1289E-09  0.1200E+00
     20.242 -0.7988E-10  0.1200E+00
     20.256 -0.4901E-10  0.1200E+00
     20.269 -0.2978E-10  0.1200E+00
     20.282 -0.1793E-10  0.1200E+00
     20.295 -0.1069E-10  0.1200E+00
     20.309 -0.6313E-11  0.1200E+00
     20.322 -0.3693E-11  0.1200E+00
     20.335 -0.2140E-11  0.1200E+00
     20.349 -0.1229E-11  0.1200E+00
     20.362 -0.6989E-12  0.1200E+00
     20.375 -0.3938E-12  0.1200E+00
     20.388 -0.2198E-12  0.1200E+00
     20.402 -0.1215E-12  0.1200E+00
     20.415 -0.6659E-13  0.1200E+00
     20.428 -0.3615E-13  0.1200E+00
     20.442 -0.1944E-13  0.1200E+00
     20.455 -0.1036E-13  0.1200E+00
     20.468 -0.5468E-14  0.1200E+00
     20.482 -0.2860E-14  0.1200E+00
     20.495 -0.1482E-14  0.1200E+00
     20.508 -0.7610E-15  0.1200E+00
     20.521 -0.3872E-15  0.1200E+00
     20.535 -0.1952E-15  0.1200E+00
     20.548 -0.9744E-16  0.1200E+00
     20.561 -0.4827E-16  0.1200E+00
     20.575 -0.2365E-16  0.1200E+00
     20.588 -0.1150E-16  0.1200E+00
     20.601 -0.5545E-17  0.1200E+00
     20.615 -0.2650E-17  0.1200E+00
     20.628 -0.1182E-17  0.1200E+00
     20.641 -0.6523E-18  0.1200E+00
     20.654 -0.2854E-18  0.1200E+00
     20.668 -0.4077E-19  0.1200E+00
     20.681 -0.1631E-18  0.1200E+00
     20.694  0.0000E+00  0.1200E+00
     20.708  0.0000E+00  0.1200E+00
     20.721  0.0000E+00  0.1200E+00
     20.734  0.0000E+00  0.1200E+00
     20.747  0.0000E+00  0.1200E+00
     20.761  0.0000E+00  0.1200E+00
     20.774  0.0000E+00  0.1200E+00
     20.787  0.0000E+00  0.1200E+00
     20.801  0.0000E+00  0.1200E+00
     20.814  0.0000E+00  0.1200E+00
     20.827  0.0000E+00  0.1200E+00
     20.841  0.0000E+00  0.1200E+00
     20.854  0.0000E+00  0.1200E+00
     20.867  0.0000E+00  0.1200E+00
     20.880  0.0000E+00  0.1200E+00
     20.894  0.0000E+00  0.1200E+00
     20.907  0.0000E+00  0.1200E+00
     20.920  0.0000E+00  0.1200E+00
     20.934  0.0000E+00  0.1200E+00
     20.947  0.0000E+00  0.1200E+00
     20.960  0.0000E+00  0.1200E+00
     20.974  0.0000E+00  0.1200E+00
     20.987  0.0000E+00  0.1200E+00
     21.000  0.0000E+00  0.1200E+00
     21.013  0.0000E+00  0.1200E+00
     21.027  0.0000E+00  0.1200E+00
     21.040  0.0000E+00  0.1200E+00
     21.053  0.0000E+00  0.1200E+00
     21.067  0.0000E+00  0.1200E+00
     21.080  0.0000E+00  0.1200E+00
     21.093  0.0000E+00  0.1200E+00
     21.107  0.0000E+00  0.1200E+00
     21.120  0.0000E+00  0.1200E+00
     21.133  0.0000E+00  0.1200E+00
     21.146  0.0000E+00  0.1200E+00
     21.160  0.0000E+00  0.1200E+00
     21.173  0.0000E+00  0.1200E+00
     21.186  0.0000E+00  0.1200E+00
     21.200  0.0000E+00  0.1200E+00
     21.213  0.0000E+00  0.1200E+00
     21.226  0.0000E+00  0.1200E+00
     21.239  0.0000E+00  0.1200E+00
     21.253  0.0000E+00  0.1200E+00
     21.266  0.0000E+00  0.1200E+00
     21.279  0.0000E+00  0.1200E+00
     21.293  0.0000E+00  0.1200E+00
     21.306  0.0000E+00  0.1200E+00
     21.319  0.0000E+00  0.1200E+00
     21.333  0.0000E+00  0.1200E+00
     21.346  0.0000E+00  0.1200E+00
     21.359  0.0000E+00  0.1200E+00
     21.372  0.0000E+00  0.1200E+00
     21.386  0.0000E+00  0.1200E+00
     21.399  0.0000E+00  0.1200E+00
     21.412  0.0000E+00  0.1200E+00
     21.426  0.0000E+00  0.1200E+00
     21.439  0.0000E+00  0.1200E+00
     21.452  0.0000E+00  0.1200E+00
