       N       E                     dE             d eps       ncg     rms          rms(c)
DAV:   1     0.158168045581E+03    0.15817E+03   -0.16592E+04 21228   0.196E+03
DAV:   2    -0.218408998584E+02   -0.18001E+03   -0.17378E+03 21156   0.294E+02
DAV:   3    -0.262728975139E+02   -0.44320E+01   -0.43813E+01 27864   0.653E+01
DAV:   4    -0.263140392097E+02   -0.41142E-01   -0.41132E-01 24792   0.501E+00
DAV:   5    -0.263150566701E+02   -0.10175E-02   -0.10174E-02 28752   0.789E-01    0.173E+01
DAV:   6    -0.275333914549E+02   -0.12183E+01   -0.53237E+01 23652   0.118E+02    0.174E+01
DAV:   7    -0.222778977118E+02    0.52555E+01   -0.23002E+01 24228   0.637E+01    0.198E+00
DAV:   8    -0.222092595288E+02    0.68638E-01   -0.25931E-01 23748   0.396E+00    0.641E-01
DAV:   9    -0.222039916941E+02    0.52678E-02   -0.11572E-02 30600   0.134E+00    0.490E-01
DAV:  10    -0.222043281327E+02   -0.33644E-03   -0.48792E-04 25872   0.280E-01    0.562E-01
DAV:  11    -0.222022086650E+02    0.21195E-02   -0.80632E-04 29100   0.336E-01    0.386E-01
DAV:  12    -0.222017976783E+02    0.41099E-03   -0.35223E-04 27096   0.226E-01    0.316E-01
DAV:  13    -0.222014960581E+02    0.30162E-03   -0.17220E-04 29160   0.180E-01    0.304E-01
DAV:  14    -0.222012733619E+02    0.22270E-03   -0.10037E-04 27360   0.135E-01    0.249E-01
DAV:  15    -0.222010033961E+02    0.26997E-03   -0.13248E-04 26496   0.155E-01    0.202E-01
DAV:  16    -0.222009306663E+02    0.72730E-04   -0.62779E-05 28512   0.113E-01    0.159E-01
DAV:  17    -0.222008263811E+02    0.10429E-03   -0.64349E-05 26184   0.111E-01    0.122E-01
DAV:  18    -0.222006590250E+02    0.16736E-03   -0.31353E-04 26220   0.234E-01    0.582E-02
DAV:  19    -0.222007509725E+02   -0.91947E-04   -0.59588E-05 26388   0.134E-01    0.922E-03
DAV:  20    -0.222007591130E+02   -0.81405E-05   -0.13059E-05 28656   0.490E-02    0.933E-03
DAV:  21    -0.222007642171E+02   -0.51040E-05   -0.31882E-06 29436   0.278E-02    0.205E-02
DAV:  22    -0.222007623166E+02    0.19005E-05   -0.70199E-07 22248   0.129E-02    0.230E-02
DAV:  23    -0.222007598407E+02    0.24759E-05   -0.73076E-07 20892   0.114E-02    0.202E-02
DAV:  24    -0.222007575123E+02    0.23284E-05   -0.14480E-06 25404   0.161E-02    0.152E-02
DAV:  25    -0.222007559975E+02    0.15148E-05   -0.24515E-06 26580   0.211E-02    0.834E-03
DAV:  26    -0.222007564134E+02   -0.41595E-06   -0.14785E-06 23820   0.173E-02    0.171E-03
DAV:  27    -0.222007568517E+02   -0.43830E-06   -0.29561E-07 10752   0.933E-03    0.196E-03
DAV:  28    -0.222007568242E+02    0.27578E-07   -0.66152E-08 10752   0.358E-03
   1 F= -.22200757E+02 E0= -.22196585E+02  d E =-.222008E+02  mag=     0.0006
