       N       E                     dE             d eps       ncg     rms          rms(c)
DAV:   1     0.228960896834E+03    0.22896E+03   -0.20995E+04 27288   0.216E+03
DAV:   2    -0.173710336120E+02   -0.24633E+03   -0.23648E+03 26436   0.322E+02
DAV:   3    -0.262212078977E+02   -0.88502E+01   -0.86222E+01 29280   0.836E+01
DAV:   4    -0.262794487026E+02   -0.58241E-01   -0.58221E-01 28842   0.728E+00
DAV:   5    -0.262795906359E+02   -0.14193E-03   -0.14193E-03 29244   0.319E-01    0.163E+01
DAV:   6    -0.235939469465E+02    0.26856E+01   -0.28092E+01 28794   0.800E+01    0.779E+00
DAV:   7    -0.223571726060E+02    0.12368E+01   -0.59253E+00 29100   0.322E+01    0.186E+00
DAV:   8    -0.223069809279E+02    0.50192E-01   -0.35661E-02 33576   0.186E+00    0.760E-01
DAV:   9    -0.222923357031E+02    0.14645E-01   -0.77037E-03 37278   0.967E-01    0.201E-01
DAV:  10    -0.222925037353E+02   -0.16803E-03   -0.78248E-04 32796   0.241E-01    0.165E-01
DAV:  11    -0.222924875544E+02    0.16181E-04   -0.11907E-04 30510   0.115E-01    0.244E-02
DAV:  12    -0.222924917451E+02   -0.41907E-05   -0.52407E-06 29298   0.249E-02    0.144E-02
DAV:  13    -0.222924858715E+02    0.58736E-05   -0.23769E-06 29934   0.194E-02    0.396E-03
DAV:  14    -0.222924839029E+02    0.19686E-05   -0.25399E-07 21054   0.540E-03    0.176E-03
DAV:  15    -0.222924839385E+02   -0.35639E-07   -0.23051E-08 14280   0.142E-03
   1 F= -.22292484E+02 E0= -.22289593E+02  d E =-.222925E+02  mag=     2.5041
