       N       E                     dE             d eps       ncg     rms          rms(c)
DAV:   1     0.536204319451E+01    0.53620E+01   -0.49904E+03  3960   0.875E+02
DAV:   2    -0.149074452896E+02   -0.20269E+02   -0.19553E+02  5520   0.702E+01
DAV:   3    -0.150733700328E+02   -0.16592E+00   -0.16506E+00  5616   0.824E+00
DAV:   4    -0.150737422073E+02   -0.37217E-03   -0.37214E-03  6300   0.372E-01
DAV:   5    -0.150737427792E+02   -0.57190E-06   -0.57152E-06  5772   0.103E-02    0.187E+00
DAV:   6    -0.150217265188E+02    0.52016E-01   -0.67533E-03  5484   0.523E-01    0.116E+00
DAV:   7    -0.149837204556E+02    0.38006E-01   -0.21046E-02  4824   0.864E-01    0.496E-02
DAV:   8    -0.149837382505E+02   -0.17795E-04   -0.10555E-04  6468   0.877E-02    0.128E-02
DAV:   9    -0.149837411743E+02   -0.29238E-05   -0.21935E-06  5736   0.849E-03    0.130E-03
DAV:  10    -0.149837400560E+02    0.11183E-05   -0.15575E-08  5940   0.103E-03    0.323E-04
DAV:  11    -0.149837398639E+02    0.19208E-06   -0.11541E-09  3840   0.246E-04    0.274E-05
DAV:  12    -0.149837398953E+02   -0.31354E-07   -0.80314E-11  3504   0.543E-05
   1 F= -.14983740E+02 E0= -.14983981E+02  d E =-.149837E+02
