       N       E                     dE             d eps       ncg     rms          rms(c)
DAV:   1     0.159779252054E+03    0.15978E+03   -0.16670E+04 21228   0.200E+03
DAV:   2    -0.216917237855E+02   -0.18147E+03   -0.17528E+03 21144   0.298E+02
DAV:   3    -0.262096498199E+02   -0.45179E+01   -0.44667E+01 27888   0.662E+01
DAV:   4    -0.262509149782E+02   -0.41265E-01   -0.41257E-01 24564   0.506E+00
DAV:   5    -0.262519347387E+02   -0.10198E-02   -0.10198E-02 28656   0.802E-01    0.176E+01
DAV:   6    -0.267916555342E+02   -0.53972E+00   -0.50053E+01 23784   0.117E+02    0.164E+01
DAV:   7    -0.221997486995E+02    0.45919E+01   -0.21062E+01 24396   0.621E+01    0.222E+00
DAV:   8    -0.221362523723E+02    0.63496E-01   -0.20515E-01 23436   0.369E+00    0.114E+00
DAV:   9    -0.221133010709E+02    0.22951E-01   -0.28441E-02 29244   0.217E+00    0.639E-01
DAV:  10    -0.221145078744E+02   -0.12068E-02   -0.16560E-03 25836   0.508E-01    0.446E-01
DAV:  11    -0.221170607197E+02   -0.25528E-02   -0.85264E-03 26052   0.127E+00    0.125E-01
DAV:  12    -0.221178235453E+02   -0.76283E-03   -0.71173E-04 28308   0.402E-01    0.464E-02
DAV:  13    -0.221178647278E+02   -0.41183E-04   -0.48628E-05 30288   0.944E-02    0.348E-02
DAV:  14    -0.221178826697E+02   -0.17942E-04   -0.43188E-05 25776   0.884E-02    0.492E-03
DAV:  15    -0.221178845727E+02   -0.19030E-05   -0.29678E-06 20532   0.255E-02    0.794E-03
DAV:  16    -0.221178854065E+02   -0.83382E-06   -0.18654E-06 12432   0.201E-02
   1 F= -.22117885E+02 E0= -.22118761E+02  d E =-.221179E+02  mag=     0.7120
