       N       E                     dE             d eps       ncg     rms          rms(c)
DAV:   1     0.157071993042E+03    0.15707E+03   -0.16520E+04 21180   0.192E+03
DAV:   2    -0.216149936211E+02   -0.17869E+03   -0.17246E+03 21156   0.291E+02
DAV:   3    -0.259600719786E+02   -0.43451E+01   -0.42906E+01 28392   0.642E+01
DAV:   4    -0.259990185468E+02   -0.38947E-01   -0.38940E-01 24576   0.483E+00
DAV:   5    -0.259999648843E+02   -0.94634E-03   -0.94633E-03 29448   0.745E-01    0.172E+01
DAV:   6    -0.279265048777E+02   -0.19265E+01   -0.54227E+01 23568   0.119E+02    0.188E+01
DAV:   7    -0.221590099718E+02    0.57675E+01   -0.24666E+01 24132   0.649E+01    0.187E+00
DAV:   8    -0.221262172128E+02    0.32793E-01   -0.25685E-01 22740   0.366E+00    0.117E+00
DAV:   9    -0.221114042604E+02    0.14813E-01   -0.35590E-02 28116   0.222E+00    0.642E-01
DAV:  10    -0.221120804842E+02   -0.67622E-03   -0.23681E-03 28668   0.584E-01    0.197E-01
DAV:  11    -0.221117648285E+02    0.31566E-03   -0.15106E-03 27576   0.471E-01    0.992E-02
DAV:  12    -0.221118781532E+02   -0.11332E-03   -0.24694E-04 26832   0.206E-01    0.224E-02
DAV:  13    -0.221118733691E+02    0.47842E-05   -0.20897E-05 26064   0.448E-02    0.294E-02
DAV:  14    -0.221118804214E+02   -0.70523E-05   -0.84297E-06 24552   0.372E-02    0.800E-03
DAV:  15    -0.221118797058E+02    0.71552E-06   -0.19821E-06 12804   0.182E-02
   1 F= -.22111880E+02 E0= -.22113492E+02  d E =-.221119E+02  mag=     0.7734
