   4   4   0   0
  0.1137482E+02  0.3570000E-09  0.3570000E-09  0.3570000E-09  0.5000000E-15
  1.000000000000000E-004
  CAR 
 Ni3Al L12                               
     26.23941177     -5.78875676 2000      6.07223669      1.00000000
     -5.789  0.0000E+00  0.0000E+00  0.0000E+00  0.0000E+00
     -5.773  0.0000E+00  0.0000E+00  0.0000E+00  0.0000E+00
     -5.757  0.0000E+00  0.0000E+00  0.0000E+00  0.0000E+00
     -5.741  0.0000E+00  0.0000E+00  0.0000E+00  0.0000E+00
     -5.725  0.0000E+00  0.0000E+00  0.0000E+00  0.0000E+00
     -5.709  0.0000E+00  0.0000E+00  0.0000E+00  0.0000E+00
     -5.693  0.0000E+00  0.0000E+00  0.0000E+00  0.0000E+00
     -5.677  0.0000E+00  0.0000E+00  0.0000E+00  0.0000E+00
     -5.661  0.0000E+00  0.0000E+00  0.0000E+00  0.0000E+00
     -5.645  0.0000E+00  0.0000E+00  0.0000E+00  0.0000E+00
     -5.629  0.0000E+00  0.0000E+00  0.0000E+00  0.0000E+00
     -5.613  0.0000E+00  0.0000E+00  0.0000E+00  0.0000E+00
     -5.596  0.0000E+00  0.0000E+00  0.0000E+00  0.0000E+00
     -5.580  0.0000E+00  0.0000E+00  0.0000E+00  0.0000E+00
     -5.564  0.0000E+00  0.0000E+00  0.0000E+00  0.0000E+00
     -5.548  0.0000E+00  0.0000E+00  0.0000E+00  0.0000E+00
     -5.532  0.0000E+00  0.0000E+00  0.0000E+00  0.0000E+00
     -5.516  0.0000E+00  0.0000E+00  0.0000E+00  0.0000E+00
     -5.500  0.0000E+00  0.0000E+00  0.0000E+00  0.0000E+00
     -5.484  0.0000E+00  0.0000E+00  0.0000E+00  0.0000E+00
     -5.468  0.0000E+00  0.0000E+00  0.0000E+00  0.0000E+00
     -5.452  0.0000E+00  0.0000E+00  0.0000E+00  0.0000E+00
     -5.436  0.0000E+00  0.0000E+00  0.0000E+00  0.0000E+00
     -5.420  0.0000E+00  0.0000E+00  0.0000E+00  0.0000E+00
     -5.404 -0.5635E-32 -0.5639E-32 -0.9029E-34 -0.9034E-34
     -5.388 -0.1459E-31 -0.1460E-31 -0.3240E-33 -0.3242E-33
     -5.372 -0.5142E-31 -0.5145E-31 -0.1148E-32 -0.1149E-32
     -5.356 -0.2578E-30 -0.2579E-30 -0.5278E-32 -0.5281E-32
     -5.340 -0.8161E-30 -0.8165E-30 -0.1835E-31 -0.1836E-31
     -5.324 -0.2890E-29 -0.2892E-29 -0.6465E-31 -0.6469E-31
     -5.308 -0.9662E-29 -0.9668E-29 -0.2195E-30 -0.2196E-30
     -5.292 -0.3226E-28 -0.3227E-28 -0.7363E-30 -0.7367E-30
     -5.276 -0.1061E-27 -0.1062E-27 -0.2437E-29 -0.2438E-29
     -5.260 -0.3449E-27 -0.3451E-27 -0.7963E-29 -0.7967E-29
     -5.244 -0.1107E-26 -0.1107E-26 -0.2569E-28 -0.2571E-28
     -5.228 -0.3506E-26 -0.3507E-26 -0.8186E-28 -0.8190E-28
     -5.212 -0.1096E-25 -0.1097E-25 -0.2575E-27 -0.2577E-27
     -5.196 -0.3385E-25 -0.3387E-25 -0.7999E-27 -0.8003E-27
     -5.180 -0.1032E-24 -0.1033E-24 -0.2453E-26 -0.2455E-26
     -5.164 -0.3106E-24 -0.3108E-24 -0.7430E-26 -0.7434E-26
     -5.148 -0.9231E-24 -0.9235E-24 -0.2222E-25 -0.2223E-25
     -5.132 -0.2708E-23 -0.2710E-23 -0.6561E-25 -0.6564E-25
     -5.116 -0.7845E-23 -0.7849E-23 -0.1913E-24 -0.1914E-24
     -5.100 -0.2244E-22 -0.2245E-22 -0.5508E-24 -0.5510E-24
     -5.084 -0.6335E-22 -0.6338E-22 -0.1566E-23 -0.1567E-23
     -5.068 -0.1766E-21 -0.1767E-21 -0.4395E-23 -0.4397E-23
     -5.052 -0.4861E-21 -0.4863E-21 -0.1218E-22 -0.1219E-22
     -5.036 -0.1321E-20 -0.1321E-20 -0.3335E-22 -0.3336E-22
     -5.020 -0.3544E-20 -0.3545E-20 -0.9013E-22 -0.9017E-22
     -5.004 -0.9387E-20 -0.9392E-20 -0.2405E-21 -0.2406E-21
     -4.988 -0.2455E-19 -0.2456E-19 -0.6339E-21 -0.6342E-21
     -4.972 -0.6042E-19 -0.6045E-19 -0.1602E-20 -0.1603E-20
     -4.956 -0.1616E-18 -0.1617E-18 -0.4191E-20 -0.4193E-20
     -4.940 -0.3979E-18 -0.3980E-18 -0.1057E-19 -0.1057E-19
     -4.924 -0.9781E-18 -0.9786E-18 -0.2624E-19 -0.2625E-19
     -4.908 -0.2403E-17 -0.2404E-17 -0.6473E-19 -0.6476E-19
     -4.892 -0.5799E-17 -0.5802E-17 -0.1577E-18 -0.1577E-18
     -4.875 -0.1391E-16 -0.1392E-16 -0.3806E-18 -0.3807E-18
     -4.859 -0.3277E-16 -0.3278E-16 -0.9055E-18 -0.9059E-18
     -4.843 -0.7638E-16 -0.7641E-16 -0.2129E-17 -0.2130E-17
     -4.827 -0.1755E-15 -0.1756E-15 -0.4941E-17 -0.4943E-17
     -4.811 -0.3984E-15 -0.3986E-15 -0.1132E-16 -0.1133E-16
     -4.795 -0.8928E-15 -0.8931E-15 -0.2563E-16 -0.2564E-16
     -4.779 -0.1975E-14 -0.1976E-14 -0.5727E-16 -0.5729E-16
     -4.763 -0.4313E-14 -0.4315E-14 -0.1264E-15 -0.1264E-15
     -4.747 -0.9299E-14 -0.9302E-14 -0.2754E-15 -0.2755E-15
     -4.731 -0.1979E-13 -0.1980E-13 -0.5925E-15 -0.5927E-15
     -4.715 -0.4159E-13 -0.4160E-13 -0.1259E-14 -0.1259E-14
     -4.699 -0.8626E-13 -0.8628E-13 -0.2641E-14 -0.2642E-14
     -4.683 -0.1766E-12 -0.1767E-12 -0.5471E-14 -0.5472E-14
     -4.667 -0.3570E-12 -0.3571E-12 -0.1119E-13 -0.1119E-13
     -4.651 -0.7123E-12 -0.7125E-12 -0.2260E-13 -0.2261E-13
     -4.635 -0.1403E-11 -0.1403E-11 -0.4508E-13 -0.4510E-13
     -4.619 -0.2728E-11 -0.2728E-11 -0.8878E-13 -0.8881E-13
     -4.603 -0.5235E-11 -0.5236E-11 -0.1727E-12 -0.1727E-12
     -4.587 -0.9916E-11 -0.9919E-11 -0.3315E-12 -0.3316E-12
     -4.571 -0.1854E-10 -0.1855E-10 -0.6286E-12 -0.6288E-12
     -4.555 -0.3422E-10 -0.3423E-10 -0.1177E-11 -0.1177E-11
     -4.539 -0.6233E-10 -0.6234E-10 -0.2175E-11 -0.2176E-11
     -4.523 -0.1120E-09 -0.1121E-09 -0.3971E-11 -0.3972E-11
     -4.507 -0.1988E-09 -0.1989E-09 -0.7156E-11 -0.7158E-11
     -4.491 -0.3481E-09 -0.3482E-09 -0.1273E-10 -0.1274E-10
     -4.475 -0.6016E-09 -0.6018E-09 -0.2237E-10 -0.2238E-10
     -4.459 -0.1026E-08 -0.1026E-08 -0.3881E-10 -0.3882E-10
     -4.443 -0.1727E-08 -0.1727E-08 -0.6648E-10 -0.6650E-10
     -4.427 -0.2867E-08 -0.2868E-08 -0.1124E-09 -0.1124E-09
     -4.411 -0.4699E-08 -0.4700E-08 -0.1877E-09 -0.1877E-09
     -4.395 -0.7596E-08 -0.7598E-08 -0.3094E-09 -0.3095E-09
     -4.379 -0.1212E-07 -0.1212E-07 -0.5035E-09 -0.5036E-09
     -4.363 -0.1907E-07 -0.1907E-07 -0.8090E-09 -0.8092E-09
     -4.347 -0.2960E-07 -0.2960E-07 -0.1283E-08 -0.1283E-08
     -4.331 -0.4531E-07 -0.4532E-07 -0.2009E-08 -0.2010E-08
     -4.315 -0.6843E-07 -0.6845E-07 -0.3106E-08 -0.3106E-08
     -4.299 -0.1019E-06 -0.1019E-06 -0.4739E-08 -0.4740E-08
     -4.283 -0.1497E-06 -0.1497E-06 -0.7137E-08 -0.7138E-08
     -4.267 -0.2168E-06 -0.2168E-06 -0.1061E-07 -0.1061E-07
     -4.251 -0.3094E-06 -0.3095E-06 -0.1557E-07 -0.1557E-07
     -4.235 -0.4354E-06 -0.4355E-06 -0.2254E-07 -0.2255E-07
     -4.219 -0.6037E-06 -0.6038E-06 -0.3222E-07 -0.3222E-07
     -4.203 -0.8248E-06 -0.8249E-06 -0.4543E-07 -0.4544E-07
     -4.187 -0.1110E-05 -0.1110E-05 -0.6322E-07 -0.6322E-07
     -4.171 -0.1471E-05 -0.1471E-05 -0.8678E-07 -0.8679E-07
     -4.155 -0.1918E-05 -0.1919E-05 -0.1175E-06 -0.1175E-06
     -4.138 -0.2462E-05 -0.2462E-05 -0.1570E-06 -0.1570E-06
     -4.122 -0.3107E-05 -0.3107E-05 -0.2067E-06 -0.2068E-06
     -4.106 -0.3853E-05 -0.3853E-05 -0.2685E-06 -0.2685E-06
     -4.090 -0.4691E-05 -0.4691E-05 -0.3436E-06 -0.3437E-06
     -4.074 -0.5600E-05 -0.5601E-05 -0.4334E-06 -0.4334E-06
     -4.058 -0.6547E-05 -0.6547E-05 -0.5383E-06 -0.5383E-06
     -4.042 -0.7480E-05 -0.7480E-05 -0.6581E-06 -0.6581E-06
     -4.026 -0.8326E-05 -0.8327E-05 -0.7915E-06 -0.7916E-06
     -4.010 -0.8995E-05 -0.8995E-05 -0.9356E-06 -0.9357E-06
     -3.994 -0.9370E-05 -0.9370E-05 -0.1086E-05 -0.1086E-05
     -3.978 -0.9317E-05 -0.9317E-05 -0.1235E-05 -0.1235E-05
     -3.962 -0.8679E-05 -0.8679E-05 -0.1374E-05 -0.1374E-05
     -3.946 -0.7288E-05 -0.7287E-05 -0.1491E-05 -0.1491E-05
     -3.930 -0.4964E-05 -0.4963E-05 -0.1570E-05 -0.1570E-05
     -3.914 -0.1527E-05 -0.1525E-05 -0.1595E-05 -0.1595E-05
     -3.898  0.3197E-05  0.3199E-05 -0.1544E-05 -0.1544E-05
     -3.882  0.9361E-05  0.9364E-05 -0.1394E-05 -0.1394E-05
     -3.866  0.1709E-04  0.1710E-04 -0.1120E-05 -0.1120E-05
     -3.850  0.2649E-04  0.2649E-04 -0.6953E-06 -0.6951E-06
     -3.834  0.3759E-04  0.3760E-04 -0.9308E-07 -0.9275E-07
     -3.818  0.5039E-04  0.5040E-04  0.7143E-06  0.7148E-06
     -3.802  0.6484E-04  0.6485E-04  0.1753E-05  0.1754E-05
     -3.786  0.8082E-04  0.8083E-04  0.3048E-05  0.3049E-05
     -3.770  0.9816E-04  0.9817E-04  0.4621E-05  0.4622E-05
     -3.754  0.1167E-03  0.1167E-03  0.6490E-05  0.6491E-05
     -3.738  0.1361E-03  0.1361E-03  0.8670E-05  0.8672E-05
     -3.722  0.1562E-03  0.1562E-03  0.1117E-04  0.1117E-04
     -3.706  0.1766E-03  0.1766E-03  0.1400E-04  0.1400E-04
     -3.690  0.1972E-03  0.1972E-03  0.1716E-04  0.1716E-04
     -3.674  0.2176E-03  0.2176E-03  0.2065E-04  0.2065E-04
     -3.658  0.2377E-03  0.2377E-03  0.2446E-04  0.2446E-04
     -3.642  0.2573E-03  0.2573E-03  0.2858E-04  0.2858E-04
     -3.626  0.2763E-03  0.2763E-03  0.3300E-04  0.3301E-04
     -3.610  0.2945E-03  0.2945E-03  0.3772E-04  0.3773E-04
     -3.594  0.3120E-03  0.3120E-03  0.4272E-04  0.4273E-04
     -3.578  0.3288E-03  0.3288E-03  0.4799E-04  0.4799E-04
     -3.562  0.3449E-03  0.3449E-03  0.5352E-04  0.5352E-04
     -3.546  0.3602E-03  0.3602E-03  0.5929E-04  0.5929E-04
     -3.530  0.3749E-03  0.3749E-03  0.6530E-04  0.6530E-04
     -3.514  0.3890E-03  0.3890E-03  0.7153E-04  0.7153E-04
     -3.498  0.4025E-03  0.4025E-03  0.7798E-04  0.7798E-04
     -3.482  0.4153E-03  0.4153E-03  0.8463E-04  0.8463E-04
     -3.466  0.4276E-03  0.4276E-03  0.9148E-04  0.9148E-04
     -3.450  0.4391E-03  0.4391E-03  0.9852E-04  0.9852E-04
     -3.434  0.4500E-03  0.4500E-03  0.1057E-03  0.1057E-03
     -3.417  0.4603E-03  0.4603E-03  0.1131E-03  0.1131E-03
     -3.401  0.4698E-03  0.4698E-03  0.1206E-03  0.1206E-03
     -3.385  0.4788E-03  0.4788E-03  0.1283E-03  0.1283E-03
     -3.369  0.4873E-03  0.4873E-03  0.1361E-03  0.1361E-03
     -3.353  0.4955E-03  0.4955E-03  0.1440E-03  0.1441E-03
     -3.337  0.5035E-03  0.5035E-03  0.1521E-03  0.1521E-03
     -3.321  0.5115E-03  0.5115E-03  0.1603E-03  0.1603E-03
     -3.305  0.5199E-03  0.5199E-03  0.1686E-03  0.1686E-03
     -3.289  0.5287E-03  0.5287E-03  0.1771E-03  0.1771E-03
     -3.273  0.5381E-03  0.5381E-03  0.1857E-03  0.1857E-03
     -3.257  0.5482E-03  0.5482E-03  0.1945E-03  0.1945E-03
     -3.241  0.5590E-03  0.5590E-03  0.2035E-03  0.2035E-03
     -3.225  0.5705E-03  0.5705E-03  0.2126E-03  0.2126E-03
     -3.209  0.5823E-03  0.5823E-03  0.2219E-03  0.2219E-03
     -3.193  0.5943E-03  0.5943E-03  0.2315E-03  0.2315E-03
     -3.177  0.6062E-03  0.6062E-03  0.2412E-03  0.2412E-03
     -3.161  0.6174E-03  0.6174E-03  0.2511E-03  0.2511E-03
     -3.145  0.6278E-03  0.6278E-03  0.2611E-03  0.2611E-03
     -3.129  0.6369E-03  0.6369E-03  0.2713E-03  0.2713E-03
     -3.113  0.6445E-03  0.6446E-03  0.2817E-03  0.2817E-03
     -3.097  0.6507E-03  0.6507E-03  0.2921E-03  0.2921E-03
     -3.081  0.6553E-03  0.6553E-03  0.3026E-03  0.3026E-03
     -3.065  0.6586E-03  0.6586E-03  0.3131E-03  0.3131E-03
     -3.049  0.6610E-03  0.6610E-03  0.3237E-03  0.3237E-03
     -3.033  0.6630E-03  0.6630E-03  0.3343E-03  0.3344E-03
     -3.017  0.6651E-03  0.6651E-03  0.3450E-03  0.3450E-03
     -3.001  0.6679E-03  0.6679E-03  0.3557E-03  0.3557E-03
     -2.985  0.6719E-03  0.6719E-03  0.3665E-03  0.3665E-03
     -2.969  0.6777E-03  0.6777E-03  0.3773E-03  0.3773E-03
     -2.953  0.6855E-03  0.6855E-03  0.3883E-03  0.3883E-03
     -2.937  0.6955E-03  0.6955E-03  0.3995E-03  0.3995E-03
     -2.921  0.7076E-03  0.7076E-03  0.4108E-03  0.4108E-03
     -2.905  0.7215E-03  0.7215E-03  0.4224E-03  0.4224E-03
     -2.889  0.7368E-03  0.7368E-03  0.4342E-03  0.4342E-03
     -2.873  0.7527E-03  0.7527E-03  0.4462E-03  0.4462E-03
     -2.857  0.7686E-03  0.7686E-03  0.4585E-03  0.4585E-03
     -2.841  0.7838E-03  0.7838E-03  0.4711E-03  0.4711E-03
     -2.825  0.7975E-03  0.7975E-03  0.4839E-03  0.4839E-03
     -2.809  0.8092E-03  0.8092E-03  0.4968E-03  0.4968E-03
     -2.793  0.8185E-03  0.8185E-03  0.5099E-03  0.5100E-03
     -2.777  0.8252E-03  0.8252E-03  0.5232E-03  0.5232E-03
     -2.761  0.8293E-03  0.8293E-03  0.5365E-03  0.5365E-03
     -2.745  0.8312E-03  0.8312E-03  0.5498E-03  0.5498E-03
     -2.729  0.8312E-03  0.8312E-03  0.5631E-03  0.5631E-03
     -2.713  0.8299E-03  0.8299E-03  0.5764E-03  0.5764E-03
     -2.696  0.8281E-03  0.8281E-03  0.5897E-03  0.5897E-03
     -2.680  0.8263E-03  0.8263E-03  0.6029E-03  0.6029E-03
     -2.664  0.8252E-03  0.8252E-03  0.6161E-03  0.6161E-03
     -2.648  0.8254E-03  0.8254E-03  0.6293E-03  0.6293E-03
     -2.632  0.8273E-03  0.8273E-03  0.6426E-03  0.6426E-03
     -2.616  0.8310E-03  0.8310E-03  0.6559E-03  0.6559E-03
     -2.600  0.8367E-03  0.8367E-03  0.6693E-03  0.6693E-03
     -2.584  0.8442E-03  0.8442E-03  0.6828E-03  0.6828E-03
     -2.568  0.8535E-03  0.8535E-03  0.6965E-03  0.6965E-03
     -2.552  0.8641E-03  0.8642E-03  0.7104E-03  0.7104E-03
     -2.536  0.8759E-03  0.8759E-03  0.7244E-03  0.7244E-03
     -2.520  0.8886E-03  0.8886E-03  0.7386E-03  0.7386E-03
     -2.504  0.9018E-03  0.9018E-03  0.7531E-03  0.7531E-03
     -2.488  0.9153E-03  0.9153E-03  0.7677E-03  0.7678E-03
     -2.472  0.9291E-03  0.9291E-03  0.7826E-03  0.7826E-03
     -2.456  0.9430E-03  0.9430E-03  0.7977E-03  0.7977E-03
     -2.440  0.9568E-03  0.9568E-03  0.8131E-03  0.8131E-03
     -2.424  0.9706E-03  0.9706E-03  0.8286E-03  0.8286E-03
     -2.408  0.9840E-03  0.9840E-03  0.8444E-03  0.8444E-03
     -2.392  0.9970E-03  0.9970E-03  0.8604E-03  0.8604E-03
     -2.376  0.1009E-02  0.1009E-02  0.8765E-03  0.8765E-03
     -2.360  0.1020E-02  0.1020E-02  0.8929E-03  0.8929E-03
     -2.344  0.1030E-02  0.1030E-02  0.9094E-03  0.9094E-03
     -2.328  0.1037E-02  0.1037E-02  0.9260E-03  0.9260E-03
     -2.312  0.1042E-02  0.1042E-02  0.9427E-03  0.9427E-03
     -2.296  0.1045E-02  0.1045E-02  0.9594E-03  0.9594E-03
     -2.280  0.1045E-02  0.1045E-02  0.9762E-03  0.9762E-03
     -2.264  0.1042E-02  0.1042E-02  0.9928E-03  0.9929E-03
     -2.248  0.1036E-02  0.1036E-02  0.1009E-02  0.1009E-02
     -2.232  0.1029E-02  0.1029E-02  0.1026E-02  0.1026E-02
     -2.216  0.1021E-02  0.1021E-02  0.1042E-02  0.1042E-02
     -2.200  0.1012E-02  0.1012E-02  0.1059E-02  0.1059E-02
     -2.184  0.1004E-02  0.1004E-02  0.1075E-02  0.1075E-02
     -2.168  0.9982E-03  0.9982E-03  0.1091E-02  0.1091E-02
     -2.152  0.9953E-03  0.9953E-03  0.1107E-02  0.1107E-02
     -2.136  0.9963E-03  0.9963E-03  0.1122E-02  0.1122E-02
     -2.120  0.1002E-02  0.1002E-02  0.1139E-02  0.1139E-02
     -2.104  0.1012E-02  0.1012E-02  0.1155E-02  0.1155E-02
     -2.088  0.1028E-02  0.1028E-02  0.1171E-02  0.1171E-02
     -2.072  0.1049E-02  0.1049E-02  0.1188E-02  0.1188E-02
     -2.056  0.1073E-02  0.1073E-02  0.1205E-02  0.1205E-02
     -2.040  0.1101E-02  0.1101E-02  0.1223E-02  0.1223E-02
     -2.024  0.1131E-02  0.1131E-02  0.1241E-02  0.1241E-02
     -2.008  0.1161E-02  0.1161E-02  0.1260E-02  0.1260E-02
     -1.992  0.1191E-02  0.1191E-02  0.1279E-02  0.1279E-02
     -1.975  0.1218E-02  0.1218E-02  0.1298E-02  0.1298E-02
     -1.959  0.1241E-02  0.1241E-02  0.1318E-02  0.1318E-02
     -1.943  0.1259E-02  0.1259E-02  0.1338E-02  0.1338E-02
     -1.927  0.1272E-02  0.1272E-02  0.1359E-02  0.1359E-02
     -1.911  0.1280E-02  0.1280E-02  0.1379E-02  0.1379E-02
     -1.895  0.1281E-02  0.1281E-02  0.1400E-02  0.1400E-02
     -1.879  0.1277E-02  0.1277E-02  0.1420E-02  0.1420E-02
     -1.863  0.1268E-02  0.1268E-02  0.1440E-02  0.1440E-02
     -1.847  0.1256E-02  0.1256E-02  0.1461E-02  0.1461E-02
     -1.831  0.1241E-02  0.1241E-02  0.1480E-02  0.1480E-02
     -1.815  0.1226E-02  0.1226E-02  0.1500E-02  0.1500E-02
     -1.799  0.1211E-02  0.1211E-02  0.1520E-02  0.1520E-02
     -1.783  0.1197E-02  0.1197E-02  0.1539E-02  0.1539E-02
     -1.767  0.1187E-02  0.1187E-02  0.1558E-02  0.1558E-02
     -1.751  0.1181E-02  0.1181E-02  0.1577E-02  0.1577E-02
     -1.735  0.1180E-02  0.1180E-02  0.1596E-02  0.1596E-02
     -1.719  0.1183E-02  0.1183E-02  0.1614E-02  0.1615E-02
     -1.703  0.1193E-02  0.1193E-02  0.1634E-02  0.1634E-02
     -1.687  0.1207E-02  0.1207E-02  0.1653E-02  0.1653E-02
     -1.671  0.1226E-02  0.1226E-02  0.1673E-02  0.1673E-02
     -1.655  0.1250E-02  0.1250E-02  0.1693E-02  0.1693E-02
     -1.639  0.1277E-02  0.1277E-02  0.1713E-02  0.1713E-02
     -1.623  0.1306E-02  0.1306E-02  0.1734E-02  0.1734E-02
     -1.607  0.1336E-02  0.1336E-02  0.1755E-02  0.1755E-02
     -1.591  0.1367E-02  0.1367E-02  0.1777E-02  0.1777E-02
     -1.575  0.1396E-02  0.1396E-02  0.1800E-02  0.1800E-02
     -1.559  0.1424E-02  0.1424E-02  0.1822E-02  0.1823E-02
     -1.543  0.1449E-02  0.1449E-02  0.1846E-02  0.1846E-02
     -1.527  0.1470E-02  0.1470E-02  0.1869E-02  0.1869E-02
     -1.511  0.1487E-02  0.1487E-02  0.1893E-02  0.1893E-02
     -1.495  0.1500E-02  0.1500E-02  0.1917E-02  0.1917E-02
     -1.479  0.1509E-02  0.1509E-02  0.1941E-02  0.1941E-02
     -1.463  0.1515E-02  0.1515E-02  0.1966E-02  0.1966E-02
     -1.447  0.1518E-02  0.1518E-02  0.1990E-02  0.1990E-02
     -1.431  0.1520E-02  0.1520E-02  0.2014E-02  0.2014E-02
     -1.415  0.1521E-02  0.1521E-02  0.2039E-02  0.2039E-02
     -1.399  0.1523E-02  0.1523E-02  0.2063E-02  0.2063E-02
     -1.383  0.1527E-02  0.1527E-02  0.2087E-02  0.2087E-02
     -1.367  0.1533E-02  0.1533E-02  0.2112E-02  0.2112E-02
     -1.351  0.1543E-02  0.1543E-02  0.2137E-02  0.2137E-02
     -1.335  0.1557E-02  0.1557E-02  0.2162E-02  0.2162E-02
     -1.319  0.1575E-02  0.1575E-02  0.2187E-02  0.2187E-02
     -1.303  0.1595E-02  0.1595E-02  0.2212E-02  0.2213E-02
     -1.287  0.1619E-02  0.1619E-02  0.2238E-02  0.2238E-02
     -1.271  0.1644E-02  0.1644E-02  0.2265E-02  0.2265E-02
     -1.255  0.1668E-02  0.1668E-02  0.2291E-02  0.2292E-02
     -1.238  0.1692E-02  0.1692E-02  0.2319E-02  0.2319E-02
     -1.222  0.1712E-02  0.1712E-02  0.2346E-02  0.2346E-02
     -1.206  0.1728E-02  0.1728E-02  0.2374E-02  0.2374E-02
     -1.190  0.1739E-02  0.1739E-02  0.2402E-02  0.2402E-02
     -1.174  0.1745E-02  0.1745E-02  0.2430E-02  0.2430E-02
     -1.158  0.1743E-02  0.1743E-02  0.2457E-02  0.2457E-02
     -1.142  0.1736E-02  0.1736E-02  0.2485E-02  0.2485E-02
     -1.126  0.1723E-02  0.1723E-02  0.2513E-02  0.2513E-02
     -1.110  0.1705E-02  0.1705E-02  0.2540E-02  0.2540E-02
     -1.094  0.1684E-02  0.1684E-02  0.2567E-02  0.2567E-02
     -1.078  0.1660E-02  0.1660E-02  0.2594E-02  0.2594E-02
     -1.062  0.1635E-02  0.1635E-02  0.2620E-02  0.2620E-02
     -1.046  0.1612E-02  0.1612E-02  0.2646E-02  0.2646E-02
     -1.030  0.1590E-02  0.1590E-02  0.2671E-02  0.2671E-02
     -1.014  0.1572E-02  0.1572E-02  0.2696E-02  0.2697E-02
     -0.998  0.1559E-02  0.1559E-02  0.2721E-02  0.2721E-02
     -0.982  0.1551E-02  0.1551E-02  0.2746E-02  0.2746E-02
     -0.966  0.1549E-02  0.1549E-02  0.2771E-02  0.2771E-02
     -0.950  0.1553E-02  0.1553E-02  0.2796E-02  0.2796E-02
     -0.934  0.1562E-02  0.1562E-02  0.2821E-02  0.2821E-02
     -0.918  0.1575E-02  0.1575E-02  0.2846E-02  0.2846E-02
     -0.902  0.1590E-02  0.1590E-02  0.2872E-02  0.2872E-02
     -0.886  0.1606E-02  0.1606E-02  0.2897E-02  0.2898E-02
     -0.870  0.1621E-02  0.1621E-02  0.2923E-02  0.2923E-02
     -0.854  0.1633E-02  0.1633E-02  0.2950E-02  0.2950E-02
     -0.838  0.1641E-02  0.1641E-02  0.2976E-02  0.2976E-02
     -0.822  0.1643E-02  0.1643E-02  0.3002E-02  0.3002E-02
     -0.806  0.1638E-02  0.1638E-02  0.3028E-02  0.3028E-02
     -0.790  0.1626E-02  0.1626E-02  0.3055E-02  0.3055E-02
     -0.774  0.1607E-02  0.1607E-02  0.3080E-02  0.3080E-02
     -0.758  0.1582E-02  0.1582E-02  0.3106E-02  0.3106E-02
     -0.742  0.1552E-02  0.1552E-02  0.3130E-02  0.3131E-02
     -0.726  0.1521E-02  0.1521E-02  0.3155E-02  0.3155E-02
     -0.710  0.1489E-02  0.1489E-02  0.3179E-02  0.3179E-02
     -0.694  0.1459E-02  0.1459E-02  0.3202E-02  0.3202E-02
     -0.678  0.1434E-02  0.1434E-02  0.3225E-02  0.3225E-02
     -0.662  0.1415E-02  0.1415E-02  0.3248E-02  0.3248E-02
     -0.646  0.1404E-02  0.1404E-02  0.3270E-02  0.3270E-02
     -0.630  0.1402E-02  0.1402E-02  0.3293E-02  0.3293E-02
     -0.614  0.1408E-02  0.1408E-02  0.3315E-02  0.3315E-02
     -0.598  0.1423E-02  0.1423E-02  0.3338E-02  0.3338E-02
     -0.582  0.1445E-02  0.1445E-02  0.3361E-02  0.3361E-02
     -0.566  0.1472E-02  0.1472E-02  0.3385E-02  0.3385E-02
     -0.550  0.1502E-02  0.1502E-02  0.3409E-02  0.3409E-02
     -0.534  0.1534E-02  0.1534E-02  0.3433E-02  0.3433E-02
     -0.517  0.1564E-02  0.1564E-02  0.3459E-02  0.3459E-02
     -0.501  0.1590E-02  0.1590E-02  0.3484E-02  0.3484E-02
     -0.485  0.1612E-02  0.1612E-02  0.3510E-02  0.3510E-02
     -0.469  0.1628E-02  0.1628E-02  0.3536E-02  0.3536E-02
     -0.453  0.1638E-02  0.1638E-02  0.3562E-02  0.3562E-02
     -0.437  0.1641E-02  0.1641E-02  0.3588E-02  0.3588E-02
     -0.421  0.1638E-02  0.1638E-02  0.3615E-02  0.3615E-02
     -0.405  0.1630E-02  0.1630E-02  0.3641E-02  0.3641E-02
     -0.389  0.1620E-02  0.1620E-02  0.3667E-02  0.3667E-02
     -0.373  0.1609E-02  0.1609E-02  0.3693E-02  0.3693E-02
     -0.357  0.1598E-02  0.1598E-02  0.3718E-02  0.3718E-02
     -0.341  0.1591E-02  0.1591E-02  0.3744E-02  0.3744E-02
     -0.325  0.1588E-02  0.1588E-02  0.3769E-02  0.3769E-02
     -0.309  0.1590E-02  0.1590E-02  0.3795E-02  0.3795E-02
     -0.293  0.1599E-02  0.1599E-02  0.3820E-02  0.3820E-02
     -0.277  0.1616E-02  0.1616E-02  0.3846E-02  0.3846E-02
     -0.261  0.1638E-02  0.1638E-02  0.3872E-02  0.3872E-02
     -0.245  0.1667E-02  0.1667E-02  0.3899E-02  0.3899E-02
     -0.229  0.1701E-02  0.1701E-02  0.3926E-02  0.3926E-02
     -0.213  0.1739E-02  0.1739E-02  0.3954E-02  0.3954E-02
     -0.197  0.1779E-02  0.1779E-02  0.3983E-02  0.3983E-02
     -0.181  0.1820E-02  0.1820E-02  0.4012E-02  0.4012E-02
     -0.165  0.1860E-02  0.1860E-02  0.4042E-02  0.4042E-02
     -0.149  0.1899E-02  0.1899E-02  0.4072E-02  0.4072E-02
     -0.133  0.1934E-02  0.1934E-02  0.4103E-02  0.4103E-02
     -0.117  0.1967E-02  0.1967E-02  0.4135E-02  0.4135E-02
     -0.101  0.1995E-02  0.1995E-02  0.4166E-02  0.4166E-02
     -0.085  0.2018E-02  0.2018E-02  0.4199E-02  0.4199E-02
     -0.069  0.2038E-02  0.2038E-02  0.4231E-02  0.4231E-02
     -0.053  0.2053E-02  0.2053E-02  0.4264E-02  0.4264E-02
     -0.037  0.2065E-02  0.2065E-02  0.4297E-02  0.4297E-02
     -0.021  0.2073E-02  0.2073E-02  0.4331E-02  0.4331E-02
     -0.005  0.2078E-02  0.2078E-02  0.4364E-02  0.4364E-02
      0.011  0.2081E-02  0.2081E-02  0.4397E-02  0.4397E-02
      0.027  0.2081E-02  0.2081E-02  0.4431E-02  0.4431E-02
      0.043  0.2079E-02  0.2079E-02  0.4464E-02  0.4464E-02
      0.059  0.2076E-02  0.2076E-02  0.4497E-02  0.4497E-02
      0.075  0.2073E-02  0.2073E-02  0.4530E-02  0.4530E-02
      0.091  0.2069E-02  0.2069E-02  0.4564E-02  0.4564E-02
      0.107  0.2066E-02  0.2066E-02  0.4597E-02  0.4597E-02
      0.123  0.2064E-02  0.2064E-02  0.4630E-02  0.4630E-02
      0.139  0.2064E-02  0.2064E-02  0.4663E-02  0.4663E-02
      0.155  0.2068E-02  0.2068E-02  0.4696E-02  0.4696E-02
      0.171  0.2077E-02  0.2077E-02  0.4729E-02  0.4729E-02
      0.187  0.2091E-02  0.2091E-02  0.4763E-02  0.4763E-02
      0.204  0.2111E-02  0.2111E-02  0.4797E-02  0.4797E-02
      0.220  0.2138E-02  0.2138E-02  0.4831E-02  0.4831E-02
      0.236  0.2172E-02  0.2172E-02  0.4866E-02  0.4866E-02
      0.252  0.2214E-02  0.2214E-02  0.4901E-02  0.4901E-02
      0.268  0.2263E-02  0.2263E-02  0.4937E-02  0.4937E-02
      0.284  0.2318E-02  0.2318E-02  0.4974E-02  0.4974E-02
      0.300  0.2378E-02  0.2378E-02  0.5013E-02  0.5013E-02
      0.316  0.2442E-02  0.2442E-02  0.5052E-02  0.5052E-02
      0.332  0.2508E-02  0.2508E-02  0.5092E-02  0.5092E-02
      0.348  0.2573E-02  0.2573E-02  0.5133E-02  0.5133E-02
      0.364  0.2636E-02  0.2636E-02  0.5175E-02  0.5175E-02
      0.380  0.2695E-02  0.2695E-02  0.5219E-02  0.5219E-02
      0.396  0.2746E-02  0.2746E-02  0.5263E-02  0.5263E-02
      0.412  0.2788E-02  0.2788E-02  0.5307E-02  0.5307E-02
      0.428  0.2819E-02  0.2819E-02  0.5352E-02  0.5352E-02
      0.444  0.2837E-02  0.2837E-02  0.5398E-02  0.5398E-02
      0.460  0.2841E-02  0.2841E-02  0.5443E-02  0.5443E-02
      0.476  0.2829E-02  0.2829E-02  0.5489E-02  0.5489E-02
      0.492  0.2802E-02  0.2802E-02  0.5534E-02  0.5534E-02
      0.508  0.2759E-02  0.2759E-02  0.5578E-02  0.5578E-02
      0.524  0.2701E-02  0.2701E-02  0.5621E-02  0.5621E-02
      0.540  0.2629E-02  0.2628E-02  0.5663E-02  0.5663E-02
      0.556  0.2544E-02  0.2544E-02  0.5704E-02  0.5704E-02
      0.572  0.2449E-02  0.2449E-02  0.5743E-02  0.5743E-02
      0.588  0.2347E-02  0.2347E-02  0.5781E-02  0.5781E-02
      0.604  0.2240E-02  0.2240E-02  0.5817E-02  0.5817E-02
      0.620  0.2132E-02  0.2131E-02  0.5851E-02  0.5851E-02
      0.636  0.2025E-02  0.2024E-02  0.5883E-02  0.5883E-02
      0.652  0.1923E-02  0.1922E-02  0.5914E-02  0.5914E-02
      0.668  0.1828E-02  0.1828E-02  0.5943E-02  0.5943E-02
      0.684  0.1744E-02  0.1744E-02  0.5971E-02  0.5971E-02
      0.700  0.1672E-02  0.1672E-02  0.5998E-02  0.5998E-02
      0.716  0.1614E-02  0.1614E-02  0.6024E-02  0.6024E-02
      0.732  0.1571E-02  0.1571E-02  0.6049E-02  0.6049E-02
      0.748  0.1543E-02  0.1543E-02  0.6074E-02  0.6074E-02
      0.764  0.1530E-02  0.1529E-02  0.6098E-02  0.6098E-02
      0.780  0.1531E-02  0.1531E-02  0.6123E-02  0.6123E-02
      0.796  0.1545E-02  0.1545E-02  0.6148E-02  0.6148E-02
      0.812  0.1570E-02  0.1570E-02  0.6173E-02  0.6173E-02
      0.828  0.1606E-02  0.1606E-02  0.6198E-02  0.6198E-02
      0.844  0.1650E-02  0.1650E-02  0.6225E-02  0.6225E-02
      0.860  0.1700E-02  0.1700E-02  0.6252E-02  0.6252E-02
      0.876  0.1754E-02  0.1754E-02  0.6280E-02  0.6280E-02
      0.892  0.1813E-02  0.1813E-02  0.6309E-02  0.6309E-02
      0.908  0.1873E-02  0.1873E-02  0.6339E-02  0.6339E-02
      0.925  0.1934E-02  0.1934E-02  0.6370E-02  0.6370E-02
      0.941  0.1995E-02  0.1995E-02  0.6402E-02  0.6402E-02
      0.957  0.2056E-02  0.2056E-02  0.6435E-02  0.6435E-02
      0.973  0.2116E-02  0.2116E-02  0.6469E-02  0.6469E-02
      0.989  0.2174E-02  0.2174E-02  0.6504E-02  0.6504E-02
      1.005  0.2232E-02  0.2232E-02  0.6540E-02  0.6540E-02
      1.021  0.2287E-02  0.2287E-02  0.6576E-02  0.6576E-02
      1.037  0.2341E-02  0.2341E-02  0.6614E-02  0.6614E-02
      1.053  0.2393E-02  0.2393E-02  0.6652E-02  0.6652E-02
      1.069  0.2443E-02  0.2443E-02  0.6691E-02  0.6691E-02
      1.085  0.2491E-02  0.2491E-02  0.6731E-02  0.6731E-02
      1.101  0.2538E-02  0.2538E-02  0.6772E-02  0.6772E-02
      1.117  0.2583E-02  0.2583E-02  0.6813E-02  0.6813E-02
      1.133  0.2627E-02  0.2627E-02  0.6855E-02  0.6855E-02
      1.149  0.2671E-02  0.2671E-02  0.6898E-02  0.6898E-02
      1.165  0.2714E-02  0.2714E-02  0.6942E-02  0.6942E-02
      1.181  0.2757E-02  0.2757E-02  0.6986E-02  0.6986E-02
      1.197  0.2801E-02  0.2800E-02  0.7031E-02  0.7031E-02
      1.213  0.2846E-02  0.2846E-02  0.7076E-02  0.7076E-02
      1.229  0.2894E-02  0.2894E-02  0.7123E-02  0.7123E-02
      1.245  0.2944E-02  0.2944E-02  0.7170E-02  0.7170E-02
      1.261  0.2999E-02  0.2999E-02  0.7218E-02  0.7218E-02
      1.277  0.3057E-02  0.3057E-02  0.7267E-02  0.7267E-02
      1.293  0.3121E-02  0.3121E-02  0.7317E-02  0.7317E-02
      1.309  0.3190E-02  0.3190E-02  0.7368E-02  0.7368E-02
      1.325  0.3264E-02  0.3264E-02  0.7420E-02  0.7420E-02
      1.341  0.3344E-02  0.3344E-02  0.7474E-02  0.7474E-02
      1.357  0.3429E-02  0.3428E-02  0.7529E-02  0.7529E-02
      1.373  0.3518E-02  0.3518E-02  0.7585E-02  0.7585E-02
      1.389  0.3612E-02  0.3612E-02  0.7643E-02  0.7643E-02
      1.405  0.3708E-02  0.3708E-02  0.7702E-02  0.7702E-02
      1.421  0.3806E-02  0.3806E-02  0.7763E-02  0.7763E-02
      1.437  0.3905E-02  0.3905E-02  0.7826E-02  0.7826E-02
      1.453  0.4002E-02  0.4001E-02  0.7890E-02  0.7890E-02
      1.469  0.4095E-02  0.4095E-02  0.7956E-02  0.7956E-02
      1.485  0.4184E-02  0.4184E-02  0.8023E-02  0.8023E-02
      1.501  0.4266E-02  0.4266E-02  0.8091E-02  0.8091E-02
      1.517  0.4340E-02  0.4340E-02  0.8161E-02  0.8161E-02
      1.533  0.4404E-02  0.4404E-02  0.8231E-02  0.8231E-02
      1.549  0.4459E-02  0.4459E-02  0.8303E-02  0.8303E-02
      1.565  0.4503E-02  0.4503E-02  0.8375E-02  0.8375E-02
      1.581  0.4536E-02  0.4536E-02  0.8447E-02  0.8447E-02
      1.597  0.4559E-02  0.4559E-02  0.8520E-02  0.8520E-02
      1.613  0.4572E-02  0.4572E-02  0.8594E-02  0.8594E-02
      1.629  0.4577E-02  0.4577E-02  0.8667E-02  0.8667E-02
      1.645  0.4574E-02  0.4574E-02  0.8740E-02  0.8740E-02
      1.662  0.4566E-02  0.4566E-02  0.8814E-02  0.8813E-02
      1.678  0.4555E-02  0.4555E-02  0.8886E-02  0.8886E-02
      1.694  0.4542E-02  0.4542E-02  0.8959E-02  0.8959E-02
      1.710  0.4531E-02  0.4531E-02  0.9032E-02  0.9032E-02
      1.726  0.4525E-02  0.4525E-02  0.9104E-02  0.9104E-02
      1.742  0.4527E-02  0.4527E-02  0.9177E-02  0.9177E-02
      1.758  0.4539E-02  0.4540E-02  0.9250E-02  0.9250E-02
      1.774  0.4566E-02  0.4567E-02  0.9323E-02  0.9323E-02
      1.790  0.4611E-02  0.4612E-02  0.9397E-02  0.9397E-02
      1.806  0.4675E-02  0.4676E-02  0.9472E-02  0.9472E-02
      1.822  0.4762E-02  0.4762E-02  0.9548E-02  0.9548E-02
      1.838  0.4871E-02  0.4871E-02  0.9626E-02  0.9626E-02
      1.854  0.5002E-02  0.5003E-02  0.9706E-02  0.9706E-02
      1.870  0.5153E-02  0.5154E-02  0.9789E-02  0.9789E-02
      1.886  0.5322E-02  0.5323E-02  0.9874E-02  0.9874E-02
      1.902  0.5504E-02  0.5505E-02  0.9962E-02  0.9962E-02
      1.918  0.5693E-02  0.5694E-02  0.1005E-01  0.1005E-01
      1.934  0.5882E-02  0.5883E-02  0.1015E-01  0.1015E-01
      1.950  0.6063E-02  0.6064E-02  0.1024E-01  0.1024E-01
      1.966  0.6230E-02  0.6230E-02  0.1034E-01  0.1034E-01
      1.982  0.6373E-02  0.6373E-02  0.1045E-01  0.1045E-01
      1.998  0.6488E-02  0.6488E-02  0.1055E-01  0.1055E-01
      2.014  0.6568E-02  0.6568E-02  0.1066E-01  0.1066E-01
      2.030  0.6611E-02  0.6610E-02  0.1076E-01  0.1076E-01
      2.046  0.6615E-02  0.6614E-02  0.1087E-01  0.1087E-01
      2.062  0.6580E-02  0.6579E-02  0.1097E-01  0.1097E-01
      2.078  0.6511E-02  0.6510E-02  0.1108E-01  0.1108E-01
      2.094  0.6413E-02  0.6411E-02  0.1118E-01  0.1118E-01
      2.110  0.6292E-02  0.6290E-02  0.1128E-01  0.1128E-01
      2.126  0.6157E-02  0.6155E-02  0.1138E-01  0.1138E-01
      2.142  0.6017E-02  0.6016E-02  0.1148E-01  0.1148E-01
      2.158  0.5883E-02  0.5882E-02  0.1157E-01  0.1157E-01
      2.174  0.5764E-02  0.5763E-02  0.1166E-01  0.1166E-01
      2.190  0.5668E-02  0.5667E-02  0.1175E-01  0.1175E-01
      2.206  0.5602E-02  0.5601E-02  0.1184E-01  0.1184E-01
      2.222  0.5571E-02  0.5571E-02  0.1193E-01  0.1193E-01
      2.238  0.5579E-02  0.5579E-02  0.1202E-01  0.1202E-01
      2.254  0.5626E-02  0.5626E-02  0.1211E-01  0.1211E-01
      2.270  0.5710E-02  0.5711E-02  0.1220E-01  0.1220E-01
      2.286  0.5828E-02  0.5829E-02  0.1230E-01  0.1230E-01
      2.302  0.5973E-02  0.5974E-02  0.1239E-01  0.1239E-01
      2.318  0.6138E-02  0.6139E-02  0.1249E-01  0.1249E-01
      2.334  0.6314E-02  0.6315E-02  0.1259E-01  0.1259E-01
      2.350  0.6492E-02  0.6493E-02  0.1270E-01  0.1270E-01
      2.366  0.6663E-02  0.6664E-02  0.1280E-01  0.1280E-01
      2.383  0.6818E-02  0.6819E-02  0.1291E-01  0.1291E-01
      2.399  0.6949E-02  0.6950E-02  0.1302E-01  0.1302E-01
      2.415  0.7051E-02  0.7052E-02  0.1314E-01  0.1314E-01
      2.431  0.7120E-02  0.7121E-02  0.1325E-01  0.1325E-01
      2.447  0.7154E-02  0.7154E-02  0.1337E-01  0.1337E-01
      2.463  0.7152E-02  0.7152E-02  0.1348E-01  0.1348E-01
      2.479  0.7117E-02  0.7117E-02  0.1359E-01  0.1359E-01
      2.495  0.7052E-02  0.7052E-02  0.1371E-01  0.1371E-01
      2.511  0.6961E-02  0.6961E-02  0.1382E-01  0.1382E-01
      2.527  0.6852E-02  0.6851E-02  0.1393E-01  0.1393E-01
      2.543  0.6728E-02  0.6728E-02  0.1404E-01  0.1404E-01
      2.559  0.6598E-02  0.6597E-02  0.1414E-01  0.1414E-01
      2.575  0.6465E-02  0.6465E-02  0.1425E-01  0.1425E-01
      2.591  0.6337E-02  0.6337E-02  0.1435E-01  0.1435E-01
      2.607  0.6217E-02  0.6217E-02  0.1445E-01  0.1445E-01
      2.623  0.6111E-02  0.6111E-02  0.1454E-01  0.1454E-01
      2.639  0.6022E-02  0.6022E-02  0.1464E-01  0.1464E-01
      2.655  0.5955E-02  0.5955E-02  0.1474E-01  0.1474E-01
      2.671  0.5915E-02  0.5915E-02  0.1483E-01  0.1483E-01
      2.687  0.5907E-02  0.5907E-02  0.1493E-01  0.1493E-01
      2.703  0.5938E-02  0.5938E-02  0.1502E-01  0.1502E-01
      2.719  0.6017E-02  0.6017E-02  0.1512E-01  0.1512E-01
      2.735  0.6152E-02  0.6152E-02  0.1522E-01  0.1522E-01
      2.751  0.6355E-02  0.6355E-02  0.1532E-01  0.1532E-01
      2.767  0.6638E-02  0.6638E-02  0.1542E-01  0.1542E-01
      2.783  0.7011E-02  0.7011E-02  0.1554E-01  0.1554E-01
      2.799  0.7486E-02  0.7486E-02  0.1566E-01  0.1566E-01
      2.815  0.8072E-02  0.8072E-02  0.1579E-01  0.1579E-01
      2.831  0.8778E-02  0.8778E-02  0.1593E-01  0.1593E-01
      2.847  0.9606E-02  0.9606E-02  0.1608E-01  0.1608E-01
      2.863  0.1056E-01  0.1056E-01  0.1625E-01  0.1625E-01
      2.879  0.1162E-01  0.1162E-01  0.1644E-01  0.1644E-01
      2.895  0.1279E-01  0.1279E-01  0.1664E-01  0.1664E-01
      2.911  0.1405E-01  0.1405E-01  0.1687E-01  0.1687E-01
      2.927  0.1537E-01  0.1537E-01  0.1711E-01  0.1711E-01
      2.943  0.1673E-01  0.1673E-01  0.1738E-01  0.1738E-01
      2.959  0.1810E-01  0.1810E-01  0.1767E-01  0.1767E-01
      2.975  0.1944E-01  0.1944E-01  0.1798E-01  0.1798E-01
      2.991  0.2072E-01  0.2071E-01  0.1831E-01  0.1831E-01
      3.007  0.2190E-01  0.2190E-01  0.1866E-01  0.1866E-01
      3.023  0.2296E-01  0.2295E-01  0.1903E-01  0.1903E-01
      3.039  0.2385E-01  0.2385E-01  0.1941E-01  0.1941E-01
      3.055  0.2457E-01  0.2457E-01  0.1981E-01  0.1981E-01
      3.071  0.2509E-01  0.2509E-01  0.2021E-01  0.2021E-01
      3.087  0.2540E-01  0.2540E-01  0.2062E-01  0.2062E-01
      3.104  0.2550E-01  0.2550E-01  0.2103E-01  0.2102E-01
      3.120  0.2539E-01  0.2539E-01  0.2143E-01  0.2143E-01
      3.136  0.2509E-01  0.2509E-01  0.2183E-01  0.2183E-01
      3.152  0.2461E-01  0.2461E-01  0.2223E-01  0.2223E-01
      3.168  0.2398E-01  0.2397E-01  0.2261E-01  0.2261E-01
      3.184  0.2323E-01  0.2322E-01  0.2298E-01  0.2298E-01
      3.200  0.2239E-01  0.2239E-01  0.2334E-01  0.2334E-01
      3.216  0.2151E-01  0.2151E-01  0.2369E-01  0.2369E-01
      3.232  0.2062E-01  0.2062E-01  0.2402E-01  0.2402E-01
      3.248  0.1976E-01  0.1976E-01  0.2434E-01  0.2433E-01
      3.264  0.1896E-01  0.1895E-01  0.2464E-01  0.2464E-01
      3.280  0.1825E-01  0.1824E-01  0.2493E-01  0.2493E-01
      3.296  0.1766E-01  0.1765E-01  0.2521E-01  0.2521E-01
      3.312  0.1720E-01  0.1719E-01  0.2549E-01  0.2549E-01
      3.328  0.1688E-01  0.1687E-01  0.2576E-01  0.2576E-01
      3.344  0.1671E-01  0.1670E-01  0.2603E-01  0.2603E-01
      3.360  0.1667E-01  0.1667E-01  0.2629E-01  0.2629E-01
      3.376  0.1677E-01  0.1676E-01  0.2656E-01  0.2656E-01
      3.392  0.1698E-01  0.1698E-01  0.2684E-01  0.2683E-01
      3.408  0.1729E-01  0.1728E-01  0.2711E-01  0.2711E-01
      3.424  0.1766E-01  0.1766E-01  0.2740E-01  0.2739E-01
      3.440  0.1809E-01  0.1808E-01  0.2769E-01  0.2768E-01
      3.456  0.1853E-01  0.1852E-01  0.2798E-01  0.2798E-01
      3.472  0.1898E-01  0.1897E-01  0.2829E-01  0.2828E-01
      3.488  0.1940E-01  0.1940E-01  0.2860E-01  0.2859E-01
      3.504  0.1979E-01  0.1979E-01  0.2891E-01  0.2891E-01
      3.520  0.2014E-01  0.2014E-01  0.2924E-01  0.2923E-01
      3.536  0.2043E-01  0.2043E-01  0.2956E-01  0.2956E-01
      3.552  0.2066E-01  0.2066E-01  0.2990E-01  0.2989E-01
      3.568  0.2082E-01  0.2082E-01  0.3023E-01  0.3023E-01
      3.584  0.2092E-01  0.2092E-01  0.3056E-01  0.3056E-01
      3.600  0.2095E-01  0.2096E-01  0.3090E-01  0.3090E-01
      3.616  0.2093E-01  0.2093E-01  0.3124E-01  0.3123E-01
      3.632  0.2084E-01  0.2084E-01  0.3157E-01  0.3157E-01
      3.648  0.2069E-01  0.2070E-01  0.3190E-01  0.3190E-01
      3.664  0.2049E-01  0.2049E-01  0.3223E-01  0.3223E-01
      3.680  0.2023E-01  0.2024E-01  0.3255E-01  0.3255E-01
      3.696  0.1992E-01  0.1993E-01  0.3287E-01  0.3287E-01
      3.712  0.1956E-01  0.1957E-01  0.3319E-01  0.3318E-01
      3.728  0.1916E-01  0.1916E-01  0.3349E-01  0.3349E-01
      3.744  0.1871E-01  0.1872E-01  0.3379E-01  0.3379E-01
      3.760  0.1823E-01  0.1824E-01  0.3408E-01  0.3408E-01
      3.776  0.1773E-01  0.1773E-01  0.3437E-01  0.3437E-01
      3.792  0.1721E-01  0.1721E-01  0.3464E-01  0.3464E-01
      3.808  0.1669E-01  0.1669E-01  0.3491E-01  0.3491E-01
      3.825  0.1618E-01  0.1618E-01  0.3517E-01  0.3517E-01
      3.841  0.1570E-01  0.1570E-01  0.3542E-01  0.3542E-01
      3.857  0.1527E-01  0.1527E-01  0.3567E-01  0.3567E-01
      3.873  0.1490E-01  0.1490E-01  0.3591E-01  0.3590E-01
      3.889  0.1461E-01  0.1461E-01  0.3614E-01  0.3614E-01
      3.905  0.1442E-01  0.1442E-01  0.3637E-01  0.3637E-01
      3.921  0.1435E-01  0.1435E-01  0.3660E-01  0.3660E-01
      3.937  0.1440E-01  0.1440E-01  0.3683E-01  0.3683E-01
      3.953  0.1460E-01  0.1460E-01  0.3707E-01  0.3706E-01
      3.969  0.1495E-01  0.1494E-01  0.3731E-01  0.3730E-01
      3.985  0.1544E-01  0.1543E-01  0.3755E-01  0.3755E-01
      4.001  0.1609E-01  0.1608E-01  0.3781E-01  0.3781E-01
      4.017  0.1687E-01  0.1685E-01  0.3808E-01  0.3808E-01
      4.033  0.1777E-01  0.1776E-01  0.3837E-01  0.3836E-01
      4.049  0.1877E-01  0.1875E-01  0.3867E-01  0.3866E-01
      4.065  0.1983E-01  0.1982E-01  0.3898E-01  0.3898E-01
      4.081  0.2093E-01  0.2092E-01  0.3932E-01  0.3932E-01
      4.097  0.2203E-01  0.2202E-01  0.3967E-01  0.3967E-01
      4.113  0.2308E-01  0.2306E-01  0.4004E-01  0.4004E-01
      4.129  0.2404E-01  0.2403E-01  0.4043E-01  0.4042E-01
      4.145  0.2487E-01  0.2486E-01  0.4082E-01  0.4082E-01
      4.161  0.2554E-01  0.2553E-01  0.4123E-01  0.4123E-01
      4.177  0.2601E-01  0.2601E-01  0.4165E-01  0.4165E-01
      4.193  0.2628E-01  0.2628E-01  0.4207E-01  0.4207E-01
      4.209  0.2632E-01  0.2632E-01  0.4249E-01  0.4249E-01
      4.225  0.2614E-01  0.2614E-01  0.4291E-01  0.4291E-01
      4.241  0.2573E-01  0.2574E-01  0.4332E-01  0.4332E-01
      4.257  0.2513E-01  0.2514E-01  0.4373E-01  0.4372E-01
      4.273  0.2435E-01  0.2436E-01  0.4412E-01  0.4411E-01
      4.289  0.2343E-01  0.2344E-01  0.4449E-01  0.4449E-01
      4.305  0.2240E-01  0.2242E-01  0.4485E-01  0.4485E-01
      4.321  0.2131E-01  0.2132E-01  0.4519E-01  0.4519E-01
      4.337  0.2018E-01  0.2019E-01  0.4552E-01  0.4551E-01
      4.353  0.1906E-01  0.1907E-01  0.4582E-01  0.4582E-01
      4.369  0.1797E-01  0.1798E-01  0.4611E-01  0.4611E-01
      4.385  0.1694E-01  0.1695E-01  0.4638E-01  0.4638E-01
      4.401  0.1599E-01  0.1601E-01  0.4664E-01  0.4664E-01
      4.417  0.1514E-01  0.1515E-01  0.4688E-01  0.4688E-01
      4.433  0.1438E-01  0.1439E-01  0.4711E-01  0.4711E-01
      4.449  0.1372E-01  0.1373E-01  0.4733E-01  0.4733E-01
      4.465  0.1316E-01  0.1317E-01  0.4754E-01  0.4754E-01
      4.481  0.1269E-01  0.1270E-01  0.4774E-01  0.4774E-01
      4.497  0.1230E-01  0.1230E-01  0.4794E-01  0.4794E-01
      4.513  0.1197E-01  0.1198E-01  0.4813E-01  0.4813E-01
      4.529  0.1171E-01  0.1171E-01  0.4832E-01  0.4832E-01
      4.545  0.1150E-01  0.1150E-01  0.4851E-01  0.4850E-01
      4.562  0.1134E-01  0.1134E-01  0.4869E-01  0.4869E-01
      4.578  0.1122E-01  0.1122E-01  0.4887E-01  0.4887E-01
      4.594  0.1115E-01  0.1115E-01  0.4905E-01  0.4904E-01
      4.610  0.1113E-01  0.1113E-01  0.4922E-01  0.4922E-01
      4.626  0.1116E-01  0.1117E-01  0.4940E-01  0.4940E-01
      4.642  0.1126E-01  0.1126E-01  0.4958E-01  0.4958E-01
      4.658  0.1142E-01  0.1142E-01  0.4977E-01  0.4977E-01
      4.674  0.1166E-01  0.1166E-01  0.4995E-01  0.4995E-01
      4.690  0.1198E-01  0.1198E-01  0.5014E-01  0.5014E-01
      4.706  0.1238E-01  0.1239E-01  0.5034E-01  0.5034E-01
      4.722  0.1288E-01  0.1289E-01  0.5055E-01  0.5055E-01
      4.738  0.1348E-01  0.1348E-01  0.5077E-01  0.5076E-01
      4.754  0.1416E-01  0.1417E-01  0.5099E-01  0.5099E-01
      4.770  0.1494E-01  0.1495E-01  0.5123E-01  0.5123E-01
      4.786  0.1581E-01  0.1582E-01  0.5148E-01  0.5148E-01
      4.802  0.1676E-01  0.1677E-01  0.5175E-01  0.5175E-01
      4.818  0.1779E-01  0.1780E-01  0.5204E-01  0.5204E-01
      4.834  0.1888E-01  0.1889E-01  0.5234E-01  0.5234E-01
      4.850  0.2004E-01  0.2005E-01  0.5266E-01  0.5266E-01
      4.866  0.2124E-01  0.2125E-01  0.5300E-01  0.5300E-01
      4.882  0.2249E-01  0.2250E-01  0.5336E-01  0.5336E-01
      4.898  0.2377E-01  0.2378E-01  0.5374E-01  0.5374E-01
      4.914  0.2508E-01  0.2509E-01  0.5415E-01  0.5415E-01
      4.930  0.2639E-01  0.2640E-01  0.5457E-01  0.5457E-01
      4.946  0.2771E-01  0.2772E-01  0.5501E-01  0.5501E-01
      4.962  0.2902E-01  0.2903E-01  0.5548E-01  0.5548E-01
      4.978  0.3030E-01  0.3031E-01  0.5596E-01  0.5596E-01
      4.994  0.3155E-01  0.3155E-01  0.5647E-01  0.5647E-01
      5.010  0.3274E-01  0.3274E-01  0.5699E-01  0.5699E-01
      5.026  0.3386E-01  0.3387E-01  0.5754E-01  0.5754E-01
      5.042  0.3490E-01  0.3490E-01  0.5809E-01  0.5810E-01
      5.058  0.3584E-01  0.3584E-01  0.5867E-01  0.5867E-01
      5.074  0.3666E-01  0.3666E-01  0.5926E-01  0.5926E-01
      5.090  0.3736E-01  0.3736E-01  0.5985E-01  0.5986E-01
      5.106  0.3791E-01  0.3791E-01  0.6046E-01  0.6046E-01
      5.122  0.3832E-01  0.3832E-01  0.6108E-01  0.6108E-01
      5.138  0.3857E-01  0.3857E-01  0.6169E-01  0.6170E-01
      5.154  0.3866E-01  0.3865E-01  0.6231E-01  0.6232E-01
      5.170  0.3858E-01  0.3857E-01  0.6293E-01  0.6293E-01
      5.186  0.3833E-01  0.3833E-01  0.6355E-01  0.6355E-01
      5.202  0.3793E-01  0.3793E-01  0.6415E-01  0.6415E-01
      5.218  0.3737E-01  0.3737E-01  0.6475E-01  0.6475E-01
      5.234  0.3667E-01  0.3667E-01  0.6534E-01  0.6534E-01
      5.250  0.3584E-01  0.3584E-01  0.6591E-01  0.6592E-01
      5.266  0.3489E-01  0.3489E-01  0.6647E-01  0.6647E-01
      5.283  0.3385E-01  0.3385E-01  0.6702E-01  0.6702E-01
      5.299  0.3274E-01  0.3274E-01  0.6754E-01  0.6754E-01
      5.315  0.3158E-01  0.3158E-01  0.6805E-01  0.6805E-01
      5.331  0.3040E-01  0.3040E-01  0.6853E-01  0.6853E-01
      5.347  0.2922E-01  0.2923E-01  0.6900E-01  0.6900E-01
      5.363  0.2808E-01  0.2808E-01  0.6945E-01  0.6945E-01
      5.379  0.2698E-01  0.2699E-01  0.6988E-01  0.6989E-01
      5.395  0.2596E-01  0.2597E-01  0.7030E-01  0.7030E-01
      5.411  0.2504E-01  0.2504E-01  0.7070E-01  0.7070E-01
      5.427  0.2421E-01  0.2422E-01  0.7109E-01  0.7109E-01
      5.443  0.2351E-01  0.2351E-01  0.7146E-01  0.7147E-01
      5.459  0.2291E-01  0.2291E-01  0.7183E-01  0.7183E-01
      5.475  0.2243E-01  0.2243E-01  0.7219E-01  0.7219E-01
      5.491  0.2205E-01  0.2205E-01  0.7254E-01  0.7255E-01
      5.507  0.2175E-01  0.2175E-01  0.7289E-01  0.7290E-01
      5.523  0.2153E-01  0.2153E-01  0.7324E-01  0.7324E-01
      5.539  0.2135E-01  0.2135E-01  0.7358E-01  0.7358E-01
      5.555  0.2120E-01  0.2120E-01  0.7392E-01  0.7392E-01
      5.571  0.2106E-01  0.2105E-01  0.7426E-01  0.7426E-01
      5.587  0.2089E-01  0.2088E-01  0.7459E-01  0.7459E-01
      5.603  0.2069E-01  0.2068E-01  0.7492E-01  0.7492E-01
      5.619  0.2043E-01  0.2042E-01  0.7525E-01  0.7525E-01
      5.635  0.2012E-01  0.2011E-01  0.7557E-01  0.7557E-01
      5.651  0.1973E-01  0.1972E-01  0.7589E-01  0.7589E-01
      5.667  0.1929E-01  0.1928E-01  0.7620E-01  0.7620E-01
      5.683  0.1879E-01  0.1878E-01  0.7650E-01  0.7650E-01
      5.699  0.1825E-01  0.1823E-01  0.7679E-01  0.7679E-01
      5.715  0.1768E-01  0.1766E-01  0.7708E-01  0.7708E-01
      5.731  0.1710E-01  0.1709E-01  0.7735E-01  0.7735E-01
      5.747  0.1655E-01  0.1653E-01  0.7761E-01  0.7761E-01
      5.763  0.1602E-01  0.1601E-01  0.7787E-01  0.7787E-01
      5.779  0.1556E-01  0.1554E-01  0.7812E-01  0.7812E-01
      5.795  0.1516E-01  0.1515E-01  0.7836E-01  0.7836E-01
      5.811  0.1485E-01  0.1484E-01  0.7860E-01  0.7860E-01
      5.827  0.1463E-01  0.1462E-01  0.7884E-01  0.7883E-01
      5.843  0.1450E-01  0.1449E-01  0.7907E-01  0.7907E-01
      5.859  0.1446E-01  0.1445E-01  0.7930E-01  0.7930E-01
      5.875  0.1450E-01  0.1449E-01  0.7953E-01  0.7953E-01
      5.891  0.1461E-01  0.1460E-01  0.7977E-01  0.7976E-01
      5.907  0.1476E-01  0.1475E-01  0.8000E-01  0.8000E-01
      5.923  0.1494E-01  0.1493E-01  0.8024E-01  0.8024E-01
      5.939  0.1513E-01  0.1512E-01  0.8048E-01  0.8048E-01
      5.955  0.1530E-01  0.1529E-01  0.8073E-01  0.8073E-01
      5.971  0.1543E-01  0.1542E-01  0.8098E-01  0.8097E-01
      5.987  0.1550E-01  0.1549E-01  0.8122E-01  0.8122E-01
      6.004  0.1550E-01  0.1549E-01  0.8147E-01  0.8147E-01
      6.020  0.1540E-01  0.1540E-01  0.8172E-01  0.8172E-01
      6.036  0.1521E-01  0.1521E-01  0.8196E-01  0.8196E-01
      6.052  0.1492E-01  0.1492E-01  0.8220E-01  0.8220E-01
      6.068  0.1453E-01  0.1453E-01  0.8244E-01  0.8243E-01
      6.084  0.1403E-01  0.1404E-01  0.8266E-01  0.8266E-01
      6.100  0.1345E-01  0.1346E-01  0.8288E-01  0.8287E-01
      6.116  0.1279E-01  0.1280E-01  0.8308E-01  0.8308E-01
      6.132  0.1206E-01  0.1207E-01  0.8327E-01  0.8327E-01
      6.148  0.1128E-01  0.1129E-01  0.8345E-01  0.8345E-01
      6.164  0.1046E-01  0.1047E-01  0.8362E-01  0.8362E-01
      6.180  0.9622E-02  0.9636E-02  0.8378E-01  0.8377E-01
      6.196  0.8784E-02  0.8797E-02  0.8392E-01  0.8392E-01
      6.212  0.7957E-02  0.7971E-02  0.8404E-01  0.8404E-01
      6.228  0.7158E-02  0.7171E-02  0.8416E-01  0.8416E-01
      6.244  0.6397E-02  0.6410E-02  0.8426E-01  0.8426E-01
      6.260  0.5686E-02  0.5698E-02  0.8435E-01  0.8435E-01
      6.276  0.5031E-02  0.5042E-02  0.8443E-01  0.8443E-01
      6.292  0.4439E-02  0.4449E-02  0.8450E-01  0.8450E-01
      6.308  0.3913E-02  0.3922E-02  0.8457E-01  0.8457E-01
      6.324  0.3454E-02  0.3462E-02  0.8462E-01  0.8462E-01
      6.340  0.3062E-02  0.3068E-02  0.8467E-01  0.8467E-01
      6.356  0.2733E-02  0.2739E-02  0.8472E-01  0.8472E-01
      6.372  0.2464E-02  0.2469E-02  0.8476E-01  0.8475E-01
      6.388  0.2250E-02  0.2254E-02  0.8479E-01  0.8479E-01
      6.404  0.2084E-02  0.2087E-02  0.8482E-01  0.8482E-01
      6.420  0.1960E-02  0.1962E-02  0.8486E-01  0.8486E-01
      6.436  0.1871E-02  0.1872E-02  0.8489E-01  0.8489E-01
      6.452  0.1810E-02  0.1811E-02  0.8491E-01  0.8491E-01
      6.468  0.1772E-02  0.1772E-02  0.8494E-01  0.8494E-01
      6.484  0.1751E-02  0.1750E-02  0.8497E-01  0.8497E-01
      6.500  0.1741E-02  0.1741E-02  0.8500E-01  0.8500E-01
      6.516  0.1740E-02  0.1739E-02  0.8503E-01  0.8503E-01
      6.532  0.1744E-02  0.1743E-02  0.8506E-01  0.8505E-01
      6.548  0.1751E-02  0.1750E-02  0.8508E-01  0.8508E-01
      6.564  0.1758E-02  0.1758E-02  0.8511E-01  0.8511E-01
      6.580  0.1766E-02  0.1766E-02  0.8514E-01  0.8514E-01
      6.596  0.1774E-02  0.1773E-02  0.8517E-01  0.8517E-01
      6.612  0.1780E-02  0.1779E-02  0.8520E-01  0.8520E-01
      6.628  0.1785E-02  0.1785E-02  0.8523E-01  0.8522E-01
      6.644  0.1790E-02  0.1789E-02  0.8525E-01  0.8525E-01
      6.660  0.1794E-02  0.1793E-02  0.8528E-01  0.8528E-01
      6.676  0.1798E-02  0.1797E-02  0.8531E-01  0.8531E-01
      6.692  0.1802E-02  0.1801E-02  0.8534E-01  0.8534E-01
      6.708  0.1807E-02  0.1807E-02  0.8537E-01  0.8537E-01
      6.724  0.1814E-02  0.1813E-02  0.8540E-01  0.8540E-01
      6.741  0.1823E-02  0.1823E-02  0.8543E-01  0.8543E-01
      6.757  0.1836E-02  0.1836E-02  0.8546E-01  0.8546E-01
      6.773  0.1854E-02  0.1854E-02  0.8549E-01  0.8549E-01
      6.789  0.1879E-02  0.1878E-02  0.8552E-01  0.8552E-01
      6.805  0.1911E-02  0.1910E-02  0.8555E-01  0.8555E-01
      6.821  0.1953E-02  0.1952E-02  0.8558E-01  0.8558E-01
      6.837  0.2006E-02  0.2006E-02  0.8561E-01  0.8561E-01
      6.853  0.2073E-02  0.2072E-02  0.8564E-01  0.8564E-01
      6.869  0.2153E-02  0.2152E-02  0.8568E-01  0.8568E-01
      6.885  0.2250E-02  0.2249E-02  0.8571E-01  0.8571E-01
      6.901  0.2362E-02  0.2361E-02  0.8575E-01  0.8575E-01
      6.917  0.2491E-02  0.2490E-02  0.8579E-01  0.8579E-01
      6.933  0.2636E-02  0.2635E-02  0.8583E-01  0.8583E-01
      6.949  0.2796E-02  0.2795E-02  0.8588E-01  0.8588E-01
      6.965  0.2969E-02  0.2967E-02  0.8593E-01  0.8593E-01
      6.981  0.3152E-02  0.3150E-02  0.8598E-01  0.8598E-01
      6.997  0.3342E-02  0.3341E-02  0.8603E-01  0.8603E-01
      7.013  0.3536E-02  0.3535E-02  0.8609E-01  0.8609E-01
      7.029  0.3730E-02  0.3728E-02  0.8615E-01  0.8615E-01
      7.045  0.3920E-02  0.3918E-02  0.8621E-01  0.8621E-01
      7.061  0.4103E-02  0.4101E-02  0.8628E-01  0.8628E-01
      7.077  0.4275E-02  0.4273E-02  0.8634E-01  0.8634E-01
      7.093  0.4434E-02  0.4433E-02  0.8642E-01  0.8641E-01
      7.109  0.4579E-02  0.4578E-02  0.8649E-01  0.8649E-01
      7.125  0.4709E-02  0.4708E-02  0.8656E-01  0.8656E-01
      7.141  0.4824E-02  0.4823E-02  0.8664E-01  0.8664E-01
      7.157  0.4924E-02  0.4923E-02  0.8672E-01  0.8672E-01
      7.173  0.5010E-02  0.5010E-02  0.8680E-01  0.8680E-01
      7.189  0.5084E-02  0.5084E-02  0.8688E-01  0.8688E-01
      7.205  0.5147E-02  0.5147E-02  0.8696E-01  0.8696E-01
      7.221  0.5201E-02  0.5201E-02  0.8705E-01  0.8705E-01
      7.237  0.5245E-02  0.5245E-02  0.8713E-01  0.8713E-01
      7.253  0.5281E-02  0.5282E-02  0.8722E-01  0.8722E-01
      7.269  0.5309E-02  0.5310E-02  0.8730E-01  0.8730E-01
      7.285  0.5328E-02  0.5329E-02  0.8739E-01  0.8739E-01
      7.301  0.5337E-02  0.5338E-02  0.8747E-01  0.8747E-01
      7.317  0.5336E-02  0.5336E-02  0.8756E-01  0.8756E-01
      7.333  0.5322E-02  0.5323E-02  0.8764E-01  0.8764E-01
      7.349  0.5295E-02  0.5296E-02  0.8773E-01  0.8773E-01
      7.365  0.5254E-02  0.5255E-02  0.8781E-01  0.8781E-01
      7.381  0.5198E-02  0.5199E-02  0.8790E-01  0.8790E-01
      7.397  0.5128E-02  0.5129E-02  0.8798E-01  0.8798E-01
      7.413  0.5045E-02  0.5046E-02  0.8806E-01  0.8806E-01
      7.429  0.4949E-02  0.4950E-02  0.8814E-01  0.8814E-01
      7.445  0.4842E-02  0.4843E-02  0.8822E-01  0.8821E-01
      7.462  0.4726E-02  0.4728E-02  0.8829E-01  0.8829E-01
      7.478  0.4605E-02  0.4606E-02  0.8836E-01  0.8836E-01
      7.494  0.4480E-02  0.4481E-02  0.8844E-01  0.8844E-01
      7.510  0.4354E-02  0.4355E-02  0.8851E-01  0.8851E-01
      7.526  0.4230E-02  0.4231E-02  0.8857E-01  0.8857E-01
      7.542  0.4111E-02  0.4112E-02  0.8864E-01  0.8864E-01
      7.558  0.4000E-02  0.4000E-02  0.8870E-01  0.8870E-01
      7.574  0.3897E-02  0.3898E-02  0.8877E-01  0.8877E-01
      7.590  0.3806E-02  0.3806E-02  0.8883E-01  0.8883E-01
      7.606  0.3726E-02  0.3727E-02  0.8889E-01  0.8889E-01
      7.622  0.3659E-02  0.3659E-02  0.8895E-01  0.8895E-01
      7.638  0.3604E-02  0.3604E-02  0.8900E-01  0.8900E-01
      7.654  0.3561E-02  0.3562E-02  0.8906E-01  0.8906E-01
      7.670  0.3529E-02  0.3530E-02  0.8912E-01  0.8912E-01
      7.686  0.3507E-02  0.3507E-02  0.8917E-01  0.8917E-01
      7.702  0.3492E-02  0.3492E-02  0.8923E-01  0.8923E-01
      7.718  0.3482E-02  0.3482E-02  0.8929E-01  0.8928E-01
      7.734  0.3477E-02  0.3477E-02  0.8934E-01  0.8934E-01
      7.750  0.3473E-02  0.3473E-02  0.8940E-01  0.8940E-01
      7.766  0.3469E-02  0.3469E-02  0.8945E-01  0.8945E-01
      7.782  0.3465E-02  0.3465E-02  0.8951E-01  0.8951E-01
      7.798  0.3459E-02  0.3459E-02  0.8956E-01  0.8956E-01
      7.814  0.3451E-02  0.3451E-02  0.8962E-01  0.8962E-01
      7.830  0.3441E-02  0.3441E-02  0.8967E-01  0.8967E-01
      7.846  0.3429E-02  0.3430E-02  0.8973E-01  0.8973E-01
      7.862  0.3417E-02  0.3417E-02  0.8978E-01  0.8978E-01
      7.878  0.3405E-02  0.3405E-02  0.8984E-01  0.8984E-01
      7.894  0.3394E-02  0.3394E-02  0.8989E-01  0.8989E-01
      7.910  0.3384E-02  0.3384E-02  0.8995E-01  0.8995E-01
      7.926  0.3375E-02  0.3375E-02  0.9000E-01  0.9000E-01
      7.942  0.3367E-02  0.3367E-02  0.9005E-01  0.9005E-01
      7.958  0.3359E-02  0.3359E-02  0.9011E-01  0.9011E-01
      7.974  0.3350E-02  0.3350E-02  0.9016E-01  0.9016E-01
      7.990  0.3339E-02  0.3339E-02  0.9022E-01  0.9022E-01
      8.006  0.3324E-02  0.3324E-02  0.9027E-01  0.9027E-01
      8.022  0.3304E-02  0.3304E-02  0.9032E-01  0.9032E-01
      8.038  0.3276E-02  0.3277E-02  0.9037E-01  0.9037E-01
      8.054  0.3242E-02  0.3242E-02  0.9043E-01  0.9043E-01
      8.070  0.3199E-02  0.3200E-02  0.9048E-01  0.9048E-01
      8.086  0.3149E-02  0.3150E-02  0.9053E-01  0.9053E-01
      8.102  0.3093E-02  0.3093E-02  0.9058E-01  0.9058E-01
      8.118  0.3031E-02  0.3032E-02  0.9063E-01  0.9063E-01
      8.134  0.2967E-02  0.2967E-02  0.9067E-01  0.9067E-01
      8.150  0.2902E-02  0.2902E-02  0.9072E-01  0.9072E-01
      8.166  0.2838E-02  0.2839E-02  0.9077E-01  0.9077E-01
      8.183  0.2779E-02  0.2779E-02  0.9081E-01  0.9081E-01
      8.199  0.2725E-02  0.2725E-02  0.9085E-01  0.9085E-01
      8.215  0.2679E-02  0.2679E-02  0.9090E-01  0.9090E-01
      8.231  0.2641E-02  0.2641E-02  0.9094E-01  0.9094E-01
      8.247  0.2611E-02  0.2611E-02  0.9098E-01  0.9098E-01
      8.263  0.2589E-02  0.2589E-02  0.9102E-01  0.9102E-01
      8.279  0.2574E-02  0.2574E-02  0.9106E-01  0.9106E-01
      8.295  0.2565E-02  0.2565E-02  0.9110E-01  0.9110E-01
      8.311  0.2561E-02  0.2561E-02  0.9115E-01  0.9115E-01
      8.327  0.2560E-02  0.2560E-02  0.9119E-01  0.9119E-01
      8.343  0.2562E-02  0.2562E-02  0.9123E-01  0.9123E-01
      8.359  0.2566E-02  0.2566E-02  0.9127E-01  0.9127E-01
      8.375  0.2570E-02  0.2570E-02  0.9131E-01  0.9131E-01
      8.391  0.2576E-02  0.2576E-02  0.9135E-01  0.9135E-01
      8.407  0.2583E-02  0.2583E-02  0.9139E-01  0.9139E-01
      8.423  0.2592E-02  0.2593E-02  0.9143E-01  0.9143E-01
      8.439  0.2604E-02  0.2604E-02  0.9148E-01  0.9148E-01
      8.455  0.2618E-02  0.2618E-02  0.9152E-01  0.9152E-01
      8.471  0.2634E-02  0.2634E-02  0.9156E-01  0.9156E-01
      8.487  0.2653E-02  0.2653E-02  0.9160E-01  0.9160E-01
      8.503  0.2673E-02  0.2673E-02  0.9165E-01  0.9164E-01
      8.519  0.2694E-02  0.2694E-02  0.9169E-01  0.9169E-01
      8.535  0.2714E-02  0.2714E-02  0.9173E-01  0.9173E-01
      8.551  0.2731E-02  0.2731E-02  0.9178E-01  0.9178E-01
      8.567  0.2744E-02  0.2744E-02  0.9182E-01  0.9182E-01
      8.583  0.2749E-02  0.2749E-02  0.9186E-01  0.9186E-01
      8.599  0.2746E-02  0.2746E-02  0.9191E-01  0.9191E-01
      8.615  0.2732E-02  0.2732E-02  0.9195E-01  0.9195E-01
      8.631  0.2707E-02  0.2707E-02  0.9199E-01  0.9199E-01
      8.647  0.2671E-02  0.2671E-02  0.9204E-01  0.9204E-01
      8.663  0.2623E-02  0.2623E-02  0.9208E-01  0.9208E-01
      8.679  0.2564E-02  0.2565E-02  0.9212E-01  0.9212E-01
      8.695  0.2497E-02  0.2498E-02  0.9216E-01  0.9216E-01
      8.711  0.2423E-02  0.2424E-02  0.9220E-01  0.9220E-01
      8.727  0.2345E-02  0.2346E-02  0.9224E-01  0.9224E-01
      8.743  0.2266E-02  0.2266E-02  0.9227E-01  0.9227E-01
      8.759  0.2188E-02  0.2188E-02  0.9231E-01  0.9231E-01
      8.775  0.2115E-02  0.2115E-02  0.9234E-01  0.9234E-01
      8.791  0.2048E-02  0.2048E-02  0.9238E-01  0.9237E-01
      8.807  0.1990E-02  0.1990E-02  0.9241E-01  0.9241E-01
      8.823  0.1943E-02  0.1943E-02  0.9244E-01  0.9244E-01
      8.839  0.1907E-02  0.1907E-02  0.9247E-01  0.9247E-01
      8.855  0.1883E-02  0.1883E-02  0.9250E-01  0.9250E-01
      8.871  0.1871E-02  0.1871E-02  0.9253E-01  0.9253E-01
      8.887  0.1868E-02  0.1868E-02  0.9256E-01  0.9256E-01
      8.904  0.1875E-02  0.1875E-02  0.9259E-01  0.9259E-01
      8.920  0.1888E-02  0.1888E-02  0.9262E-01  0.9262E-01
      8.936  0.1905E-02  0.1905E-02  0.9265E-01  0.9265E-01
      8.952  0.1925E-02  0.1925E-02  0.9268E-01  0.9268E-01
      8.968  0.1944E-02  0.1944E-02  0.9271E-01  0.9271E-01
      8.984  0.1961E-02  0.1961E-02  0.9274E-01  0.9274E-01
      9.000  0.1974E-02  0.1974E-02  0.9277E-01  0.9277E-01
      9.016  0.1983E-02  0.1983E-02  0.9281E-01  0.9281E-01
      9.032  0.1986E-02  0.1986E-02  0.9284E-01  0.9284E-01
      9.048  0.1983E-02  0.1983E-02  0.9287E-01  0.9287E-01
      9.064  0.1977E-02  0.1977E-02  0.9290E-01  0.9290E-01
      9.080  0.1968E-02  0.1968E-02  0.9293E-01  0.9293E-01
      9.096  0.1958E-02  0.1958E-02  0.9296E-01  0.9296E-01
      9.112  0.1948E-02  0.1948E-02  0.9300E-01  0.9300E-01
      9.128  0.1941E-02  0.1941E-02  0.9303E-01  0.9303E-01
      9.144  0.1939E-02  0.1939E-02  0.9306E-01  0.9306E-01
      9.160  0.1941E-02  0.1941E-02  0.9309E-01  0.9309E-01
      9.176  0.1950E-02  0.1950E-02  0.9312E-01  0.9312E-01
      9.192  0.1964E-02  0.1964E-02  0.9315E-01  0.9315E-01
      9.208  0.1983E-02  0.1983E-02  0.9318E-01  0.9318E-01
      9.224  0.2006E-02  0.2006E-02  0.9322E-01  0.9322E-01
      9.240  0.2030E-02  0.2030E-02  0.9325E-01  0.9325E-01
      9.256  0.2054E-02  0.2054E-02  0.9328E-01  0.9328E-01
      9.272  0.2074E-02  0.2074E-02  0.9331E-01  0.9331E-01
      9.288  0.2089E-02  0.2089E-02  0.9335E-01  0.9335E-01
      9.304  0.2096E-02  0.2096E-02  0.9338E-01  0.9338E-01
      9.320  0.2093E-02  0.2094E-02  0.9341E-01  0.9341E-01
      9.336  0.2081E-02  0.2081E-02  0.9345E-01  0.9345E-01
      9.352  0.2057E-02  0.2057E-02  0.9348E-01  0.9348E-01
      9.368  0.2022E-02  0.2022E-02  0.9351E-01  0.9351E-01
      9.384  0.1976E-02  0.1976E-02  0.9355E-01  0.9355E-01
      9.400  0.1920E-02  0.1921E-02  0.9358E-01  0.9358E-01
      9.416  0.1857E-02  0.1857E-02  0.9361E-01  0.9361E-01
      9.432  0.1786E-02  0.1786E-02  0.9363E-01  0.9363E-01
      9.448  0.1710E-02  0.1710E-02  0.9366E-01  0.9366E-01
      9.464  0.1630E-02  0.1630E-02  0.9369E-01  0.9369E-01
      9.480  0.1549E-02  0.1549E-02  0.9371E-01  0.9371E-01
      9.496  0.1468E-02  0.1469E-02  0.9374E-01  0.9374E-01
      9.512  0.1390E-02  0.1391E-02  0.9376E-01  0.9376E-01
      9.528  0.1317E-02  0.1317E-02  0.9378E-01  0.9378E-01
      9.544  0.1249E-02  0.1250E-02  0.9380E-01  0.9380E-01
      9.560  0.1191E-02  0.1191E-02  0.9382E-01  0.9382E-01
      9.576  0.1143E-02  0.1144E-02  0.9384E-01  0.9384E-01
      9.592  0.1109E-02  0.1109E-02  0.9385E-01  0.9385E-01
      9.608  0.1089E-02  0.1089E-02  0.9387E-01  0.9387E-01
      9.624  0.1085E-02  0.1085E-02  0.9389E-01  0.9389E-01
      9.641  0.1098E-02  0.1098E-02  0.9391E-01  0.9391E-01
      9.657  0.1128E-02  0.1128E-02  0.9393E-01  0.9393E-01
      9.673  0.1175E-02  0.1175E-02  0.9394E-01  0.9394E-01
      9.689  0.1238E-02  0.1238E-02  0.9396E-01  0.9396E-01
      9.705  0.1314E-02  0.1314E-02  0.9398E-01  0.9398E-01
      9.721  0.1403E-02  0.1403E-02  0.9401E-01  0.9401E-01
      9.737  0.1499E-02  0.1499E-02  0.9403E-01  0.9403E-01
      9.753  0.1601E-02  0.1601E-02  0.9406E-01  0.9406E-01
      9.769  0.1705E-02  0.1705E-02  0.9408E-01  0.9408E-01
      9.785  0.1806E-02  0.1806E-02  0.9411E-01  0.9411E-01
      9.801  0.1903E-02  0.1903E-02  0.9414E-01  0.9414E-01
      9.817  0.1991E-02  0.1991E-02  0.9418E-01  0.9418E-01
      9.833  0.2069E-02  0.2069E-02  0.9421E-01  0.9421E-01
      9.849  0.2136E-02  0.2136E-02  0.9424E-01  0.9424E-01
      9.865  0.2189E-02  0.2189E-02  0.9428E-01  0.9428E-01
      9.881  0.2230E-02  0.2230E-02  0.9431E-01  0.9431E-01
      9.897  0.2259E-02  0.2259E-02  0.9435E-01  0.9435E-01
      9.913  0.2276E-02  0.2276E-02  0.9439E-01  0.9439E-01
      9.929  0.2284E-02  0.2284E-02  0.9442E-01  0.9442E-01
      9.945  0.2284E-02  0.2284E-02  0.9446E-01  0.9446E-01
      9.961  0.2278E-02  0.2278E-02  0.9450E-01  0.9450E-01
      9.977  0.2269E-02  0.2269E-02  0.9453E-01  0.9453E-01
      9.993  0.2259E-02  0.2259E-02  0.9457E-01  0.9457E-01
     10.009  0.2250E-02  0.2250E-02  0.9460E-01  0.9460E-01
     10.025  0.2245E-02  0.2244E-02  0.9464E-01  0.9464E-01
     10.041  0.2243E-02  0.2243E-02  0.9468E-01  0.9468E-01
     10.057  0.2248E-02  0.2248E-02  0.9471E-01  0.9471E-01
     10.073  0.2259E-02  0.2259E-02  0.9475E-01  0.9475E-01
     10.089  0.2278E-02  0.2277E-02  0.9479E-01  0.9479E-01
     10.105  0.2303E-02  0.2303E-02  0.9482E-01  0.9482E-01
     10.121  0.2335E-02  0.2334E-02  0.9486E-01  0.9486E-01
     10.137  0.2372E-02  0.2371E-02  0.9490E-01  0.9490E-01
     10.153  0.2413E-02  0.2413E-02  0.9494E-01  0.9494E-01
     10.169  0.2458E-02  0.2457E-02  0.9498E-01  0.9498E-01
     10.185  0.2504E-02  0.2504E-02  0.9502E-01  0.9502E-01
     10.201  0.2551E-02  0.2551E-02  0.9506E-01  0.9506E-01
     10.217  0.2598E-02  0.2597E-02  0.9510E-01  0.9510E-01
     10.233  0.2644E-02  0.2643E-02  0.9514E-01  0.9514E-01
     10.249  0.2688E-02  0.2688E-02  0.9518E-01  0.9518E-01
     10.265  0.2732E-02  0.2731E-02  0.9523E-01  0.9523E-01
     10.281  0.2774E-02  0.2773E-02  0.9527E-01  0.9527E-01
     10.297  0.2816E-02  0.2816E-02  0.9532E-01  0.9532E-01
     10.313  0.2859E-02  0.2859E-02  0.9536E-01  0.9536E-01
     10.329  0.2903E-02  0.2903E-02  0.9541E-01  0.9541E-01
     10.345  0.2949E-02  0.2949E-02  0.9546E-01  0.9546E-01
     10.362  0.2997E-02  0.2997E-02  0.9550E-01  0.9550E-01
     10.378  0.3047E-02  0.3047E-02  0.9555E-01  0.9555E-01
     10.394  0.3099E-02  0.3099E-02  0.9560E-01  0.9560E-01
     10.410  0.3153E-02  0.3152E-02  0.9565E-01  0.9565E-01
     10.426  0.3207E-02  0.3207E-02  0.9571E-01  0.9570E-01
     10.442  0.3262E-02  0.3262E-02  0.9576E-01  0.9576E-01
     10.458  0.3316E-02  0.3316E-02  0.9581E-01  0.9581E-01
     10.474  0.3369E-02  0.3369E-02  0.9586E-01  0.9586E-01
     10.490  0.3420E-02  0.3420E-02  0.9592E-01  0.9592E-01
     10.506  0.3469E-02  0.3469E-02  0.9597E-01  0.9597E-01
     10.522  0.3516E-02  0.3516E-02  0.9603E-01  0.9603E-01
     10.538  0.3560E-02  0.3560E-02  0.9609E-01  0.9609E-01
     10.554  0.3602E-02  0.3602E-02  0.9615E-01  0.9615E-01
     10.570  0.3641E-02  0.3641E-02  0.9620E-01  0.9620E-01
     10.586  0.3677E-02  0.3677E-02  0.9626E-01  0.9626E-01
     10.602  0.3710E-02  0.3710E-02  0.9632E-01  0.9632E-01
     10.618  0.3740E-02  0.3740E-02  0.9638E-01  0.9638E-01
     10.634  0.3765E-02  0.3765E-02  0.9644E-01  0.9644E-01
     10.650  0.3786E-02  0.3786E-02  0.9650E-01  0.9650E-01
     10.666  0.3803E-02  0.3803E-02  0.9656E-01  0.9656E-01
     10.682  0.3814E-02  0.3814E-02  0.9663E-01  0.9663E-01
     10.698  0.3821E-02  0.3821E-02  0.9669E-01  0.9669E-01
     10.714  0.3823E-02  0.3823E-02  0.9675E-01  0.9675E-01
     10.730  0.3821E-02  0.3821E-02  0.9681E-01  0.9681E-01
     10.746  0.3816E-02  0.3816E-02  0.9687E-01  0.9687E-01
     10.762  0.3808E-02  0.3808E-02  0.9693E-01  0.9693E-01
     10.778  0.3797E-02  0.3798E-02  0.9699E-01  0.9699E-01
     10.794  0.3786E-02  0.3786E-02  0.9705E-01  0.9705E-01
     10.810  0.3773E-02  0.3773E-02  0.9711E-01  0.9711E-01
     10.826  0.3759E-02  0.3759E-02  0.9717E-01  0.9717E-01
     10.842  0.3743E-02  0.3743E-02  0.9723E-01  0.9723E-01
     10.858  0.3725E-02  0.3725E-02  0.9729E-01  0.9729E-01
     10.874  0.3704E-02  0.3704E-02  0.9735E-01  0.9735E-01
     10.890  0.3679E-02  0.3679E-02  0.9741E-01  0.9741E-01
     10.906  0.3649E-02  0.3649E-02  0.9747E-01  0.9747E-01
     10.922  0.3614E-02  0.3614E-02  0.9753E-01  0.9753E-01
     10.938  0.3574E-02  0.3574E-02  0.9759E-01  0.9758E-01
     10.954  0.3527E-02  0.3528E-02  0.9764E-01  0.9764E-01
     10.970  0.3476E-02  0.3476E-02  0.9770E-01  0.9770E-01
     10.986  0.3420E-02  0.3421E-02  0.9775E-01  0.9775E-01
     11.002  0.3362E-02  0.3362E-02  0.9781E-01  0.9781E-01
     11.018  0.3302E-02  0.3302E-02  0.9786E-01  0.9786E-01
     11.034  0.3243E-02  0.3243E-02  0.9791E-01  0.9791E-01
     11.050  0.3187E-02  0.3187E-02  0.9796E-01  0.9796E-01
     11.066  0.3136E-02  0.3136E-02  0.9801E-01  0.9801E-01
     11.083  0.3094E-02  0.3094E-02  0.9806E-01  0.9806E-01
     11.099  0.3060E-02  0.3061E-02  0.9811E-01  0.9811E-01
     11.115  0.3038E-02  0.3038E-02  0.9816E-01  0.9816E-01
     11.131  0.3028E-02  0.3028E-02  0.9821E-01  0.9821E-01
     11.147  0.3029E-02  0.3029E-02  0.9826E-01  0.9826E-01
     11.163  0.3041E-02  0.3041E-02  0.9831E-01  0.9831E-01
     11.179  0.3063E-02  0.3062E-02  0.9835E-01  0.9835E-01
     11.195  0.3091E-02  0.3091E-02  0.9840E-01  0.9840E-01
     11.211  0.3122E-02  0.3122E-02  0.9845E-01  0.9845E-01
     11.227  0.3155E-02  0.3154E-02  0.9850E-01  0.9850E-01
     11.243  0.3183E-02  0.3183E-02  0.9856E-01  0.9856E-01
     11.259  0.3206E-02  0.3206E-02  0.9861E-01  0.9861E-01
     11.275  0.3219E-02  0.3219E-02  0.9866E-01  0.9866E-01
     11.291  0.3220E-02  0.3221E-02  0.9871E-01  0.9871E-01
     11.307  0.3210E-02  0.3210E-02  0.9876E-01  0.9876E-01
     11.323  0.3187E-02  0.3187E-02  0.9881E-01  0.9881E-01
     11.339  0.3153E-02  0.3153E-02  0.9886E-01  0.9886E-01
     11.355  0.3110E-02  0.3110E-02  0.9891E-01  0.9891E-01
     11.371  0.3062E-02  0.3062E-02  0.9896E-01  0.9896E-01
     11.387  0.3011E-02  0.3012E-02  0.9901E-01  0.9901E-01
     11.403  0.2963E-02  0.2963E-02  0.9906E-01  0.9906E-01
     11.419  0.2920E-02  0.2920E-02  0.9910E-01  0.9910E-01
     11.435  0.2886E-02  0.2886E-02  0.9915E-01  0.9915E-01
     11.451  0.2862E-02  0.2862E-02  0.9920E-01  0.9920E-01
     11.467  0.2850E-02  0.2851E-02  0.9924E-01  0.9924E-01
     11.483  0.2850E-02  0.2850E-02  0.9929E-01  0.9929E-01
     11.499  0.2861E-02  0.2861E-02  0.9933E-01  0.9933E-01
     11.515  0.2879E-02  0.2879E-02  0.9938E-01  0.9938E-01
     11.531  0.2902E-02  0.2902E-02  0.9943E-01  0.9943E-01
     11.547  0.2927E-02  0.2927E-02  0.9947E-01  0.9947E-01
     11.563  0.2949E-02  0.2949E-02  0.9952E-01  0.9952E-01
     11.579  0.2965E-02  0.2965E-02  0.9957E-01  0.9957E-01
     11.595  0.2972E-02  0.2972E-02  0.9962E-01  0.9962E-01
     11.611  0.2968E-02  0.2968E-02  0.9966E-01  0.9966E-01
     11.627  0.2953E-02  0.2953E-02  0.9971E-01  0.9971E-01
     11.643  0.2927E-02  0.2927E-02  0.9976E-01  0.9976E-01
     11.659  0.2892E-02  0.2892E-02  0.9980E-01  0.9980E-01
     11.675  0.2849E-02  0.2849E-02  0.9985E-01  0.9985E-01
     11.691  0.2803E-02  0.2803E-02  0.9989E-01  0.9989E-01
     11.707  0.2757E-02  0.2757E-02  0.9994E-01  0.9994E-01
     11.723  0.2716E-02  0.2716E-02  0.9998E-01  0.9998E-01
     11.739  0.2683E-02  0.2683E-02  0.1000E+00  0.1000E+00
     11.755  0.2661E-02  0.2661E-02  0.1001E+00  0.1001E+00
     11.771  0.2654E-02  0.2654E-02  0.1001E+00  0.1001E+00
     11.787  0.2661E-02  0.2661E-02  0.1002E+00  0.1002E+00
     11.804  0.2684E-02  0.2684E-02  0.1002E+00  0.1002E+00
     11.820  0.2719E-02  0.2719E-02  0.1002E+00  0.1002E+00
     11.836  0.2765E-02  0.2765E-02  0.1003E+00  0.1003E+00
     11.852  0.2817E-02  0.2817E-02  0.1003E+00  0.1003E+00
     11.868  0.2871E-02  0.2871E-02  0.1004E+00  0.1004E+00
     11.884  0.2921E-02  0.2921E-02  0.1004E+00  0.1004E+00
     11.900  0.2963E-02  0.2963E-02  0.1005E+00  0.1005E+00
     11.916  0.2992E-02  0.2992E-02  0.1005E+00  0.1005E+00
     11.932  0.3004E-02  0.3004E-02  0.1006E+00  0.1006E+00
     11.948  0.2996E-02  0.2996E-02  0.1006E+00  0.1006E+00
     11.964  0.2967E-02  0.2968E-02  0.1007E+00  0.1007E+00
     11.980  0.2917E-02  0.2918E-02  0.1007E+00  0.1007E+00
     11.996  0.2848E-02  0.2848E-02  0.1008E+00  0.1008E+00
     12.012  0.2762E-02  0.2763E-02  0.1008E+00  0.1008E+00
     12.028  0.2665E-02  0.2665E-02  0.1008E+00  0.1008E+00
     12.044  0.2561E-02  0.2561E-02  0.1009E+00  0.1009E+00
     12.060  0.2456E-02  0.2456E-02  0.1009E+00  0.1009E+00
     12.076  0.2356E-02  0.2356E-02  0.1010E+00  0.1010E+00
     12.092  0.2266E-02  0.2267E-02  0.1010E+00  0.1010E+00
     12.108  0.2193E-02  0.2193E-02  0.1010E+00  0.1010E+00
     12.124  0.2139E-02  0.2139E-02  0.1011E+00  0.1011E+00
     12.140  0.2109E-02  0.2109E-02  0.1011E+00  0.1011E+00
     12.156  0.2102E-02  0.2102E-02  0.1011E+00  0.1011E+00
     12.172  0.2121E-02  0.2121E-02  0.1012E+00  0.1012E+00
     12.188  0.2162E-02  0.2162E-02  0.1012E+00  0.1012E+00
     12.204  0.2224E-02  0.2224E-02  0.1012E+00  0.1012E+00
     12.220  0.2303E-02  0.2303E-02  0.1013E+00  0.1013E+00
     12.236  0.2393E-02  0.2393E-02  0.1013E+00  0.1013E+00
     12.252  0.2491E-02  0.2490E-02  0.1014E+00  0.1014E+00
     12.268  0.2589E-02  0.2589E-02  0.1014E+00  0.1014E+00
     12.284  0.2684E-02  0.2683E-02  0.1014E+00  0.1014E+00
     12.300  0.2769E-02  0.2769E-02  0.1015E+00  0.1015E+00
     12.316  0.2842E-02  0.2841E-02  0.1015E+00  0.1015E+00
     12.332  0.2898E-02  0.2898E-02  0.1016E+00  0.1016E+00
     12.348  0.2936E-02  0.2936E-02  0.1016E+00  0.1016E+00
     12.364  0.2956E-02  0.2955E-02  0.1017E+00  0.1017E+00
     12.380  0.2957E-02  0.2957E-02  0.1017E+00  0.1017E+00
     12.396  0.2942E-02  0.2942E-02  0.1018E+00  0.1018E+00
     12.412  0.2914E-02  0.2914E-02  0.1018E+00  0.1018E+00
     12.428  0.2876E-02  0.2876E-02  0.1019E+00  0.1019E+00
     12.444  0.2832E-02  0.2832E-02  0.1019E+00  0.1019E+00
     12.460  0.2788E-02  0.2788E-02  0.1019E+00  0.1019E+00
     12.476  0.2747E-02  0.2748E-02  0.1020E+00  0.1020E+00
     12.492  0.2715E-02  0.2715E-02  0.1020E+00  0.1020E+00
     12.508  0.2693E-02  0.2693E-02  0.1021E+00  0.1021E+00
     12.524  0.2685E-02  0.2685E-02  0.1021E+00  0.1021E+00
     12.541  0.2693E-02  0.2693E-02  0.1022E+00  0.1022E+00
     12.557  0.2717E-02  0.2717E-02  0.1022E+00  0.1022E+00
     12.573  0.2755E-02  0.2755E-02  0.1022E+00  0.1022E+00
     12.589  0.2808E-02  0.2808E-02  0.1023E+00  0.1023E+00
     12.605  0.2872E-02  0.2872E-02  0.1023E+00  0.1023E+00
     12.621  0.2943E-02  0.2943E-02  0.1024E+00  0.1024E+00
     12.637  0.3020E-02  0.3020E-02  0.1024E+00  0.1024E+00
     12.653  0.3098E-02  0.3098E-02  0.1025E+00  0.1025E+00
     12.669  0.3173E-02  0.3173E-02  0.1025E+00  0.1025E+00
     12.685  0.3242E-02  0.3242E-02  0.1026E+00  0.1026E+00
     12.701  0.3303E-02  0.3303E-02  0.1026E+00  0.1026E+00
     12.717  0.3353E-02  0.3353E-02  0.1027E+00  0.1027E+00
     12.733  0.3390E-02  0.3391E-02  0.1027E+00  0.1027E+00
     12.749  0.3415E-02  0.3416E-02  0.1028E+00  0.1028E+00
     12.765  0.3427E-02  0.3428E-02  0.1029E+00  0.1029E+00
     12.781  0.3427E-02  0.3427E-02  0.1029E+00  0.1029E+00
     12.797  0.3416E-02  0.3416E-02  0.1030E+00  0.1030E+00
     12.813  0.3395E-02  0.3395E-02  0.1030E+00  0.1030E+00
     12.829  0.3367E-02  0.3368E-02  0.1031E+00  0.1031E+00
     12.845  0.3335E-02  0.3335E-02  0.1031E+00  0.1031E+00
     12.861  0.3299E-02  0.3299E-02  0.1032E+00  0.1032E+00
     12.877  0.3263E-02  0.3263E-02  0.1032E+00  0.1032E+00
     12.893  0.3229E-02  0.3229E-02  0.1033E+00  0.1033E+00
     12.909  0.3198E-02  0.3198E-02  0.1033E+00  0.1033E+00
     12.925  0.3171E-02  0.3171E-02  0.1034E+00  0.1034E+00
     12.941  0.3150E-02  0.3150E-02  0.1034E+00  0.1034E+00
     12.957  0.3134E-02  0.3134E-02  0.1035E+00  0.1035E+00
     12.973  0.3124E-02  0.3124E-02  0.1035E+00  0.1035E+00
     12.989  0.3119E-02  0.3119E-02  0.1036E+00  0.1036E+00
     13.005  0.3117E-02  0.3117E-02  0.1036E+00  0.1036E+00
     13.021  0.3118E-02  0.3118E-02  0.1037E+00  0.1037E+00
     13.037  0.3121E-02  0.3121E-02  0.1037E+00  0.1037E+00
     13.053  0.3125E-02  0.3124E-02  0.1038E+00  0.1038E+00
     13.069  0.3127E-02  0.3127E-02  0.1038E+00  0.1038E+00
     13.085  0.3130E-02  0.3130E-02  0.1039E+00  0.1039E+00
     13.101  0.3130E-02  0.3131E-02  0.1039E+00  0.1039E+00
     13.117  0.3130E-02  0.3131E-02  0.1040E+00  0.1040E+00
     13.133  0.3130E-02  0.3130E-02  0.1040E+00  0.1040E+00
     13.149  0.3130E-02  0.3130E-02  0.1041E+00  0.1041E+00
     13.165  0.3131E-02  0.3131E-02  0.1041E+00  0.1041E+00
     13.181  0.3135E-02  0.3135E-02  0.1042E+00  0.1042E+00
     13.197  0.3142E-02  0.3142E-02  0.1042E+00  0.1042E+00
     13.213  0.3153E-02  0.3153E-02  0.1043E+00  0.1043E+00
     13.229  0.3169E-02  0.3169E-02  0.1043E+00  0.1043E+00
     13.245  0.3190E-02  0.3190E-02  0.1044E+00  0.1044E+00
     13.262  0.3217E-02  0.3217E-02  0.1044E+00  0.1044E+00
     13.278  0.3248E-02  0.3248E-02  0.1045E+00  0.1045E+00
     13.294  0.3283E-02  0.3284E-02  0.1045E+00  0.1045E+00
     13.310  0.3323E-02  0.3323E-02  0.1046E+00  0.1046E+00
     13.326  0.3365E-02  0.3365E-02  0.1047E+00  0.1047E+00
     13.342  0.3409E-02  0.3409E-02  0.1047E+00  0.1047E+00
     13.358  0.3453E-02  0.3453E-02  0.1048E+00  0.1048E+00
     13.374  0.3498E-02  0.3498E-02  0.1048E+00  0.1048E+00
     13.390  0.3542E-02  0.3542E-02  0.1049E+00  0.1049E+00
     13.406  0.3584E-02  0.3584E-02  0.1049E+00  0.1049E+00
     13.422  0.3624E-02  0.3624E-02  0.1050E+00  0.1050E+00
     13.438  0.3662E-02  0.3662E-02  0.1051E+00  0.1051E+00
     13.454  0.3696E-02  0.3696E-02  0.1051E+00  0.1051E+00
     13.470  0.3727E-02  0.3727E-02  0.1052E+00  0.1052E+00
     13.486  0.3755E-02  0.3755E-02  0.1052E+00  0.1052E+00
     13.502  0.3779E-02  0.3779E-02  0.1053E+00  0.1053E+00
     13.518  0.3801E-02  0.3801E-02  0.1054E+00  0.1054E+00
     13.534  0.3819E-02  0.3819E-02  0.1054E+00  0.1054E+00
     13.550  0.3834E-02  0.3834E-02  0.1055E+00  0.1055E+00
     13.566  0.3847E-02  0.3847E-02  0.1055E+00  0.1055E+00
     13.582  0.3859E-02  0.3859E-02  0.1056E+00  0.1056E+00
     13.598  0.3870E-02  0.3870E-02  0.1057E+00  0.1057E+00
     13.614  0.3881E-02  0.3881E-02  0.1057E+00  0.1057E+00
     13.630  0.3893E-02  0.3893E-02  0.1058E+00  0.1058E+00
     13.646  0.3907E-02  0.3907E-02  0.1058E+00  0.1058E+00
     13.662  0.3924E-02  0.3924E-02  0.1059E+00  0.1059E+00
     13.678  0.3946E-02  0.3946E-02  0.1060E+00  0.1060E+00
     13.694  0.3972E-02  0.3972E-02  0.1060E+00  0.1060E+00
     13.710  0.4003E-02  0.4003E-02  0.1061E+00  0.1061E+00
     13.726  0.4039E-02  0.4039E-02  0.1062E+00  0.1062E+00
     13.742  0.4080E-02  0.4080E-02  0.1062E+00  0.1062E+00
     13.758  0.4124E-02  0.4124E-02  0.1063E+00  0.1063E+00
     13.774  0.4170E-02  0.4170E-02  0.1064E+00  0.1064E+00
     13.790  0.4217E-02  0.4216E-02  0.1064E+00  0.1064E+00
     13.806  0.4261E-02  0.4261E-02  0.1065E+00  0.1065E+00
     13.822  0.4301E-02  0.4301E-02  0.1066E+00  0.1066E+00
     13.838  0.4335E-02  0.4335E-02  0.1066E+00  0.1066E+00
     13.854  0.4361E-02  0.4361E-02  0.1067E+00  0.1067E+00
     13.870  0.4376E-02  0.4376E-02  0.1068E+00  0.1068E+00
     13.886  0.4379E-02  0.4379E-02  0.1068E+00  0.1068E+00
     13.902  0.4370E-02  0.4371E-02  0.1069E+00  0.1069E+00
     13.918  0.4349E-02  0.4349E-02  0.1070E+00  0.1070E+00
     13.934  0.4315E-02  0.4315E-02  0.1071E+00  0.1071E+00
     13.950  0.4270E-02  0.4271E-02  0.1071E+00  0.1071E+00
     13.966  0.4216E-02  0.4217E-02  0.1072E+00  0.1072E+00
     13.983  0.4155E-02  0.4156E-02  0.1073E+00  0.1073E+00
     13.999  0.4090E-02  0.4090E-02  0.1073E+00  0.1073E+00
     14.015  0.4022E-02  0.4022E-02  0.1074E+00  0.1074E+00
     14.031  0.3955E-02  0.3955E-02  0.1075E+00  0.1075E+00
     14.047  0.3890E-02  0.3890E-02  0.1075E+00  0.1075E+00
     14.063  0.3831E-02  0.3831E-02  0.1076E+00  0.1076E+00
     14.079  0.3778E-02  0.3778E-02  0.1076E+00  0.1076E+00
     14.095  0.3732E-02  0.3732E-02  0.1077E+00  0.1077E+00
     14.111  0.3693E-02  0.3693E-02  0.1078E+00  0.1078E+00
     14.127  0.3661E-02  0.3661E-02  0.1078E+00  0.1078E+00
     14.143  0.3635E-02  0.3635E-02  0.1079E+00  0.1079E+00
     14.159  0.3613E-02  0.3613E-02  0.1079E+00  0.1079E+00
     14.175  0.3593E-02  0.3593E-02  0.1080E+00  0.1080E+00
     14.191  0.3574E-02  0.3574E-02  0.1080E+00  0.1080E+00
     14.207  0.3554E-02  0.3554E-02  0.1081E+00  0.1081E+00
     14.223  0.3532E-02  0.3532E-02  0.1082E+00  0.1082E+00
     14.239  0.3506E-02  0.3506E-02  0.1082E+00  0.1082E+00
     14.255  0.3478E-02  0.3477E-02  0.1083E+00  0.1083E+00
     14.271  0.3446E-02  0.3446E-02  0.1083E+00  0.1083E+00
     14.287  0.3414E-02  0.3414E-02  0.1084E+00  0.1084E+00
     14.303  0.3382E-02  0.3382E-02  0.1084E+00  0.1084E+00
     14.319  0.3354E-02  0.3353E-02  0.1085E+00  0.1085E+00
     14.335  0.3331E-02  0.3331E-02  0.1085E+00  0.1085E+00
     14.351  0.3317E-02  0.3317E-02  0.1086E+00  0.1086E+00
     14.367  0.3315E-02  0.3315E-02  0.1086E+00  0.1086E+00
     14.383  0.3326E-02  0.3326E-02  0.1087E+00  0.1087E+00
     14.399  0.3351E-02  0.3351E-02  0.1088E+00  0.1088E+00
     14.415  0.3392E-02  0.3392E-02  0.1088E+00  0.1088E+00
     14.431  0.3447E-02  0.3447E-02  0.1089E+00  0.1089E+00
     14.447  0.3516E-02  0.3516E-02  0.1089E+00  0.1089E+00
     14.463  0.3596E-02  0.3596E-02  0.1090E+00  0.1090E+00
     14.479  0.3684E-02  0.3684E-02  0.1090E+00  0.1090E+00
     14.495  0.3776E-02  0.3776E-02  0.1091E+00  0.1091E+00
     14.511  0.3869E-02  0.3868E-02  0.1092E+00  0.1092E+00
     14.527  0.3956E-02  0.3956E-02  0.1092E+00  0.1092E+00
     14.543  0.4035E-02  0.4035E-02  0.1093E+00  0.1093E+00
     14.559  0.4101E-02  0.4101E-02  0.1094E+00  0.1094E+00
     14.575  0.4150E-02  0.4150E-02  0.1094E+00  0.1094E+00
     14.591  0.4179E-02  0.4179E-02  0.1095E+00  0.1095E+00
     14.607  0.4186E-02  0.4186E-02  0.1096E+00  0.1096E+00
     14.623  0.4171E-02  0.4171E-02  0.1096E+00  0.1096E+00
     14.639  0.4132E-02  0.4132E-02  0.1097E+00  0.1097E+00
     14.655  0.4073E-02  0.4073E-02  0.1098E+00  0.1098E+00
     14.671  0.3994E-02  0.3994E-02  0.1098E+00  0.1098E+00
     14.687  0.3900E-02  0.3900E-02  0.1099E+00  0.1099E+00
     14.704  0.3795E-02  0.3795E-02  0.1099E+00  0.1099E+00
     14.720  0.3683E-02  0.3684E-02  0.1100E+00  0.1100E+00
     14.736  0.3570E-02  0.3570E-02  0.1101E+00  0.1101E+00
     14.752  0.3459E-02  0.3460E-02  0.1101E+00  0.1101E+00
     14.768  0.3356E-02  0.3356E-02  0.1102E+00  0.1102E+00
     14.784  0.3262E-02  0.3262E-02  0.1102E+00  0.1102E+00
     14.800  0.3181E-02  0.3181E-02  0.1103E+00  0.1103E+00
     14.816  0.3113E-02  0.3114E-02  0.1103E+00  0.1103E+00
     14.832  0.3059E-02  0.3059E-02  0.1104E+00  0.1104E+00
     14.848  0.3017E-02  0.3017E-02  0.1104E+00  0.1104E+00
     14.864  0.2986E-02  0.2986E-02  0.1105E+00  0.1105E+00
     14.880  0.2962E-02  0.2963E-02  0.1105E+00  0.1105E+00
     14.896  0.2944E-02  0.2945E-02  0.1106E+00  0.1106E+00
     14.912  0.2929E-02  0.2929E-02  0.1106E+00  0.1106E+00
     14.928  0.2914E-02  0.2915E-02  0.1107E+00  0.1107E+00
     14.944  0.2899E-02  0.2899E-02  0.1107E+00  0.1107E+00
     14.960  0.2882E-02  0.2882E-02  0.1107E+00  0.1107E+00
     14.976  0.2863E-02  0.2863E-02  0.1108E+00  0.1108E+00
     14.992  0.2844E-02  0.2844E-02  0.1108E+00  0.1108E+00
     15.008  0.2828E-02  0.2828E-02  0.1109E+00  0.1109E+00
     15.024  0.2815E-02  0.2815E-02  0.1109E+00  0.1109E+00
     15.040  0.2810E-02  0.2810E-02  0.1110E+00  0.1110E+00
     15.056  0.2814E-02  0.2814E-02  0.1110E+00  0.1110E+00
     15.072  0.2830E-02  0.2830E-02  0.1111E+00  0.1111E+00
     15.088  0.2860E-02  0.2860E-02  0.1111E+00  0.1111E+00
     15.104  0.2904E-02  0.2904E-02  0.1112E+00  0.1112E+00
     15.120  0.2963E-02  0.2962E-02  0.1112E+00  0.1112E+00
     15.136  0.3033E-02  0.3033E-02  0.1113E+00  0.1113E+00
     15.152  0.3115E-02  0.3115E-02  0.1113E+00  0.1113E+00
     15.168  0.3203E-02  0.3203E-02  0.1114E+00  0.1114E+00
     15.184  0.3296E-02  0.3296E-02  0.1114E+00  0.1114E+00
     15.200  0.3388E-02  0.3388E-02  0.1115E+00  0.1115E+00
     15.216  0.3477E-02  0.3477E-02  0.1115E+00  0.1115E+00
     15.232  0.3558E-02  0.3558E-02  0.1116E+00  0.1116E+00
     15.248  0.3628E-02  0.3628E-02  0.1116E+00  0.1116E+00
     15.264  0.3685E-02  0.3685E-02  0.1117E+00  0.1117E+00
     15.280  0.3727E-02  0.3727E-02  0.1117E+00  0.1117E+00
     15.296  0.3753E-02  0.3753E-02  0.1118E+00  0.1118E+00
     15.312  0.3765E-02  0.3765E-02  0.1119E+00  0.1119E+00
     15.328  0.3761E-02  0.3761E-02  0.1119E+00  0.1119E+00
     15.344  0.3744E-02  0.3744E-02  0.1120E+00  0.1120E+00
     15.360  0.3716E-02  0.3716E-02  0.1121E+00  0.1121E+00
     15.376  0.3677E-02  0.3677E-02  0.1121E+00  0.1121E+00
     15.392  0.3632E-02  0.3632E-02  0.1122E+00  0.1122E+00
     15.408  0.3581E-02  0.3581E-02  0.1122E+00  0.1122E+00
     15.424  0.3527E-02  0.3527E-02  0.1123E+00  0.1123E+00
     15.441  0.3472E-02  0.3472E-02  0.1123E+00  0.1123E+00
     15.457  0.3419E-02  0.3418E-02  0.1124E+00  0.1124E+00
     15.473  0.3368E-02  0.3368E-02  0.1124E+00  0.1124E+00
     15.489  0.3323E-02  0.3323E-02  0.1125E+00  0.1125E+00
     15.505  0.3285E-02  0.3285E-02  0.1126E+00  0.1126E+00
     15.521  0.3254E-02  0.3254E-02  0.1126E+00  0.1126E+00
     15.537  0.3232E-02  0.3232E-02  0.1127E+00  0.1127E+00
     15.553  0.3219E-02  0.3220E-02  0.1127E+00  0.1127E+00
     15.569  0.3216E-02  0.3216E-02  0.1128E+00  0.1128E+00
     15.585  0.3222E-02  0.3222E-02  0.1128E+00  0.1128E+00
     15.601  0.3237E-02  0.3237E-02  0.1129E+00  0.1129E+00
     15.617  0.3258E-02  0.3258E-02  0.1129E+00  0.1129E+00
     15.633  0.3284E-02  0.3284E-02  0.1130E+00  0.1130E+00
     15.649  0.3314E-02  0.3314E-02  0.1130E+00  0.1130E+00
     15.665  0.3345E-02  0.3345E-02  0.1131E+00  0.1131E+00
     15.681  0.3375E-02  0.3376E-02  0.1131E+00  0.1131E+00
     15.697  0.3403E-02  0.3403E-02  0.1132E+00  0.1132E+00
     15.713  0.3426E-02  0.3426E-02  0.1132E+00  0.1132E+00
     15.729  0.3444E-02  0.3444E-02  0.1133E+00  0.1133E+00
     15.745  0.3455E-02  0.3455E-02  0.1133E+00  0.1133E+00
     15.761  0.3460E-02  0.3460E-02  0.1134E+00  0.1134E+00
     15.777  0.3460E-02  0.3460E-02  0.1135E+00  0.1135E+00
     15.793  0.3455E-02  0.3455E-02  0.1135E+00  0.1135E+00
     15.809  0.3448E-02  0.3449E-02  0.1136E+00  0.1136E+00
     15.825  0.3442E-02  0.3442E-02  0.1136E+00  0.1136E+00
     15.841  0.3439E-02  0.3439E-02  0.1137E+00  0.1137E+00
     15.857  0.3441E-02  0.3441E-02  0.1137E+00  0.1137E+00
     15.873  0.3451E-02  0.3451E-02  0.1138E+00  0.1138E+00
     15.889  0.3472E-02  0.3472E-02  0.1138E+00  0.1138E+00
     15.905  0.3505E-02  0.3505E-02  0.1139E+00  0.1139E+00
     15.921  0.3550E-02  0.3550E-02  0.1140E+00  0.1140E+00
     15.937  0.3609E-02  0.3609E-02  0.1140E+00  0.1140E+00
     15.953  0.3681E-02  0.3681E-02  0.1141E+00  0.1141E+00
     15.969  0.3763E-02  0.3762E-02  0.1141E+00  0.1141E+00
     15.985  0.3853E-02  0.3852E-02  0.1142E+00  0.1142E+00
     16.001  0.3948E-02  0.3948E-02  0.1143E+00  0.1143E+00
     16.017  0.4045E-02  0.4045E-02  0.1143E+00  0.1143E+00
     16.033  0.4140E-02  0.4140E-02  0.1144E+00  0.1144E+00
     16.049  0.4230E-02  0.4230E-02  0.1145E+00  0.1145E+00
     16.065  0.4311E-02  0.4311E-02  0.1145E+00  0.1145E+00
     16.081  0.4382E-02  0.4382E-02  0.1146E+00  0.1146E+00
     16.097  0.4439E-02  0.4439E-02  0.1147E+00  0.1147E+00
     16.113  0.4482E-02  0.4482E-02  0.1147E+00  0.1147E+00
     16.129  0.4510E-02  0.4510E-02  0.1148E+00  0.1148E+00
     16.145  0.4522E-02  0.4522E-02  0.1149E+00  0.1149E+00
     16.162  0.4520E-02  0.4520E-02  0.1150E+00  0.1150E+00
     16.178  0.4503E-02  0.4503E-02  0.1150E+00  0.1150E+00
     16.194  0.4472E-02  0.4472E-02  0.1151E+00  0.1151E+00
     16.210  0.4429E-02  0.4429E-02  0.1152E+00  0.1152E+00
     16.226  0.4375E-02  0.4375E-02  0.1152E+00  0.1152E+00
     16.242  0.4310E-02  0.4310E-02  0.1153E+00  0.1153E+00
     16.258  0.4235E-02  0.4235E-02  0.1154E+00  0.1154E+00
     16.274  0.4152E-02  0.4152E-02  0.1154E+00  0.1154E+00
     16.290  0.4061E-02  0.4061E-02  0.1155E+00  0.1155E+00
     16.306  0.3964E-02  0.3964E-02  0.1156E+00  0.1156E+00
     16.322  0.3861E-02  0.3861E-02  0.1156E+00  0.1156E+00
     16.338  0.3755E-02  0.3755E-02  0.1157E+00  0.1157E+00
     16.354  0.3647E-02  0.3646E-02  0.1158E+00  0.1158E+00
     16.370  0.3539E-02  0.3538E-02  0.1158E+00  0.1158E+00
     16.386  0.3433E-02  0.3433E-02  0.1159E+00  0.1159E+00
     16.402  0.3334E-02  0.3334E-02  0.1159E+00  0.1159E+00
     16.418  0.3242E-02  0.3242E-02  0.1160E+00  0.1160E+00
     16.434  0.3162E-02  0.3162E-02  0.1160E+00  0.1160E+00
     16.450  0.3095E-02  0.3095E-02  0.1161E+00  0.1161E+00
     16.466  0.3044E-02  0.3044E-02  0.1161E+00  0.1161E+00
     16.482  0.3011E-02  0.3011E-02  0.1162E+00  0.1162E+00
     16.498  0.2996E-02  0.2996E-02  0.1162E+00  0.1162E+00
     16.514  0.3000E-02  0.3000E-02  0.1163E+00  0.1163E+00
     16.530  0.3023E-02  0.3023E-02  0.1163E+00  0.1163E+00
     16.546  0.3062E-02  0.3062E-02  0.1164E+00  0.1164E+00
     16.562  0.3117E-02  0.3117E-02  0.1164E+00  0.1164E+00
     16.578  0.3185E-02  0.3185E-02  0.1165E+00  0.1165E+00
     16.594  0.3262E-02  0.3262E-02  0.1165E+00  0.1165E+00
     16.610  0.3346E-02  0.3346E-02  0.1166E+00  0.1166E+00
     16.626  0.3433E-02  0.3434E-02  0.1166E+00  0.1166E+00
     16.642  0.3521E-02  0.3521E-02  0.1167E+00  0.1167E+00
     16.658  0.3604E-02  0.3605E-02  0.1167E+00  0.1167E+00
     16.674  0.3682E-02  0.3683E-02  0.1168E+00  0.1168E+00
     16.690  0.3752E-02  0.3752E-02  0.1169E+00  0.1169E+00
     16.706  0.3811E-02  0.3811E-02  0.1169E+00  0.1169E+00
     16.722  0.3858E-02  0.3858E-02  0.1170E+00  0.1170E+00
     16.738  0.3893E-02  0.3893E-02  0.1170E+00  0.1170E+00
     16.754  0.3914E-02  0.3914E-02  0.1171E+00  0.1171E+00
     16.770  0.3923E-02  0.3923E-02  0.1172E+00  0.1172E+00
     16.786  0.3920E-02  0.3920E-02  0.1172E+00  0.1172E+00
     16.802  0.3905E-02  0.3905E-02  0.1173E+00  0.1173E+00
     16.818  0.3879E-02  0.3879E-02  0.1174E+00  0.1174E+00
     16.834  0.3845E-02  0.3845E-02  0.1174E+00  0.1174E+00
     16.850  0.3804E-02  0.3804E-02  0.1175E+00  0.1175E+00
     16.866  0.3757E-02  0.3757E-02  0.1175E+00  0.1175E+00
     16.883  0.3706E-02  0.3706E-02  0.1176E+00  0.1176E+00
     16.899  0.3653E-02  0.3652E-02  0.1177E+00  0.1177E+00
     16.915  0.3597E-02  0.3597E-02  0.1177E+00  0.1177E+00
     16.931  0.3541E-02  0.3541E-02  0.1178E+00  0.1178E+00
     16.947  0.3484E-02  0.3484E-02  0.1178E+00  0.1178E+00
     16.963  0.3426E-02  0.3426E-02  0.1179E+00  0.1179E+00
     16.979  0.3368E-02  0.3367E-02  0.1179E+00  0.1179E+00
     16.995  0.3306E-02  0.3306E-02  0.1180E+00  0.1180E+00
     17.011  0.3242E-02  0.3242E-02  0.1180E+00  0.1180E+00
     17.027  0.3172E-02  0.3172E-02  0.1181E+00  0.1181E+00
     17.043  0.3095E-02  0.3095E-02  0.1181E+00  0.1181E+00
     17.059  0.3010E-02  0.3010E-02  0.1182E+00  0.1182E+00
     17.075  0.2915E-02  0.2915E-02  0.1182E+00  0.1182E+00
     17.091  0.2809E-02  0.2809E-02  0.1183E+00  0.1183E+00
     17.107  0.2691E-02  0.2691E-02  0.1183E+00  0.1183E+00
     17.123  0.2563E-02  0.2563E-02  0.1184E+00  0.1184E+00
     17.139  0.2424E-02  0.2424E-02  0.1184E+00  0.1184E+00
     17.155  0.2276E-02  0.2276E-02  0.1184E+00  0.1184E+00
     17.171  0.2122E-02  0.2122E-02  0.1185E+00  0.1185E+00
     17.187  0.1964E-02  0.1964E-02  0.1185E+00  0.1185E+00
     17.203  0.1806E-02  0.1806E-02  0.1185E+00  0.1185E+00
     17.219  0.1651E-02  0.1651E-02  0.1186E+00  0.1186E+00
     17.235  0.1502E-02  0.1502E-02  0.1186E+00  0.1186E+00
     17.251  0.1364E-02  0.1364E-02  0.1186E+00  0.1186E+00
     17.267  0.1239E-02  0.1239E-02  0.1186E+00  0.1186E+00
     17.283  0.1130E-02  0.1129E-02  0.1186E+00  0.1186E+00
     17.299  0.1039E-02  0.1039E-02  0.1187E+00  0.1187E+00
     17.315  0.9671E-03  0.9669E-03  0.1187E+00  0.1187E+00
     17.331  0.9154E-03  0.9153E-03  0.1187E+00  0.1187E+00
     17.347  0.8832E-03  0.8831E-03  0.1187E+00  0.1187E+00
     17.363  0.8695E-03  0.8695E-03  0.1187E+00  0.1187E+00
     17.379  0.8725E-03  0.8724E-03  0.1187E+00  0.1187E+00
     17.395  0.8896E-03  0.8895E-03  0.1187E+00  0.1187E+00
     17.411  0.9180E-03  0.9179E-03  0.1188E+00  0.1188E+00
     17.427  0.9546E-03  0.9545E-03  0.1188E+00  0.1188E+00
     17.443  0.9961E-03  0.9961E-03  0.1188E+00  0.1188E+00
     17.459  0.1039E-02  0.1039E-02  0.1188E+00  0.1188E+00
     17.475  0.1081E-02  0.1081E-02  0.1188E+00  0.1188E+00
     17.491  0.1120E-02  0.1120E-02  0.1188E+00  0.1188E+00
     17.507  0.1152E-02  0.1152E-02  0.1189E+00  0.1189E+00
     17.523  0.1176E-02  0.1176E-02  0.1189E+00  0.1189E+00
     17.539  0.1191E-02  0.1191E-02  0.1189E+00  0.1189E+00
     17.555  0.1197E-02  0.1197E-02  0.1189E+00  0.1189E+00
     17.571  0.1192E-02  0.1192E-02  0.1189E+00  0.1189E+00
     17.587  0.1178E-02  0.1178E-02  0.1190E+00  0.1190E+00
     17.604  0.1153E-02  0.1153E-02  0.1190E+00  0.1190E+00
     17.620  0.1120E-02  0.1120E-02  0.1190E+00  0.1190E+00
     17.636  0.1078E-02  0.1078E-02  0.1190E+00  0.1190E+00
     17.652  0.1029E-02  0.1029E-02  0.1190E+00  0.1190E+00
     17.668  0.9740E-03  0.9740E-03  0.1190E+00  0.1190E+00
     17.684  0.9139E-03  0.9139E-03  0.1191E+00  0.1191E+00
     17.700  0.8503E-03  0.8502E-03  0.1191E+00  0.1191E+00
     17.716  0.7845E-03  0.7844E-03  0.1191E+00  0.1191E+00
     17.732  0.7181E-03  0.7181E-03  0.1191E+00  0.1191E+00
     17.748  0.6527E-03  0.6526E-03  0.1191E+00  0.1191E+00
     17.764  0.5898E-03  0.5898E-03  0.1191E+00  0.1191E+00
     17.780  0.5310E-03  0.5310E-03  0.1191E+00  0.1191E+00
     17.796  0.4777E-03  0.4777E-03  0.1191E+00  0.1191E+00
     17.812  0.4311E-03  0.4311E-03  0.1191E+00  0.1191E+00
     17.828  0.3922E-03  0.3922E-03  0.1191E+00  0.1191E+00
     17.844  0.3616E-03  0.3616E-03  0.1192E+00  0.1192E+00
     17.860  0.3396E-03  0.3396E-03  0.1192E+00  0.1192E+00
     17.876  0.3260E-03  0.3259E-03  0.1192E+00  0.1192E+00
     17.892  0.3201E-03  0.3201E-03  0.1192E+00  0.1192E+00
     17.908  0.3212E-03  0.3212E-03  0.1192E+00  0.1192E+00
     17.924  0.3279E-03  0.3279E-03  0.1192E+00  0.1192E+00
     17.940  0.3389E-03  0.3389E-03  0.1192E+00  0.1192E+00
     17.956  0.3525E-03  0.3525E-03  0.1192E+00  0.1192E+00
     17.972  0.3673E-03  0.3673E-03  0.1192E+00  0.1192E+00
     17.988  0.3819E-03  0.3819E-03  0.1192E+00  0.1192E+00
     18.004  0.3951E-03  0.3951E-03  0.1192E+00  0.1192E+00
     18.020  0.4060E-03  0.4060E-03  0.1192E+00  0.1192E+00
     18.036  0.4141E-03  0.4141E-03  0.1192E+00  0.1192E+00
     18.052  0.4192E-03  0.4192E-03  0.1192E+00  0.1192E+00
     18.068  0.4214E-03  0.4214E-03  0.1192E+00  0.1192E+00
     18.084  0.4209E-03  0.4209E-03  0.1192E+00  0.1192E+00
     18.100  0.4183E-03  0.4183E-03  0.1192E+00  0.1192E+00
     18.116  0.4141E-03  0.4141E-03  0.1193E+00  0.1193E+00
     18.132  0.4089E-03  0.4089E-03  0.1193E+00  0.1193E+00
     18.148  0.4033E-03  0.4033E-03  0.1193E+00  0.1193E+00
     18.164  0.3977E-03  0.3977E-03  0.1193E+00  0.1193E+00
     18.180  0.3922E-03  0.3922E-03  0.1193E+00  0.1193E+00
     18.196  0.3870E-03  0.3870E-03  0.1193E+00  0.1193E+00
     18.212  0.3821E-03  0.3821E-03  0.1193E+00  0.1193E+00
     18.228  0.3773E-03  0.3773E-03  0.1193E+00  0.1193E+00
     18.244  0.3725E-03  0.3725E-03  0.1193E+00  0.1193E+00
     18.260  0.3675E-03  0.3675E-03  0.1193E+00  0.1193E+00
     18.276  0.3622E-03  0.3622E-03  0.1193E+00  0.1193E+00
     18.292  0.3565E-03  0.3565E-03  0.1193E+00  0.1193E+00
     18.308  0.3505E-03  0.3505E-03  0.1193E+00  0.1193E+00
     18.324  0.3443E-03  0.3443E-03  0.1193E+00  0.1193E+00
     18.341  0.3382E-03  0.3382E-03  0.1193E+00  0.1193E+00
     18.357  0.3325E-03  0.3325E-03  0.1193E+00  0.1193E+00
     18.373  0.3276E-03  0.3276E-03  0.1194E+00  0.1194E+00
     18.389  0.3238E-03  0.3238E-03  0.1194E+00  0.1194E+00
     18.405  0.3214E-03  0.3214E-03  0.1194E+00  0.1194E+00
     18.421  0.3206E-03  0.3206E-03  0.1194E+00  0.1194E+00
     18.437  0.3215E-03  0.3215E-03  0.1194E+00  0.1194E+00
     18.453  0.3241E-03  0.3241E-03  0.1194E+00  0.1194E+00
     18.469  0.3280E-03  0.3281E-03  0.1194E+00  0.1194E+00
     18.485  0.3331E-03  0.3331E-03  0.1194E+00  0.1194E+00
     18.501  0.3388E-03  0.3388E-03  0.1194E+00  0.1194E+00
     18.517  0.3444E-03  0.3444E-03  0.1194E+00  0.1194E+00
     18.533  0.3495E-03  0.3495E-03  0.1194E+00  0.1194E+00
     18.549  0.3532E-03  0.3532E-03  0.1194E+00  0.1194E+00
     18.565  0.3549E-03  0.3549E-03  0.1194E+00  0.1194E+00
     18.581  0.3541E-03  0.3541E-03  0.1194E+00  0.1194E+00
     18.597  0.3502E-03  0.3502E-03  0.1194E+00  0.1194E+00
     18.613  0.3430E-03  0.3430E-03  0.1194E+00  0.1194E+00
     18.629  0.3324E-03  0.3324E-03  0.1194E+00  0.1194E+00
     18.645  0.3185E-03  0.3185E-03  0.1194E+00  0.1194E+00
     18.661  0.3017E-03  0.3017E-03  0.1194E+00  0.1194E+00
     18.677  0.2824E-03  0.2824E-03  0.1195E+00  0.1195E+00
     18.693  0.2615E-03  0.2615E-03  0.1195E+00  0.1195E+00
     18.709  0.2398E-03  0.2398E-03  0.1195E+00  0.1195E+00
     18.725  0.2182E-03  0.2182E-03  0.1195E+00  0.1195E+00
     18.741  0.1977E-03  0.1977E-03  0.1195E+00  0.1195E+00
     18.757  0.1790E-03  0.1790E-03  0.1195E+00  0.1195E+00
     18.773  0.1630E-03  0.1629E-03  0.1195E+00  0.1195E+00
     18.789  0.1501E-03  0.1500E-03  0.1195E+00  0.1195E+00
     18.805  0.1406E-03  0.1406E-03  0.1195E+00  0.1195E+00
     18.821  0.1348E-03  0.1348E-03  0.1195E+00  0.1195E+00
     18.837  0.1325E-03  0.1325E-03  0.1195E+00  0.1195E+00
     18.853  0.1333E-03  0.1333E-03  0.1195E+00  0.1195E+00
     18.869  0.1369E-03  0.1370E-03  0.1195E+00  0.1195E+00
     18.885  0.1429E-03  0.1429E-03  0.1195E+00  0.1195E+00
     18.901  0.1506E-03  0.1506E-03  0.1195E+00  0.1195E+00
     18.917  0.1596E-03  0.1596E-03  0.1195E+00  0.1195E+00
     18.933  0.1696E-03  0.1696E-03  0.1195E+00  0.1195E+00
     18.949  0.1801E-03  0.1802E-03  0.1195E+00  0.1195E+00
     18.965  0.1911E-03  0.1912E-03  0.1195E+00  0.1195E+00
     18.981  0.2025E-03  0.2025E-03  0.1195E+00  0.1195E+00
     18.997  0.2141E-03  0.2141E-03  0.1195E+00  0.1195E+00
     19.013  0.2259E-03  0.2259E-03  0.1195E+00  0.1195E+00
     19.029  0.2380E-03  0.2380E-03  0.1195E+00  0.1195E+00
     19.045  0.2501E-03  0.2501E-03  0.1195E+00  0.1195E+00
     19.062  0.2621E-03  0.2621E-03  0.1195E+00  0.1195E+00
     19.078  0.2736E-03  0.2736E-03  0.1195E+00  0.1195E+00
     19.094  0.2842E-03  0.2842E-03  0.1195E+00  0.1195E+00
     19.110  0.2935E-03  0.2935E-03  0.1195E+00  0.1195E+00
     19.126  0.3009E-03  0.3009E-03  0.1195E+00  0.1195E+00
     19.142  0.3059E-03  0.3059E-03  0.1195E+00  0.1195E+00
     19.158  0.3082E-03  0.3082E-03  0.1196E+00  0.1196E+00
     19.174  0.3075E-03  0.3075E-03  0.1196E+00  0.1196E+00
     19.190  0.3037E-03  0.3037E-03  0.1196E+00  0.1196E+00
     19.206  0.2969E-03  0.2969E-03  0.1196E+00  0.1196E+00
     19.222  0.2877E-03  0.2876E-03  0.1196E+00  0.1196E+00
     19.238  0.2764E-03  0.2764E-03  0.1196E+00  0.1196E+00
     19.254  0.2639E-03  0.2639E-03  0.1196E+00  0.1196E+00
     19.270  0.2510E-03  0.2510E-03  0.1196E+00  0.1196E+00
     19.286  0.2386E-03  0.2386E-03  0.1196E+00  0.1196E+00
     19.302  0.2274E-03  0.2274E-03  0.1196E+00  0.1196E+00
     19.318  0.2182E-03  0.2182E-03  0.1196E+00  0.1196E+00
     19.334  0.2114E-03  0.2114E-03  0.1196E+00  0.1196E+00
     19.350  0.2073E-03  0.2073E-03  0.1196E+00  0.1196E+00
     19.366  0.2059E-03  0.2059E-03  0.1196E+00  0.1196E+00
     19.382  0.2070E-03  0.2070E-03  0.1196E+00  0.1196E+00
     19.398  0.2103E-03  0.2103E-03  0.1196E+00  0.1196E+00
     19.414  0.2151E-03  0.2151E-03  0.1196E+00  0.1196E+00
     19.430  0.2208E-03  0.2208E-03  0.1196E+00  0.1196E+00
     19.446  0.2267E-03  0.2267E-03  0.1196E+00  0.1196E+00
     19.462  0.2323E-03  0.2323E-03  0.1196E+00  0.1196E+00
     19.478  0.2370E-03  0.2370E-03  0.1196E+00  0.1196E+00
     19.494  0.2405E-03  0.2405E-03  0.1196E+00  0.1196E+00
     19.510  0.2425E-03  0.2425E-03  0.1196E+00  0.1196E+00
     19.526  0.2431E-03  0.2431E-03  0.1196E+00  0.1196E+00
     19.542  0.2423E-03  0.2423E-03  0.1196E+00  0.1196E+00
     19.558  0.2405E-03  0.2405E-03  0.1196E+00  0.1196E+00
     19.574  0.2378E-03  0.2378E-03  0.1197E+00  0.1197E+00
     19.590  0.2347E-03  0.2347E-03  0.1197E+00  0.1197E+00
     19.606  0.2314E-03  0.2314E-03  0.1197E+00  0.1197E+00
     19.622  0.2281E-03  0.2281E-03  0.1197E+00  0.1197E+00
     19.638  0.2250E-03  0.2250E-03  0.1197E+00  0.1197E+00
     19.654  0.2221E-03  0.2221E-03  0.1197E+00  0.1197E+00
     19.670  0.2194E-03  0.2194E-03  0.1197E+00  0.1197E+00
     19.686  0.2167E-03  0.2167E-03  0.1197E+00  0.1197E+00
     19.702  0.2138E-03  0.2138E-03  0.1197E+00  0.1197E+00
     19.718  0.2106E-03  0.2106E-03  0.1197E+00  0.1197E+00
     19.734  0.2068E-03  0.2068E-03  0.1197E+00  0.1197E+00
     19.750  0.2024E-03  0.2024E-03  0.1197E+00  0.1197E+00
     19.766  0.1973E-03  0.1973E-03  0.1197E+00  0.1197E+00
     19.783  0.1915E-03  0.1915E-03  0.1197E+00  0.1197E+00
     19.799  0.1851E-03  0.1851E-03  0.1197E+00  0.1197E+00
     19.815  0.1782E-03  0.1782E-03  0.1197E+00  0.1197E+00
     19.831  0.1711E-03  0.1711E-03  0.1197E+00  0.1197E+00
     19.847  0.1640E-03  0.1639E-03  0.1197E+00  0.1197E+00
     19.863  0.1570E-03  0.1570E-03  0.1197E+00  0.1197E+00
     19.879  0.1505E-03  0.1505E-03  0.1197E+00  0.1197E+00
     19.895  0.1447E-03  0.1447E-03  0.1197E+00  0.1197E+00
     19.911  0.1397E-03  0.1397E-03  0.1197E+00  0.1197E+00
     19.927  0.1356E-03  0.1356E-03  0.1197E+00  0.1197E+00
     19.943  0.1325E-03  0.1325E-03  0.1197E+00  0.1197E+00
     19.959  0.1305E-03  0.1305E-03  0.1197E+00  0.1197E+00
     19.975  0.1293E-03  0.1293E-03  0.1197E+00  0.1197E+00
     19.991  0.1291E-03  0.1291E-03  0.1197E+00  0.1197E+00
     20.007  0.1295E-03  0.1295E-03  0.1197E+00  0.1197E+00
     20.023  0.1304E-03  0.1304E-03  0.1197E+00  0.1197E+00
     20.039  0.1316E-03  0.1316E-03  0.1197E+00  0.1197E+00
     20.055  0.1329E-03  0.1329E-03  0.1197E+00  0.1197E+00
     20.071  0.1339E-03  0.1339E-03  0.1197E+00  0.1197E+00
     20.087  0.1344E-03  0.1344E-03  0.1197E+00  0.1197E+00
     20.103  0.1341E-03  0.1341E-03  0.1197E+00  0.1197E+00
     20.119  0.1330E-03  0.1330E-03  0.1197E+00  0.1197E+00
     20.135  0.1309E-03  0.1309E-03  0.1197E+00  0.1197E+00
     20.151  0.1277E-03  0.1277E-03  0.1197E+00  0.1197E+00
     20.167  0.1234E-03  0.1234E-03  0.1198E+00  0.1198E+00
     20.183  0.1183E-03  0.1183E-03  0.1198E+00  0.1198E+00
     20.199  0.1124E-03  0.1124E-03  0.1198E+00  0.1198E+00
     20.215  0.1060E-03  0.1060E-03  0.1198E+00  0.1198E+00
     20.231  0.9953E-04  0.9953E-04  0.1198E+00  0.1198E+00
     20.247  0.9316E-04  0.9315E-04  0.1198E+00  0.1198E+00
     20.263  0.8722E-04  0.8721E-04  0.1198E+00  0.1198E+00
     20.279  0.8199E-04  0.8199E-04  0.1198E+00  0.1198E+00
     20.295  0.7768E-04  0.7768E-04  0.1198E+00  0.1198E+00
     20.311  0.7445E-04  0.7444E-04  0.1198E+00  0.1198E+00
     20.327  0.7237E-04  0.7237E-04  0.1198E+00  0.1198E+00
     20.343  0.7149E-04  0.7149E-04  0.1198E+00  0.1198E+00
     20.359  0.7180E-04  0.7180E-04  0.1198E+00  0.1198E+00
     20.375  0.7327E-04  0.7327E-04  0.1198E+00  0.1198E+00
     20.391  0.7587E-04  0.7588E-04  0.1198E+00  0.1198E+00
     20.407  0.7960E-04  0.7961E-04  0.1198E+00  0.1198E+00
     20.423  0.8447E-04  0.8447E-04  0.1198E+00  0.1198E+00
     20.439  0.9051E-04  0.9052E-04  0.1198E+00  0.1198E+00
     20.455  0.9779E-04  0.9780E-04  0.1198E+00  0.1198E+00
     20.471  0.1064E-03  0.1064E-03  0.1198E+00  0.1198E+00
     20.487  0.1163E-03  0.1163E-03  0.1198E+00  0.1198E+00
     20.504  0.1274E-03  0.1275E-03  0.1198E+00  0.1198E+00
     20.520  0.1398E-03  0.1398E-03  0.1198E+00  0.1198E+00
     20.536  0.1532E-03  0.1532E-03  0.1198E+00  0.1198E+00
     20.552  0.1672E-03  0.1672E-03  0.1198E+00  0.1198E+00
     20.568  0.1815E-03  0.1815E-03  0.1198E+00  0.1198E+00
     20.584  0.1954E-03  0.1954E-03  0.1198E+00  0.1198E+00
     20.600  0.2085E-03  0.2085E-03  0.1198E+00  0.1198E+00
     20.616  0.2201E-03  0.2201E-03  0.1198E+00  0.1198E+00
     20.632  0.2298E-03  0.2298E-03  0.1198E+00  0.1198E+00
     20.648  0.2369E-03  0.2369E-03  0.1198E+00  0.1198E+00
     20.664  0.2413E-03  0.2414E-03  0.1198E+00  0.1198E+00
     20.680  0.2429E-03  0.2429E-03  0.1198E+00  0.1198E+00
     20.696  0.2415E-03  0.2415E-03  0.1198E+00  0.1198E+00
     20.712  0.2376E-03  0.2376E-03  0.1198E+00  0.1198E+00
     20.728  0.2315E-03  0.2315E-03  0.1198E+00  0.1198E+00
     20.744  0.2237E-03  0.2237E-03  0.1198E+00  0.1198E+00
     20.760  0.2150E-03  0.2150E-03  0.1198E+00  0.1198E+00
     20.776  0.2059E-03  0.2059E-03  0.1198E+00  0.1198E+00
     20.792  0.1971E-03  0.1971E-03  0.1198E+00  0.1198E+00
     20.808  0.1891E-03  0.1891E-03  0.1198E+00  0.1198E+00
     20.824  0.1823E-03  0.1823E-03  0.1198E+00  0.1198E+00
     20.840  0.1769E-03  0.1769E-03  0.1199E+00  0.1199E+00
     20.856  0.1730E-03  0.1730E-03  0.1199E+00  0.1199E+00
     20.872  0.1704E-03  0.1704E-03  0.1199E+00  0.1199E+00
     20.888  0.1689E-03  0.1689E-03  0.1199E+00  0.1199E+00
     20.904  0.1680E-03  0.1680E-03  0.1199E+00  0.1199E+00
     20.920  0.1672E-03  0.1672E-03  0.1199E+00  0.1199E+00
     20.936  0.1662E-03  0.1662E-03  0.1199E+00  0.1199E+00
     20.952  0.1644E-03  0.1644E-03  0.1199E+00  0.1199E+00
     20.968  0.1614E-03  0.1614E-03  0.1199E+00  0.1199E+00
     20.984  0.1569E-03  0.1569E-03  0.1199E+00  0.1199E+00
     21.000  0.1508E-03  0.1508E-03  0.1199E+00  0.1199E+00
     21.016  0.1431E-03  0.1431E-03  0.1199E+00  0.1199E+00
     21.032  0.1337E-03  0.1337E-03  0.1199E+00  0.1199E+00
     21.048  0.1229E-03  0.1229E-03  0.1199E+00  0.1199E+00
     21.064  0.1110E-03  0.1110E-03  0.1199E+00  0.1199E+00
     21.080  0.9835E-04  0.9833E-04  0.1199E+00  0.1199E+00
     21.096  0.8528E-04  0.8526E-04  0.1199E+00  0.1199E+00
     21.112  0.7220E-04  0.7218E-04  0.1199E+00  0.1199E+00
     21.128  0.5948E-04  0.5946E-04  0.1199E+00  0.1199E+00
     21.144  0.4743E-04  0.4742E-04  0.1199E+00  0.1199E+00
     21.160  0.3634E-04  0.3633E-04  0.1199E+00  0.1199E+00
     21.176  0.2640E-04  0.2639E-04  0.1199E+00  0.1199E+00
     21.192  0.1776E-04  0.1775E-04  0.1199E+00  0.1199E+00
     21.208  0.1050E-04  0.1049E-04  0.1199E+00  0.1199E+00
     21.224  0.4628E-05  0.4620E-05  0.1199E+00  0.1199E+00
     21.241  0.1201E-06  0.1145E-06  0.1199E+00  0.1199E+00
     21.257 -0.3090E-05 -0.3094E-05  0.1199E+00  0.1199E+00
     21.273 -0.5096E-05 -0.5099E-05  0.1199E+00  0.1199E+00
     21.289 -0.6008E-05 -0.6009E-05  0.1199E+00  0.1199E+00
     21.305 -0.5940E-05 -0.5940E-05  0.1199E+00  0.1199E+00
     21.321 -0.5007E-05 -0.5006E-05  0.1199E+00  0.1199E+00
     21.337 -0.3311E-05 -0.3309E-05  0.1199E+00  0.1199E+00
     21.353 -0.9403E-06 -0.9375E-06  0.1199E+00  0.1199E+00
     21.369  0.2035E-05  0.2039E-05  0.1199E+00  0.1199E+00
     21.385  0.5569E-05  0.5573E-05  0.1199E+00  0.1199E+00
     21.401  0.9635E-05  0.9640E-05  0.1199E+00  0.1199E+00
     21.417  0.1423E-04  0.1424E-04  0.1199E+00  0.1199E+00
     21.433  0.1937E-04  0.1937E-04  0.1199E+00  0.1199E+00
     21.449  0.2508E-04  0.2508E-04  0.1199E+00  0.1199E+00
     21.465  0.3138E-04  0.3139E-04  0.1199E+00  0.1199E+00
     21.481  0.3830E-04  0.3831E-04  0.1199E+00  0.1199E+00
     21.497  0.4585E-04  0.4586E-04  0.1199E+00  0.1199E+00
     21.513  0.5399E-04  0.5400E-04  0.1199E+00  0.1199E+00
     21.529  0.6265E-04  0.6266E-04  0.1199E+00  0.1199E+00
     21.545  0.7171E-04  0.7172E-04  0.1199E+00  0.1199E+00
     21.561  0.8098E-04  0.8099E-04  0.1199E+00  0.1199E+00
     21.577  0.9022E-04  0.9023E-04  0.1199E+00  0.1199E+00
     21.593  0.9914E-04  0.9915E-04  0.1199E+00  0.1199E+00
     21.609  0.1074E-03  0.1074E-03  0.1199E+00  0.1199E+00
     21.625  0.1147E-03  0.1147E-03  0.1199E+00  0.1199E+00
     21.641  0.1205E-03  0.1206E-03  0.1199E+00  0.1199E+00
     21.657  0.1247E-03  0.1247E-03  0.1199E+00  0.1199E+00
     21.673  0.1270E-03  0.1270E-03  0.1199E+00  0.1199E+00
     21.689  0.1270E-03  0.1270E-03  0.1199E+00  0.1199E+00
     21.705  0.1248E-03  0.1248E-03  0.1199E+00  0.1199E+00
     21.721  0.1204E-03  0.1203E-03  0.1199E+00  0.1199E+00
     21.737  0.1138E-03  0.1138E-03  0.1199E+00  0.1199E+00
     21.753  0.1053E-03  0.1053E-03  0.1199E+00  0.1199E+00
     21.769  0.9534E-04  0.9533E-04  0.1199E+00  0.1199E+00
     21.785  0.8427E-04  0.8426E-04  0.1199E+00  0.1199E+00
     21.801  0.7260E-04  0.7258E-04  0.1199E+00  0.1199E+00
     21.817  0.6086E-04  0.6085E-04  0.1199E+00  0.1199E+00
     21.833  0.4959E-04  0.4958E-04  0.1199E+00  0.1199E+00
     21.849  0.3932E-04  0.3931E-04  0.1199E+00  0.1199E+00
     21.865  0.3053E-04  0.3052E-04  0.1199E+00  0.1199E+00
     21.881  0.2362E-04  0.2361E-04  0.1199E+00  0.1199E+00
     21.897  0.1892E-04  0.1892E-04  0.1199E+00  0.1199E+00
     21.913  0.1669E-04  0.1669E-04  0.1199E+00  0.1199E+00
     21.929  0.1705E-04  0.1705E-04  0.1199E+00  0.1199E+00
     21.945  0.2004E-04  0.2004E-04  0.1199E+00  0.1199E+00
     21.962  0.2557E-04  0.2558E-04  0.1199E+00  0.1199E+00
     21.978  0.3347E-04  0.3348E-04  0.1199E+00  0.1199E+00
     21.994  0.4347E-04  0.4348E-04  0.1199E+00  0.1199E+00
     22.010  0.5519E-04  0.5521E-04  0.1199E+00  0.1199E+00
     22.026  0.6821E-04  0.6822E-04  0.1199E+00  0.1199E+00
     22.042  0.8202E-04  0.8204E-04  0.1199E+00  0.1199E+00
     22.058  0.9610E-04  0.9612E-04  0.1199E+00  0.1199E+00
     22.074  0.1099E-03  0.1099E-03  0.1199E+00  0.1199E+00
     22.090  0.1229E-03  0.1229E-03  0.1199E+00  0.1199E+00
     22.106  0.1345E-03  0.1346E-03  0.1199E+00  0.1199E+00
     22.122  0.1444E-03  0.1445E-03  0.1199E+00  0.1199E+00
     22.138  0.1522E-03  0.1522E-03  0.1199E+00  0.1199E+00
     22.154  0.1576E-03  0.1576E-03  0.1200E+00  0.1200E+00
     22.170  0.1603E-03  0.1603E-03  0.1200E+00  0.1200E+00
     22.186  0.1605E-03  0.1605E-03  0.1200E+00  0.1200E+00
     22.202  0.1580E-03  0.1580E-03  0.1200E+00  0.1200E+00
     22.218  0.1531E-03  0.1531E-03  0.1200E+00  0.1200E+00
     22.234  0.1460E-03  0.1460E-03  0.1200E+00  0.1200E+00
     22.250  0.1370E-03  0.1370E-03  0.1200E+00  0.1200E+00
     22.266  0.1265E-03  0.1265E-03  0.1200E+00  0.1200E+00
     22.282  0.1149E-03  0.1149E-03  0.1200E+00  0.1200E+00
     22.298  0.1026E-03  0.1026E-03  0.1200E+00  0.1200E+00
     22.314  0.9005E-04  0.9004E-04  0.1200E+00  0.1200E+00
     22.330  0.7754E-04  0.7752E-04  0.1200E+00  0.1200E+00
     22.346  0.6543E-04  0.6541E-04  0.1200E+00  0.1200E+00
     22.362  0.5399E-04  0.5397E-04  0.1200E+00  0.1200E+00
     22.378  0.4344E-04  0.4342E-04  0.1200E+00  0.1200E+00
     22.394  0.3392E-04  0.3391E-04  0.1200E+00  0.1200E+00
     22.410  0.2554E-04  0.2553E-04  0.1200E+00  0.1200E+00
     22.426  0.1832E-04  0.1832E-04  0.1200E+00  0.1200E+00
     22.442  0.1226E-04  0.1226E-04  0.1200E+00  0.1200E+00
     22.458  0.7308E-05  0.7302E-05  0.1200E+00  0.1200E+00
     22.474  0.3378E-05  0.3373E-05  0.1200E+00  0.1200E+00
     22.490  0.3698E-06  0.3663E-06  0.1200E+00  0.1200E+00
     22.506 -0.1831E-05 -0.1833E-05  0.1200E+00  0.1200E+00
     22.522 -0.3344E-05 -0.3345E-05  0.1200E+00  0.1200E+00
     22.538 -0.4290E-05 -0.4291E-05  0.1200E+00  0.1200E+00
     22.554 -0.4782E-05 -0.4783E-05  0.1200E+00  0.1200E+00
     22.570 -0.4927E-05 -0.4927E-05  0.1200E+00  0.1200E+00
     22.586 -0.4816E-05 -0.4816E-05  0.1200E+00  0.1200E+00
     22.602 -0.4530E-05 -0.4530E-05  0.1200E+00  0.1200E+00
     22.618 -0.4138E-05 -0.4137E-05  0.1200E+00  0.1200E+00
     22.634 -0.3692E-05 -0.3692E-05  0.1200E+00  0.1200E+00
     22.650 -0.3237E-05 -0.3237E-05  0.1200E+00  0.1200E+00
     22.666 -0.2806E-05 -0.2805E-05  0.1200E+00  0.1200E+00
     22.683 -0.2422E-05 -0.2421E-05  0.1200E+00  0.1200E+00
     22.699 -0.2102E-05 -0.2102E-05  0.1200E+00  0.1200E+00
     22.715 -0.1858E-05 -0.1858E-05  0.1200E+00  0.1200E+00
     22.731 -0.1696E-05 -0.1696E-05  0.1200E+00  0.1200E+00
     22.747 -0.1620E-05 -0.1620E-05  0.1200E+00  0.1200E+00
     22.763 -0.1630E-05 -0.1630E-05  0.1200E+00  0.1200E+00
     22.779 -0.1722E-05 -0.1722E-05  0.1200E+00  0.1200E+00
     22.795 -0.1889E-05 -0.1889E-05  0.1200E+00  0.1200E+00
     22.811 -0.2120E-05 -0.2120E-05  0.1200E+00  0.1200E+00
     22.827 -0.2398E-05 -0.2398E-05  0.1200E+00  0.1200E+00
     22.843 -0.2698E-05 -0.2699E-05  0.1200E+00  0.1200E+00
     22.859 -0.2988E-05 -0.2988E-05  0.1200E+00  0.1200E+00
     22.875 -0.3224E-05 -0.3224E-05  0.1200E+00  0.1200E+00
     22.891 -0.3354E-05 -0.3354E-05  0.1200E+00  0.1200E+00
     22.907 -0.3312E-05 -0.3312E-05  0.1200E+00  0.1200E+00
     22.923 -0.3026E-05 -0.3026E-05  0.1200E+00  0.1200E+00
     22.939 -0.2416E-05 -0.2415E-05  0.1200E+00  0.1200E+00
     22.955 -0.1396E-05 -0.1394E-05  0.1200E+00  0.1200E+00
     22.971  0.1165E-06  0.1188E-06  0.1200E+00  0.1200E+00
     22.987  0.2195E-05  0.2198E-05  0.1200E+00  0.1200E+00
     23.003  0.4900E-05  0.4904E-05  0.1200E+00  0.1200E+00
     23.019  0.8268E-05  0.8273E-05  0.1200E+00  0.1200E+00
     23.035  0.1231E-04  0.1231E-04  0.1200E+00  0.1200E+00
     23.051  0.1698E-04  0.1699E-04  0.1200E+00  0.1200E+00
     23.067  0.2222E-04  0.2223E-04  0.1200E+00  0.1200E+00
     23.083  0.2792E-04  0.2793E-04  0.1200E+00  0.1200E+00
     23.099  0.3392E-04  0.3392E-04  0.1200E+00  0.1200E+00
     23.115  0.4002E-04  0.4003E-04  0.1200E+00  0.1200E+00
     23.131  0.4601E-04  0.4602E-04  0.1200E+00  0.1200E+00
     23.147  0.5165E-04  0.5166E-04  0.1200E+00  0.1200E+00
     23.163  0.5671E-04  0.5672E-04  0.1200E+00  0.1200E+00
     23.179  0.6098E-04  0.6098E-04  0.1200E+00  0.1200E+00
     23.195  0.6425E-04  0.6425E-04  0.1200E+00  0.1200E+00
     23.211  0.6639E-04  0.6640E-04  0.1200E+00  0.1200E+00
     23.227  0.6732E-04  0.6732E-04  0.1200E+00  0.1200E+00
     23.243  0.6702E-04  0.6702E-04  0.1200E+00  0.1200E+00
     23.259  0.6553E-04  0.6553E-04  0.1200E+00  0.1200E+00
     23.275  0.6298E-04  0.6297E-04  0.1200E+00  0.1200E+00
     23.291  0.5952E-04  0.5951E-04  0.1200E+00  0.1200E+00
     23.307  0.5537E-04  0.5537E-04  0.1200E+00  0.1200E+00
     23.323  0.5079E-04  0.5078E-04  0.1200E+00  0.1200E+00
     23.339  0.4600E-04  0.4599E-04  0.1200E+00  0.1200E+00
     23.355  0.4126E-04  0.4125E-04  0.1200E+00  0.1200E+00
     23.371  0.3677E-04  0.3677E-04  0.1200E+00  0.1200E+00
     23.387  0.3272E-04  0.3271E-04  0.1200E+00  0.1200E+00
     23.404  0.2920E-04  0.2920E-04  0.1200E+00  0.1200E+00
     23.420  0.2630E-04  0.2630E-04  0.1200E+00  0.1200E+00
     23.436  0.2402E-04  0.2402E-04  0.1200E+00  0.1200E+00
     23.452  0.2231E-04  0.2231E-04  0.1200E+00  0.1200E+00
     23.468  0.2110E-04  0.2109E-04  0.1200E+00  0.1200E+00
     23.484  0.2026E-04  0.2026E-04  0.1200E+00  0.1200E+00
     23.500  0.1967E-04  0.1967E-04  0.1200E+00  0.1200E+00
     23.516  0.1920E-04  0.1919E-04  0.1200E+00  0.1200E+00
     23.532  0.1872E-04  0.1872E-04  0.1200E+00  0.1200E+00
     23.548  0.1815E-04  0.1815E-04  0.1200E+00  0.1200E+00
     23.564  0.1740E-04  0.1740E-04  0.1200E+00  0.1200E+00
     23.580  0.1643E-04  0.1643E-04  0.1200E+00  0.1200E+00
     23.596  0.1525E-04  0.1524E-04  0.1200E+00  0.1200E+00
     23.612  0.1385E-04  0.1385E-04  0.1200E+00  0.1200E+00
     23.628  0.1228E-04  0.1228E-04  0.1200E+00  0.1200E+00
     23.644  0.1060E-04  0.1060E-04  0.1200E+00  0.1200E+00
     23.660  0.8880E-05  0.8878E-05  0.1200E+00  0.1200E+00
     23.676  0.7173E-05  0.7171E-05  0.1200E+00  0.1200E+00
     23.692  0.5546E-05  0.5544E-05  0.1200E+00  0.1200E+00
     23.708  0.4050E-05  0.4048E-05  0.1200E+00  0.1200E+00
     23.724  0.2723E-05  0.2721E-05  0.1200E+00  0.1200E+00
     23.740  0.1590E-05  0.1589E-05  0.1200E+00  0.1200E+00
     23.756  0.6615E-06  0.6604E-06  0.1200E+00  0.1200E+00
     23.772 -0.6531E-07 -0.6617E-07  0.1200E+00  0.1200E+00
     23.788 -0.6034E-06 -0.6040E-06  0.1200E+00  0.1200E+00
     23.804 -0.9735E-06 -0.9740E-06  0.1200E+00  0.1200E+00
     23.820 -0.1201E-05 -0.1201E-05  0.1200E+00  0.1200E+00
     23.836 -0.1314E-05 -0.1314E-05  0.1200E+00  0.1200E+00
     23.852 -0.1338E-05 -0.1338E-05  0.1200E+00  0.1200E+00
     23.868 -0.1299E-05 -0.1299E-05  0.1200E+00  0.1200E+00
     23.884 -0.1218E-05 -0.1218E-05  0.1200E+00  0.1200E+00
     23.900 -0.1111E-05 -0.1111E-05  0.1200E+00  0.1200E+00
     23.916 -0.9903E-06 -0.9901E-06  0.1200E+00  0.1200E+00
     23.932 -0.8624E-06 -0.8622E-06  0.1200E+00  0.1200E+00
     23.948 -0.7305E-06 -0.7303E-06  0.1200E+00  0.1200E+00
     23.964 -0.5943E-06 -0.5941E-06  0.1200E+00  0.1200E+00
     23.980 -0.4504E-06 -0.4502E-06  0.1200E+00  0.1200E+00
     23.996 -0.2942E-06 -0.2939E-06  0.1200E+00  0.1200E+00
     24.012 -0.1199E-06 -0.1197E-06  0.1200E+00  0.1200E+00
     24.028  0.7774E-07  0.7805E-07  0.1200E+00  0.1200E+00
     24.044  0.3032E-06  0.3035E-06  0.1200E+00  0.1200E+00
     24.060  0.5589E-06  0.5593E-06  0.1200E+00  0.1200E+00
     24.076  0.8450E-06  0.8455E-06  0.1200E+00  0.1200E+00
     24.092  0.1159E-05  0.1159E-05  0.1200E+00  0.1200E+00
     24.108  0.1495E-05  0.1495E-05  0.1200E+00  0.1200E+00
     24.124  0.1844E-05  0.1845E-05  0.1200E+00  0.1200E+00
     24.141  0.2196E-05  0.2196E-05  0.1200E+00  0.1200E+00
     24.157  0.2537E-05  0.2537E-05  0.1200E+00  0.1200E+00
     24.173  0.2853E-05  0.2853E-05  0.1200E+00  0.1200E+00
     24.189  0.3130E-05  0.3130E-05  0.1200E+00  0.1200E+00
     24.205  0.3355E-05  0.3355E-05  0.1200E+00  0.1200E+00
     24.221  0.3517E-05  0.3517E-05  0.1200E+00  0.1200E+00
     24.237  0.3606E-05  0.3606E-05  0.1200E+00  0.1200E+00
     24.253  0.3620E-05  0.3620E-05  0.1200E+00  0.1200E+00
     24.269  0.3557E-05  0.3556E-05  0.1200E+00  0.1200E+00
     24.285  0.3420E-05  0.3419E-05  0.1200E+00  0.1200E+00
     24.301  0.3216E-05  0.3216E-05  0.1200E+00  0.1200E+00
     24.317  0.2957E-05  0.2957E-05  0.1200E+00  0.1200E+00
     24.333  0.2655E-05  0.2655E-05  0.1200E+00  0.1200E+00
     24.349  0.2324E-05  0.2324E-05  0.1200E+00  0.1200E+00
     24.365  0.1980E-05  0.1979E-05  0.1200E+00  0.1200E+00
     24.381  0.1635E-05  0.1635E-05  0.1200E+00  0.1200E+00
     24.397  0.1304E-05  0.1303E-05  0.1200E+00  0.1200E+00
     24.413  0.9960E-06  0.9956E-06  0.1200E+00  0.1200E+00
     24.429  0.7197E-06  0.7193E-06  0.1200E+00  0.1200E+00
     24.445  0.4802E-06  0.4798E-06  0.1200E+00  0.1200E+00
     24.461  0.2802E-06  0.2799E-06  0.1200E+00  0.1200E+00
     24.477  0.1198E-06  0.1196E-06  0.1200E+00  0.1200E+00
     24.493 -0.2712E-08 -0.2868E-08  0.1200E+00  0.1200E+00
     24.509 -0.9092E-07 -0.9103E-07  0.1200E+00  0.1200E+00
     24.525 -0.1493E-06 -0.1494E-06  0.1200E+00  0.1200E+00
     24.541 -0.1829E-06 -0.1829E-06  0.1200E+00  0.1200E+00
     24.557 -0.1968E-06 -0.1968E-06  0.1200E+00  0.1200E+00
     24.573 -0.1960E-06 -0.1960E-06  0.1200E+00  0.1200E+00
     24.589 -0.1850E-06 -0.1850E-06  0.1200E+00  0.1200E+00
     24.605 -0.1675E-06 -0.1675E-06  0.1200E+00  0.1200E+00
     24.621 -0.1466E-06 -0.1465E-06  0.1200E+00  0.1200E+00
     24.637 -0.1246E-06 -0.1246E-06  0.1200E+00  0.1200E+00
     24.653 -0.1032E-06 -0.1032E-06  0.1200E+00  0.1200E+00
     24.669 -0.8351E-07 -0.8348E-07  0.1200E+00  0.1200E+00
     24.685 -0.6612E-07 -0.6610E-07  0.1200E+00  0.1200E+00
     24.701 -0.5131E-07 -0.5129E-07  0.1200E+00  0.1200E+00
     24.717 -0.3905E-07 -0.3903E-07  0.1200E+00  0.1200E+00
     24.733 -0.2918E-07 -0.2916E-07  0.1200E+00  0.1200E+00
     24.749 -0.2142E-07 -0.2141E-07  0.1200E+00  0.1200E+00
     24.765 -0.1545E-07 -0.1545E-07  0.1200E+00  0.1200E+00
     24.781 -0.1097E-07 -0.1096E-07  0.1200E+00  0.1200E+00
     24.797 -0.7656E-08 -0.7652E-08  0.1200E+00  0.1200E+00
     24.813 -0.5260E-08 -0.5257E-08  0.1200E+00  0.1200E+00
     24.829 -0.3557E-08 -0.3555E-08  0.1200E+00  0.1200E+00
     24.845 -0.2369E-08 -0.2368E-08  0.1200E+00  0.1200E+00
     24.862 -0.1554E-08 -0.1553E-08  0.1200E+00  0.1200E+00
     24.878 -0.1004E-08 -0.1003E-08  0.1200E+00  0.1200E+00
     24.894 -0.6390E-09 -0.6385E-09  0.1200E+00  0.1200E+00
     24.910 -0.4008E-09 -0.4005E-09  0.1200E+00  0.1200E+00
     24.926 -0.2477E-09 -0.2475E-09  0.1200E+00  0.1200E+00
     24.942 -0.1509E-09 -0.1508E-09  0.1200E+00  0.1200E+00
     24.958 -0.9062E-10 -0.9055E-10  0.1200E+00  0.1200E+00
     24.974 -0.5365E-10 -0.5361E-10  0.1200E+00  0.1200E+00
     24.990 -0.3131E-10 -0.3129E-10  0.1200E+00  0.1200E+00
     25.006 -0.1802E-10 -0.1800E-10  0.1200E+00  0.1200E+00
     25.022 -0.1022E-10 -0.1022E-10  0.1200E+00  0.1200E+00
     25.038 -0.5721E-11 -0.5716E-11  0.1200E+00  0.1200E+00
     25.054 -0.3157E-11 -0.3154E-11  0.1200E+00  0.1200E+00
     25.070 -0.1718E-11 -0.1716E-11  0.1200E+00  0.1200E+00
     25.086 -0.9221E-12 -0.9212E-12  0.1200E+00  0.1200E+00
     25.102 -0.4882E-12 -0.4877E-12  0.1200E+00  0.1200E+00
     25.118 -0.2549E-12 -0.2547E-12  0.1200E+00  0.1200E+00
     25.134 -0.1313E-12 -0.1312E-12  0.1200E+00  0.1200E+00
     25.150 -0.6671E-13 -0.6665E-13  0.1200E+00  0.1200E+00
     25.166 -0.3344E-13 -0.3340E-13  0.1200E+00  0.1200E+00
     25.182 -0.1653E-13 -0.1652E-13  0.1200E+00  0.1200E+00
     25.198 -0.8066E-14 -0.8057E-14  0.1200E+00  0.1200E+00
     25.214 -0.3882E-14 -0.3878E-14  0.1200E+00  0.1200E+00
     25.230 -0.1843E-14 -0.1841E-14  0.1200E+00  0.1200E+00
     25.246 -0.8635E-15 -0.8625E-15  0.1200E+00  0.1200E+00
     25.262 -0.3991E-15 -0.3987E-15  0.1200E+00  0.1200E+00
     25.278 -0.1820E-15 -0.1818E-15  0.1200E+00  0.1200E+00
     25.294 -0.8190E-16 -0.8182E-16  0.1200E+00  0.1200E+00
     25.310 -0.3637E-16 -0.3632E-16  0.1200E+00  0.1200E+00
     25.326 -0.1593E-16 -0.1591E-16  0.1200E+00  0.1200E+00
     25.342 -0.6891E-17 -0.6879E-17  0.1200E+00  0.1200E+00
     25.358 -0.2935E-17 -0.2947E-17  0.1200E+00  0.1200E+00
     25.374 -0.1236E-17 -0.1224E-17  0.1200E+00  0.1200E+00
     25.390 -0.5109E-18 -0.5228E-18  0.1200E+00  0.1200E+00
     25.406 -0.2139E-18 -0.2020E-18  0.1200E+00  0.1200E+00
     25.422 -0.8317E-19 -0.8317E-19  0.1200E+00  0.1200E+00
     25.438 -0.3564E-19 -0.3564E-19  0.1200E+00  0.1200E+00
     25.454 -0.1188E-19 -0.1188E-19  0.1200E+00  0.1200E+00
     25.470 -0.1188E-19 -0.1188E-19  0.1200E+00  0.1200E+00
     25.486  0.0000E+00  0.0000E+00  0.1200E+00  0.1200E+00
     25.502  0.0000E+00  0.0000E+00  0.1200E+00  0.1200E+00
     25.518  0.0000E+00  0.0000E+00  0.1200E+00  0.1200E+00
     25.534  0.0000E+00  0.0000E+00  0.1200E+00  0.1200E+00
     25.550  0.0000E+00  0.0000E+00  0.1200E+00  0.1200E+00
     25.566  0.0000E+00  0.0000E+00  0.1200E+00  0.1200E+00
     25.583  0.0000E+00  0.0000E+00  0.1200E+00  0.1200E+00
     25.599  0.0000E+00  0.0000E+00  0.1200E+00  0.1200E+00
     25.615  0.0000E+00  0.0000E+00  0.1200E+00  0.1200E+00
     25.631  0.0000E+00  0.0000E+00  0.1200E+00  0.1200E+00
     25.647  0.0000E+00  0.0000E+00  0.1200E+00  0.1200E+00
     25.663  0.0000E+00  0.0000E+00  0.1200E+00  0.1200E+00
     25.679  0.0000E+00  0.0000E+00  0.1200E+00  0.1200E+00
     25.695  0.0000E+00  0.0000E+00  0.1200E+00  0.1200E+00
     25.711  0.0000E+00  0.0000E+00  0.1200E+00  0.1200E+00
     25.727  0.0000E+00  0.0000E+00  0.1200E+00  0.1200E+00
     25.743  0.0000E+00  0.0000E+00  0.1200E+00  0.1200E+00
     25.759  0.0000E+00  0.0000E+00  0.1200E+00  0.1200E+00
     25.775  0.0000E+00  0.0000E+00  0.1200E+00  0.1200E+00
     25.791  0.0000E+00  0.0000E+00  0.1200E+00  0.1200E+00
     25.807  0.0000E+00  0.0000E+00  0.1200E+00  0.1200E+00
     25.823  0.0000E+00  0.0000E+00  0.1200E+00  0.1200E+00
     25.839  0.0000E+00  0.0000E+00  0.1200E+00  0.1200E+00
     25.855  0.0000E+00  0.0000E+00  0.1200E+00  0.1200E+00
     25.871  0.0000E+00  0.0000E+00  0.1200E+00  0.1200E+00
     25.887  0.0000E+00  0.0000E+00  0.1200E+00  0.1200E+00
     25.903  0.0000E+00  0.0000E+00  0.1200E+00  0.1200E+00
     25.919  0.0000E+00  0.0000E+00  0.1200E+00  0.1200E+00
     25.935  0.0000E+00  0.0000E+00  0.1200E+00  0.1200E+00
     25.951  0.0000E+00  0.0000E+00  0.1200E+00  0.1200E+00
     25.967  0.0000E+00  0.0000E+00  0.1200E+00  0.1200E+00
     25.983  0.0000E+00  0.0000E+00  0.1200E+00  0.1200E+00
     25.999  0.0000E+00  0.0000E+00  0.1200E+00  0.1200E+00
     26.015  0.0000E+00  0.0000E+00  0.1200E+00  0.1200E+00
     26.031  0.0000E+00  0.0000E+00  0.1200E+00  0.1200E+00
     26.047  0.0000E+00  0.0000E+00  0.1200E+00  0.1200E+00
     26.063  0.0000E+00  0.0000E+00  0.1200E+00  0.1200E+00
     26.079  0.0000E+00  0.0000E+00  0.1200E+00  0.1200E+00
     26.095  0.0000E+00  0.0000E+00  0.1200E+00  0.1200E+00
     26.111  0.0000E+00  0.0000E+00  0.1200E+00  0.1200E+00
     26.127  0.0000E+00  0.0000E+00  0.1200E+00  0.1200E+00
     26.143  0.0000E+00  0.0000E+00  0.1200E+00  0.1200E+00
     26.159  0.0000E+00  0.0000E+00  0.1200E+00  0.1200E+00
     26.175  0.0000E+00  0.0000E+00  0.1200E+00  0.1200E+00
     26.191  0.0000E+00  0.0000E+00  0.1200E+00  0.1200E+00
     26.207  0.0000E+00  0.0000E+00  0.1200E+00  0.1200E+00
     26.223  0.0000E+00  0.0000E+00  0.1200E+00  0.1200E+00
     26.239  0.0000E+00  0.0000E+00  0.1200E+00  0.1200E+00
