<?xml version="1.0" encoding="ISO-8859-1"?>
<modeling>
 <generator>
  <i name="program" type="string">vasp </i>
  <i name="version" type="string">6.3.0  </i>
  <i name="subversion" type="string">20Jan22 (build Jun 30 2026 15:27:26) complex                          parallel </i>
  <i name="platform" type="string">LinuxIFC </i>
  <i name="date" type="string">2026 07 05 </i>
  <i name="time" type="string">02:48:46 </i>
 </generator>
 <incar>
  <i type="string" name="SYSTEM">Ni3Al L12</i>
  <i type="int" name="ISTART">     0</i>
  <i type="string" name="PREC">Accurate</i>
  <i type="logical" name="ADDGRID"> T  </i>
  <i type="int" name="ISPIN">     2</i>
  <i type="int" name="ICHARG">     2</i>
  <i type="int" name="IBRION">     2</i>
  <i name="EDIFF">      0.00000010</i>
  <i name="EDIFFG">     -0.00500000</i>
  <i type="int" name="NSW">   200</i>
  <i type="int" name="ISIF">     3</i>
  <i type="int" name="ISYM">     2</i>
  <i name="SYMPREC">      0.00001000</i>
  <i name="ENCUT">    600.00000000</i>
  <i type="int" name="NEDOS">  2000</i>
  <v name="MAGMOM">      0.00000000      0.20000000      0.20000000      0.20000000</v>
  <i type="logical" name="LREAL"> F  </i>
  <i type="int" name="ISMEAR">     1</i>
  <i name="SIGMA">      0.20000000</i>
  <i name="KSPACING">      0.10000000</i>
  <i type="logical" name="LWAVE"> F  </i>
  <i type="logical" name="LASPH"> T  </i>
 </incar>
 <primitive_cell>
  <structure name="primitive_cell" >
   <crystal>
    <varray name="basis" >
     <v>       3.57000000       0.00000000       0.00000000 </v>
     <v>       0.00000000       3.57000000       0.00000000 </v>
     <v>       0.00000000       0.00000000       3.57000000 </v>
    </varray>
    <i name="volume">     45.49929300 </i>
    <varray name="rec_basis" >
     <v>       0.28011204       0.00000000       0.00000000 </v>
     <v>       0.00000000       0.28011204       0.00000000 </v>
     <v>       0.00000000       0.00000000       0.28011204 </v>
    </varray>
   </crystal>
   <varray name="positions" >
    <v>       0.00000000       0.00000000       0.00000000 </v>
    <v>       0.50000000       0.00000000       0.50000000 </v>
    <v>       0.50000000       0.50000000       0.00000000 </v>
    <v>       0.00000000       0.50000000       0.50000000 </v>
   </varray>
  </structure>
  <varray name="primitive_index" >
   <v type="int" >        1 </v>
   <v type="int" >        2 </v>
   <v type="int" >        3 </v>
   <v type="int" >        4 </v>
  </varray>
 </primitive_cell>
 <kpoints>
  <generation param="Gamma">
   <v type="int" name="divisions">      18       18       18 </v>
   <v name="usershift">      0.00000000       0.00000000       0.00000000 </v>
   <v name="genvec1">      0.05555556       0.00000000       0.00000000 </v>
   <v name="genvec2">      0.00000000       0.05555556       0.00000000 </v>
   <v name="genvec3">      0.00000000       0.00000000       0.05555556 </v>
   <v name="shift">      0.00000000       0.00000000       0.00000000 </v>
  </generation>
  <varray name="kpointlist" >
   <v>       0.00000000       0.00000000       0.00000000 </v>
   <v>       0.05555556       0.00000000       0.00000000 </v>
   <v>       0.11111111       0.00000000       0.00000000 </v>
   <v>       0.16666667       0.00000000       0.00000000 </v>
   <v>       0.22222222       0.00000000       0.00000000 </v>
   <v>       0.27777778       0.00000000       0.00000000 </v>
   <v>       0.33333333       0.00000000       0.00000000 </v>
   <v>       0.38888889       0.00000000       0.00000000 </v>
   <v>       0.44444444       0.00000000       0.00000000 </v>
   <v>       0.50000000       0.00000000       0.00000000 </v>
   <v>       0.05555556       0.05555556       0.00000000 </v>
   <v>       0.11111111       0.05555556       0.00000000 </v>
   <v>       0.16666667       0.05555556       0.00000000 </v>
   <v>       0.22222222       0.05555556       0.00000000 </v>
   <v>       0.27777778       0.05555556       0.00000000 </v>
   <v>       0.33333333       0.05555556       0.00000000 </v>
   <v>       0.38888889       0.05555556       0.00000000 </v>
   <v>       0.44444444       0.05555556       0.00000000 </v>
   <v>       0.50000000       0.05555556       0.00000000 </v>
   <v>       0.11111111       0.11111111       0.00000000 </v>
   <v>       0.16666667       0.11111111       0.00000000 </v>
   <v>       0.22222222       0.11111111       0.00000000 </v>
   <v>       0.27777778       0.11111111       0.00000000 </v>
   <v>       0.33333333       0.11111111       0.00000000 </v>
   <v>       0.38888889       0.11111111       0.00000000 </v>
   <v>       0.44444444       0.11111111       0.00000000 </v>
   <v>       0.50000000       0.11111111       0.00000000 </v>
   <v>       0.16666667       0.16666667       0.00000000 </v>
   <v>       0.22222222       0.16666667       0.00000000 </v>
   <v>       0.27777778       0.16666667       0.00000000 </v>
   <v>       0.33333333       0.16666667       0.00000000 </v>
   <v>       0.38888889       0.16666667       0.00000000 </v>
   <v>       0.44444444       0.16666667       0.00000000 </v>
   <v>       0.50000000       0.16666667       0.00000000 </v>
   <v>       0.22222222       0.22222222       0.00000000 </v>
   <v>       0.27777778       0.22222222       0.00000000 </v>
   <v>       0.33333333       0.22222222       0.00000000 </v>
   <v>       0.38888889       0.22222222       0.00000000 </v>
   <v>       0.44444444       0.22222222       0.00000000 </v>
   <v>       0.50000000       0.22222222       0.00000000 </v>
   <v>       0.27777778       0.27777778       0.00000000 </v>
   <v>       0.33333333       0.27777778       0.00000000 </v>
   <v>       0.38888889       0.27777778       0.00000000 </v>
   <v>       0.44444444       0.27777778       0.00000000 </v>
   <v>       0.50000000       0.27777778       0.00000000 </v>
   <v>       0.33333333       0.33333333       0.00000000 </v>
   <v>       0.38888889       0.33333333       0.00000000 </v>
   <v>       0.44444444       0.33333333       0.00000000 </v>
   <v>       0.50000000       0.33333333       0.00000000 </v>
   <v>       0.38888889       0.38888889       0.00000000 </v>
   <v>       0.44444444       0.38888889       0.00000000 </v>
   <v>       0.50000000       0.38888889       0.00000000 </v>
   <v>       0.44444444       0.44444444       0.00000000 </v>
   <v>       0.50000000       0.44444444       0.00000000 </v>
   <v>       0.50000000       0.50000000       0.00000000 </v>
   <v>       0.05555556       0.05555556       0.05555556 </v>
   <v>       0.11111111       0.05555556       0.05555556 </v>
   <v>       0.16666667       0.05555556       0.05555556 </v>
   <v>       0.22222222       0.05555556       0.05555556 </v>
   <v>       0.27777778       0.05555556       0.05555556 </v>
   <v>       0.33333333       0.05555556       0.05555556 </v>
   <v>       0.38888889       0.05555556       0.05555556 </v>
   <v>       0.44444444       0.05555556       0.05555556 </v>
   <v>       0.50000000       0.05555556       0.05555556 </v>
   <v>       0.11111111       0.11111111       0.05555556 </v>
   <v>       0.16666667       0.11111111       0.05555556 </v>
   <v>       0.22222222       0.11111111       0.05555556 </v>
   <v>       0.27777778       0.11111111       0.05555556 </v>
   <v>       0.33333333       0.11111111       0.05555556 </v>
   <v>       0.38888889       0.11111111       0.05555556 </v>
   <v>       0.44444444       0.11111111       0.05555556 </v>
   <v>       0.50000000       0.11111111       0.05555556 </v>
   <v>       0.16666667       0.16666667       0.05555556 </v>
   <v>       0.22222222       0.16666667       0.05555556 </v>
   <v>       0.27777778       0.16666667       0.05555556 </v>
   <v>       0.33333333       0.16666667       0.05555556 </v>
   <v>       0.38888889       0.16666667       0.05555556 </v>
   <v>       0.44444444       0.16666667       0.05555556 </v>
   <v>       0.50000000       0.16666667       0.05555556 </v>
   <v>       0.22222222       0.22222222       0.05555556 </v>
   <v>       0.27777778       0.22222222       0.05555556 </v>
   <v>       0.33333333       0.22222222       0.05555556 </v>
   <v>       0.38888889       0.22222222       0.05555556 </v>
   <v>       0.44444444       0.22222222       0.05555556 </v>
   <v>       0.50000000       0.22222222       0.05555556 </v>
   <v>       0.27777778       0.27777778       0.05555556 </v>
   <v>       0.33333333       0.27777778       0.05555556 </v>
   <v>       0.38888889       0.27777778       0.05555556 </v>
   <v>       0.44444444       0.27777778       0.05555556 </v>
   <v>       0.50000000       0.27777778       0.05555556 </v>
   <v>       0.33333333       0.33333333       0.05555556 </v>
   <v>       0.38888889       0.33333333       0.05555556 </v>
   <v>       0.44444444       0.33333333       0.05555556 </v>
   <v>       0.50000000       0.33333333       0.05555556 </v>
   <v>       0.38888889       0.38888889       0.05555556 </v>
   <v>       0.44444444       0.38888889       0.05555556 </v>
   <v>       0.50000000       0.38888889       0.05555556 </v>
   <v>       0.44444444       0.44444444       0.05555556 </v>
   <v>       0.50000000       0.44444444       0.05555556 </v>
   <v>       0.50000000       0.50000000       0.05555556 </v>
   <v>       0.11111111       0.11111111       0.11111111 </v>
   <v>       0.16666667       0.11111111       0.11111111 </v>
   <v>       0.22222222       0.11111111       0.11111111 </v>
   <v>       0.27777778       0.11111111       0.11111111 </v>
   <v>       0.33333333       0.11111111       0.11111111 </v>
   <v>       0.38888889       0.11111111       0.11111111 </v>
   <v>       0.44444444       0.11111111       0.11111111 </v>
   <v>       0.50000000       0.11111111       0.11111111 </v>
   <v>       0.16666667       0.16666667       0.11111111 </v>
   <v>       0.22222222       0.16666667       0.11111111 </v>
   <v>       0.27777778       0.16666667       0.11111111 </v>
   <v>       0.33333333       0.16666667       0.11111111 </v>
   <v>       0.38888889       0.16666667       0.11111111 </v>
   <v>       0.44444444       0.16666667       0.11111111 </v>
   <v>       0.50000000       0.16666667       0.11111111 </v>
   <v>       0.22222222       0.22222222       0.11111111 </v>
   <v>       0.27777778       0.22222222       0.11111111 </v>
   <v>       0.33333333       0.22222222       0.11111111 </v>
   <v>       0.38888889       0.22222222       0.11111111 </v>
   <v>       0.44444444       0.22222222       0.11111111 </v>
   <v>       0.50000000       0.22222222       0.11111111 </v>
   <v>       0.27777778       0.27777778       0.11111111 </v>
   <v>       0.33333333       0.27777778       0.11111111 </v>
   <v>       0.38888889       0.27777778       0.11111111 </v>
   <v>       0.44444444       0.27777778       0.11111111 </v>
   <v>       0.50000000       0.27777778       0.11111111 </v>
   <v>       0.33333333       0.33333333       0.11111111 </v>
   <v>       0.38888889       0.33333333       0.11111111 </v>
   <v>       0.44444444       0.33333333       0.11111111 </v>
   <v>       0.50000000       0.33333333       0.11111111 </v>
   <v>       0.38888889       0.38888889       0.11111111 </v>
   <v>       0.44444444       0.38888889       0.11111111 </v>
   <v>       0.50000000       0.38888889       0.11111111 </v>
   <v>       0.44444444       0.44444444       0.11111111 </v>
   <v>       0.50000000       0.44444444       0.11111111 </v>
   <v>       0.50000000       0.50000000       0.11111111 </v>
   <v>       0.16666667       0.16666667       0.16666667 </v>
   <v>       0.22222222       0.16666667       0.16666667 </v>
   <v>       0.27777778       0.16666667       0.16666667 </v>
   <v>       0.33333333       0.16666667       0.16666667 </v>
   <v>       0.38888889       0.16666667       0.16666667 </v>
   <v>       0.44444444       0.16666667       0.16666667 </v>
   <v>       0.50000000       0.16666667       0.16666667 </v>
   <v>       0.22222222       0.22222222       0.16666667 </v>
   <v>       0.27777778       0.22222222       0.16666667 </v>
   <v>       0.33333333       0.22222222       0.16666667 </v>
   <v>       0.38888889       0.22222222       0.16666667 </v>
   <v>       0.44444444       0.22222222       0.16666667 </v>
   <v>       0.50000000       0.22222222       0.16666667 </v>
   <v>       0.27777778       0.27777778       0.16666667 </v>
   <v>       0.33333333       0.27777778       0.16666667 </v>
   <v>       0.38888889       0.27777778       0.16666667 </v>
   <v>       0.44444444       0.27777778       0.16666667 </v>
   <v>       0.50000000       0.27777778       0.16666667 </v>
   <v>       0.33333333       0.33333333       0.16666667 </v>
   <v>       0.38888889       0.33333333       0.16666667 </v>
   <v>       0.44444444       0.33333333       0.16666667 </v>
   <v>       0.50000000       0.33333333       0.16666667 </v>
   <v>       0.38888889       0.38888889       0.16666667 </v>
   <v>       0.44444444       0.38888889       0.16666667 </v>
   <v>       0.50000000       0.38888889       0.16666667 </v>
   <v>       0.44444444       0.44444444       0.16666667 </v>
   <v>       0.50000000       0.44444444       0.16666667 </v>
   <v>       0.50000000       0.50000000       0.16666667 </v>
   <v>       0.22222222       0.22222222       0.22222222 </v>
   <v>       0.27777778       0.22222222       0.22222222 </v>
   <v>       0.33333333       0.22222222       0.22222222 </v>
   <v>       0.38888889       0.22222222       0.22222222 </v>
   <v>       0.44444444       0.22222222       0.22222222 </v>
   <v>       0.50000000       0.22222222       0.22222222 </v>
   <v>       0.27777778       0.27777778       0.22222222 </v>
   <v>       0.33333333       0.27777778       0.22222222 </v>
   <v>       0.38888889       0.27777778       0.22222222 </v>
   <v>       0.44444444       0.27777778       0.22222222 </v>
   <v>       0.50000000       0.27777778       0.22222222 </v>
   <v>       0.33333333       0.33333333       0.22222222 </v>
   <v>       0.38888889       0.33333333       0.22222222 </v>
   <v>       0.44444444       0.33333333       0.22222222 </v>
   <v>       0.50000000       0.33333333       0.22222222 </v>
   <v>       0.38888889       0.38888889       0.22222222 </v>
   <v>       0.44444444       0.38888889       0.22222222 </v>
   <v>       0.50000000       0.38888889       0.22222222 </v>
   <v>       0.44444444       0.44444444       0.22222222 </v>
   <v>       0.50000000       0.44444444       0.22222222 </v>
   <v>       0.50000000       0.50000000       0.22222222 </v>
   <v>       0.27777778       0.27777778       0.27777778 </v>
   <v>       0.33333333       0.27777778       0.27777778 </v>
   <v>       0.38888889       0.27777778       0.27777778 </v>
   <v>       0.44444444       0.27777778       0.27777778 </v>
   <v>       0.50000000       0.27777778       0.27777778 </v>
   <v>       0.33333333       0.33333333       0.27777778 </v>
   <v>       0.38888889       0.33333333       0.27777778 </v>
   <v>       0.44444444       0.33333333       0.27777778 </v>
   <v>       0.50000000       0.33333333       0.27777778 </v>
   <v>       0.38888889       0.38888889       0.27777778 </v>
   <v>       0.44444444       0.38888889       0.27777778 </v>
   <v>       0.50000000       0.38888889       0.27777778 </v>
   <v>       0.44444444       0.44444444       0.27777778 </v>
   <v>       0.50000000       0.44444444       0.27777778 </v>
   <v>       0.50000000       0.50000000       0.27777778 </v>
   <v>       0.33333333       0.33333333       0.33333333 </v>
   <v>       0.38888889       0.33333333       0.33333333 </v>
   <v>       0.44444444       0.33333333       0.33333333 </v>
   <v>       0.50000000       0.33333333       0.33333333 </v>
   <v>       0.38888889       0.38888889       0.33333333 </v>
   <v>       0.44444444       0.38888889       0.33333333 </v>
   <v>       0.50000000       0.38888889       0.33333333 </v>
   <v>       0.44444444       0.44444444       0.33333333 </v>
   <v>       0.50000000       0.44444444       0.33333333 </v>
   <v>       0.50000000       0.50000000       0.33333333 </v>
   <v>       0.38888889       0.38888889       0.38888889 </v>
   <v>       0.44444444       0.38888889       0.38888889 </v>
   <v>       0.50000000       0.38888889       0.38888889 </v>
   <v>       0.44444444       0.44444444       0.38888889 </v>
   <v>       0.50000000       0.44444444       0.38888889 </v>
   <v>       0.50000000       0.50000000       0.38888889 </v>
   <v>       0.44444444       0.44444444       0.44444444 </v>
   <v>       0.50000000       0.44444444       0.44444444 </v>
   <v>       0.50000000       0.50000000       0.44444444 </v>
   <v>       0.50000000       0.50000000       0.50000000 </v>
  </varray>
  <varray name="weights" >
   <v>       0.00017147 </v>
   <v>       0.00102881 </v>
   <v>       0.00102881 </v>
   <v>       0.00102881 </v>
   <v>       0.00102881 </v>
   <v>       0.00102881 </v>
   <v>       0.00102881 </v>
   <v>       0.00102881 </v>
   <v>       0.00102881 </v>
   <v>       0.00051440 </v>
   <v>       0.00205761 </v>
   <v>       0.00411523 </v>
   <v>       0.00411523 </v>
   <v>       0.00411523 </v>
   <v>       0.00411523 </v>
   <v>       0.00411523 </v>
   <v>       0.00411523 </v>
   <v>       0.00411523 </v>
   <v>       0.00205761 </v>
   <v>       0.00205761 </v>
   <v>       0.00411523 </v>
   <v>       0.00411523 </v>
   <v>       0.00411523 </v>
   <v>       0.00411523 </v>
   <v>       0.00411523 </v>
   <v>       0.00411523 </v>
   <v>       0.00205761 </v>
   <v>       0.00205761 </v>
   <v>       0.00411523 </v>
   <v>       0.00411523 </v>
   <v>       0.00411523 </v>
   <v>       0.00411523 </v>
   <v>       0.00411523 </v>
   <v>       0.00205761 </v>
   <v>       0.00205761 </v>
   <v>       0.00411523 </v>
   <v>       0.00411523 </v>
   <v>       0.00411523 </v>
   <v>       0.00411523 </v>
   <v>       0.00205761 </v>
   <v>       0.00205761 </v>
   <v>       0.00411523 </v>
   <v>       0.00411523 </v>
   <v>       0.00411523 </v>
   <v>       0.00205761 </v>
   <v>       0.00205761 </v>
   <v>       0.00411523 </v>
   <v>       0.00411523 </v>
   <v>       0.00205761 </v>
   <v>       0.00205761 </v>
   <v>       0.00411523 </v>
   <v>       0.00205761 </v>
   <v>       0.00205761 </v>
   <v>       0.00205761 </v>
   <v>       0.00051440 </v>
   <v>       0.00137174 </v>
   <v>       0.00411523 </v>
   <v>       0.00411523 </v>
   <v>       0.00411523 </v>
   <v>       0.00411523 </v>
   <v>       0.00411523 </v>
   <v>       0.00411523 </v>
   <v>       0.00411523 </v>
   <v>       0.00205761 </v>
   <v>       0.00411523 </v>
   <v>       0.00823045 </v>
   <v>       0.00823045 </v>
   <v>       0.00823045 </v>
   <v>       0.00823045 </v>
   <v>       0.00823045 </v>
   <v>       0.00823045 </v>
   <v>       0.00411523 </v>
   <v>       0.00411523 </v>
   <v>       0.00823045 </v>
   <v>       0.00823045 </v>
   <v>       0.00823045 </v>
   <v>       0.00823045 </v>
   <v>       0.00823045 </v>
   <v>       0.00411523 </v>
   <v>       0.00411523 </v>
   <v>       0.00823045 </v>
   <v>       0.00823045 </v>
   <v>       0.00823045 </v>
   <v>       0.00823045 </v>
   <v>       0.00411523 </v>
   <v>       0.00411523 </v>
   <v>       0.00823045 </v>
   <v>       0.00823045 </v>
   <v>       0.00823045 </v>
   <v>       0.00411523 </v>
   <v>       0.00411523 </v>
   <v>       0.00823045 </v>
   <v>       0.00823045 </v>
   <v>       0.00411523 </v>
   <v>       0.00411523 </v>
   <v>       0.00823045 </v>
   <v>       0.00411523 </v>
   <v>       0.00411523 </v>
   <v>       0.00411523 </v>
   <v>       0.00102881 </v>
   <v>       0.00137174 </v>
   <v>       0.00411523 </v>
   <v>       0.00411523 </v>
   <v>       0.00411523 </v>
   <v>       0.00411523 </v>
   <v>       0.00411523 </v>
   <v>       0.00411523 </v>
   <v>       0.00205761 </v>
   <v>       0.00411523 </v>
   <v>       0.00823045 </v>
   <v>       0.00823045 </v>
   <v>       0.00823045 </v>
   <v>       0.00823045 </v>
   <v>       0.00823045 </v>
   <v>       0.00411523 </v>
   <v>       0.00411523 </v>
   <v>       0.00823045 </v>
   <v>       0.00823045 </v>
   <v>       0.00823045 </v>
   <v>       0.00823045 </v>
   <v>       0.00411523 </v>
   <v>       0.00411523 </v>
   <v>       0.00823045 </v>
   <v>       0.00823045 </v>
   <v>       0.00823045 </v>
   <v>       0.00411523 </v>
   <v>       0.00411523 </v>
   <v>       0.00823045 </v>
   <v>       0.00823045 </v>
   <v>       0.00411523 </v>
   <v>       0.00411523 </v>
   <v>       0.00823045 </v>
   <v>       0.00411523 </v>
   <v>       0.00411523 </v>
   <v>       0.00411523 </v>
   <v>       0.00102881 </v>
   <v>       0.00137174 </v>
   <v>       0.00411523 </v>
   <v>       0.00411523 </v>
   <v>       0.00411523 </v>
   <v>       0.00411523 </v>
   <v>       0.00411523 </v>
   <v>       0.00205761 </v>
   <v>       0.00411523 </v>
   <v>       0.00823045 </v>
   <v>       0.00823045 </v>
   <v>       0.00823045 </v>
   <v>       0.00823045 </v>
   <v>       0.00411523 </v>
   <v>       0.00411523 </v>
   <v>       0.00823045 </v>
   <v>       0.00823045 </v>
   <v>       0.00823045 </v>
   <v>       0.00411523 </v>
   <v>       0.00411523 </v>
   <v>       0.00823045 </v>
   <v>       0.00823045 </v>
   <v>       0.00411523 </v>
   <v>       0.00411523 </v>
   <v>       0.00823045 </v>
   <v>       0.00411523 </v>
   <v>       0.00411523 </v>
   <v>       0.00411523 </v>
   <v>       0.00102881 </v>
   <v>       0.00137174 </v>
   <v>       0.00411523 </v>
   <v>       0.00411523 </v>
   <v>       0.00411523 </v>
   <v>       0.00411523 </v>
   <v>       0.00205761 </v>
   <v>       0.00411523 </v>
   <v>       0.00823045 </v>
   <v>       0.00823045 </v>
   <v>       0.00823045 </v>
   <v>       0.00411523 </v>
   <v>       0.00411523 </v>
   <v>       0.00823045 </v>
   <v>       0.00823045 </v>
   <v>       0.00411523 </v>
   <v>       0.00411523 </v>
   <v>       0.00823045 </v>
   <v>       0.00411523 </v>
   <v>       0.00411523 </v>
   <v>       0.00411523 </v>
   <v>       0.00102881 </v>
   <v>       0.00137174 </v>
   <v>       0.00411523 </v>
   <v>       0.00411523 </v>
   <v>       0.00411523 </v>
   <v>       0.00205761 </v>
   <v>       0.00411523 </v>
   <v>       0.00823045 </v>
   <v>       0.00823045 </v>
   <v>       0.00411523 </v>
   <v>       0.00411523 </v>
   <v>       0.00823045 </v>
   <v>       0.00411523 </v>
   <v>       0.00411523 </v>
   <v>       0.00411523 </v>
   <v>       0.00102881 </v>
   <v>       0.00137174 </v>
   <v>       0.00411523 </v>
   <v>       0.00411523 </v>
   <v>       0.00205761 </v>
   <v>       0.00411523 </v>
   <v>       0.00823045 </v>
   <v>       0.00411523 </v>
   <v>       0.00411523 </v>
   <v>       0.00411523 </v>
   <v>       0.00102881 </v>
   <v>       0.00137174 </v>
   <v>       0.00411523 </v>
   <v>       0.00205761 </v>
   <v>       0.00411523 </v>
   <v>       0.00411523 </v>
   <v>       0.00102881 </v>
   <v>       0.00137174 </v>
   <v>       0.00205761 </v>
   <v>       0.00102881 </v>
   <v>       0.00017147 </v>
  </varray>
 </kpoints>
 <parameters>
  <separator name="general" >
   <i type="string" name="SYSTEM">Ni3Al L12</i>
   <i type="logical" name="LCOMPAT"> F  </i>
  </separator>
  <separator name="electronic" >
   <i type="string" name="PREC">accura</i>
   <i name="ENMAX">    600.00000000</i>
   <i name="ENAUG">    544.56500000</i>
   <i name="EDIFF">      0.00000010</i>
   <i type="int" name="IALGO">    38</i>
   <i type="int" name="IWAVPR">    11</i>
   <i type="int" name="NBANDS">    24</i>
   <i type="int" name="NBANDSLOW">    -1</i>
   <i type="int" name="NBANDSHIGH">    -1</i>
   <i name="NELECT">     33.00000000</i>
   <i type="int" name="TURBO">     0</i>
   <i type="int" name="IRESTART">     0</i>
   <i type="int" name="NREBOOT">     0</i>
   <i type="int" name="NMIN">     0</i>
   <i name="EREF">      0.00000000</i>
   <separator name="electronic smearing" >
    <i type="int" name="ISMEAR">     1</i>
    <i name="SIGMA">      0.20000000</i>
    <i name="KSPACING">      0.10000000</i>
    <i type="logical" name="KGAMMA"> T  </i>
    <i type="logical" name="KBLOWUP"> T  </i>
   </separator>
   <separator name="electronic projectors" >
    <i type="logical" name="LREAL"> F  </i>
    <v name="ROPT">      0.00000000      0.00000000</v>
    <i type="int" name="LMAXPAW">  -100</i>
    <i type="int" name="LMAXMIX">     2</i>
    <i type="logical" name="NLSPLINE"> F  </i>
   </separator>
   <separator name="electronic startup" >
    <i type="int" name="ISTART">     0</i>
    <i type="int" name="ICHARG">     2</i>
    <i type="int" name="INIWAV">     1</i>
   </separator>
   <separator name="electronic spin" >
    <i type="int" name="ISPIN">     2</i>
    <i type="logical" name="LNONCOLLINEAR"> F  </i>
    <v name="MAGMOM">      0.00000000      0.20000000      0.20000000      0.20000000</v>
    <i name="NUPDOWN">     -1.00000000</i>
    <i type="logical" name="LSORBIT"> F  </i>
    <v name="SAXIS">      0.00000000      0.00000000      1.00000000</v>
    <i type="logical" name="LSPIRAL"> F  </i>
    <v name="QSPIRAL">      0.00000000      0.00000000      0.00000000</v>
    <i type="logical" name="LZEROZ"> F  </i>
   </separator>
   <separator name="electronic exchange-correlation" >
    <i type="logical" name="LASPH"> T  </i>
    <i type="logical" name="LMETAGGA"> F  </i>
   </separator>
   <separator name="electronic convergence" >
    <i type="int" name="NELM">    60</i>
    <i type="int" name="NELMDL">    -5</i>
    <i type="int" name="NELMIN">     2</i>
    <i name="ENINI">    600.00000000</i>
    <separator name="electronic convergence detail" >
     <i type="logical" name="LDIAG"> T  </i>
     <i type="logical" name="LSUBROT"> F  </i>
     <i name="WEIMIN">      0.00100000</i>
     <i name="EBREAK">      0.00000000</i>
     <i name="DEPER">      0.30000000</i>
     <i type="int" name="NRMM">     4</i>
     <i name="TIME">      0.40000000</i>
    </separator>
   </separator>
   <separator name="electronic mixer" >
    <i name="AMIX">      0.40000000</i>
    <i name="BMIX">      1.00000000</i>
    <i name="AMIN">      0.10000000</i>
    <i name="AMIX_MAG">      1.60000000</i>
    <i name="BMIX_MAG">      1.00000000</i>
    <separator name="electronic mixer details" >
     <i type="int" name="IMIX">     4</i>
     <i type="logical" name="MIXFIRST"> F  </i>
     <i type="int" name="MAXMIX">   -45</i>
     <i name="WC">    100.00000000</i>
     <i type="int" name="INIMIX">     1</i>
     <i type="int" name="MIXPRE">     1</i>
     <i type="int" name="MREMOVE">     5</i>
    </separator>
   </separator>
   <separator name="electronic dipolcorrection" >
    <i type="logical" name="LDIPOL"> F  </i>
    <i type="logical" name="LMONO"> F  </i>
    <i type="int" name="IDIPOL">     0</i>
    <i name="EPSILON">      1.00000000</i>
    <v name="DIPOL">   -100.00000000   -100.00000000   -100.00000000</v>
    <i name="EFIELD">      0.00000000</i>
   </separator>
  </separator>
  <separator name="grids" >
   <i type="int" name="NGX">    30</i>
   <i type="int" name="NGY">    30</i>
   <i type="int" name="NGZ">    30</i>
   <i type="int" name="NGXF">    60</i>
   <i type="int" name="NGYF">    60</i>
   <i type="int" name="NGZF">    60</i>
   <i type="logical" name="ADDGRID"> T  </i>
  </separator>
  <separator name="ionic" >
   <i type="int" name="NSW">   200</i>
   <i type="int" name="IBRION">     2</i>
   <i type="int" name="MDALGO">     0</i>
   <i type="int" name="ISIF">     3</i>
   <i name="PSTRESS">      0.00000000</i>
   <i name="EDIFFG">     -0.00500000</i>
   <i type="int" name="NFREE">     1</i>
   <i name="POTIM">      0.50000000</i>
   <i name="SMASS">     -3.00000000</i>
   <i name="SCALEE">      1.00000000</i>
  </separator>
  <separator name="ionic md" >
   <i name="TEBEG">      0.00010000</i>
   <i name="TEEND">      0.00010000</i>
   <i type="int" name="NBLOCK">     1</i>
   <i type="int" name="KBLOCK">   200</i>
   <i type="int" name="NPACO">   256</i>
   <i name="APACO">     10.00000000</i>
  </separator>
  <separator name="symmetry" >
   <i type="int" name="ISYM">     2</i>
   <i name="SYMPREC">      0.00001000</i>
  </separator>
  <separator name="dos" >
   <i type="int" name="LORBIT">     0</i>
   <v name="RWIGS">     -1.00000000     -1.00000000</v>
   <i type="int" name="NEDOS">  2000</i>
   <i name="EMIN">     10.00000000</i>
   <i name="EMAX">    -10.00000000</i>
   <i name="EFERMI">      0.00000000</i>
  </separator>
  <separator name="writing" >
   <i type="int" name="NWRITE">     2</i>
   <i type="logical" name="LWAVE"> F  </i>
   <i type="logical" name="LDOWNSAMPLE"> F  </i>
   <i type="logical" name="LCHARG"> T  </i>
   <i type="logical" name="LPARD"> F  </i>
   <i type="logical" name="LVTOT"> F  </i>
   <i type="logical" name="LVHAR"> F  </i>
   <i type="logical" name="LELF"> F  </i>
   <i type="logical" name="LOPTICS"> F  </i>
   <v name="STM">      0.00000000      0.00000000      0.00000000      0.00000000      0.00000000      0.00000000      0.00000000</v>
  </separator>
  <separator name="performance" >
   <i type="int" name="NPAR">     6</i>
   <i type="int" name="NSIM">     4</i>
   <i type="int" name="NBLK">    -1</i>
   <i type="logical" name="LPLANE"> T  </i>
   <i type="logical" name="LSCALAPACK"> T  </i>
   <i type="logical" name="LSCAAWARE"> F  </i>
   <i type="logical" name="LSCALU"> F  </i>
   <i type="logical" name="LASYNC"> F  </i>
   <i type="logical" name="LORBITALREAL"> F  </i>
  </separator>
  <separator name="miscellaneous" >
   <i type="int" name="IDIOT">     3</i>
   <i type="int" name="PHON_NSTRUCT">    -1</i>
   <i type="logical" name="LMUSIC"> F  </i>
   <v name="POMASS">     26.98200000     58.69000000</v>
   <v name="DARWINR">      0.00000000      0.00000000</v>
   <v name="DARWINV">      1.00000000      1.00000000</v>
   <i type="logical" name="LCORR"> T  </i>
  </separator>
  <i type="logical" name="GGA_COMPAT"> T  </i>
  <i type="logical" name="LBERRY"> F  </i>
  <i type="int" name="ICORELEVEL">     0</i>
  <i type="logical" name="LDAU"> F  </i>
  <i type="int" name="I_CONSTRAINED_M">     0</i>
  <separator name="electronic exchange-correlation" >
   <i type="string" name="GGA">--</i>
   <i type="int" name="VOSKOWN">     0</i>
   <i type="logical" name="LHFCALC"> F  </i>
   <i type="string" name="PRECFOCK"></i>
   <i type="logical" name="LSYMGRAD"> F  </i>
   <i type="logical" name="LHFONE"> F  </i>
   <i type="logical" name="LRHFCALC"> F  </i>
   <i type="logical" name="LTHOMAS"> F  </i>
   <i type="logical" name="LMODELHF"> F  </i>
   <i type="logical" name="LFOCKACE"> F  </i>
   <i name="ENCUT4O">     -1.00000000</i>
   <i type="int" name="EXXOEP">     0</i>
   <i type="int" name="FOURORBIT">     0</i>
   <i name="AEXX">      0.00000000</i>
   <i name="HFALPHA">      0.00000000</i>
   <i name="MCALPHA">      0.00000000</i>
   <i name="ALDAX">      1.00000000</i>
   <i name="AGGAX">      1.00000000</i>
   <i name="ALDAC">      1.00000000</i>
   <i name="AGGAC">      1.00000000</i>
   <i type="int" name="NKREDX">     1</i>
   <i type="int" name="NKREDY">     1</i>
   <i type="int" name="NKREDZ">     1</i>
   <i type="logical" name="SHIFTRED"> F  </i>
   <i type="logical" name="ODDONLY"> F  </i>
   <i type="logical" name="EVENONLY"> F  </i>
   <i type="int" name="LMAXFOCK">     0</i>
   <i type="int" name="NMAXFOCKAE">     0</i>
   <i type="logical" name="LFOCKAEDFT"> F  </i>
   <i name="HFSCREEN">      0.00000000</i>
   <i name="HFSCREENC">      0.00000000</i>
   <i type="int" name="NBANDSGWLOW">     0</i>
  </separator>
  <separator name="vdW DFT" >
   <i type="logical" name="LUSE_VDW"> F  </i>
   <i name="Zab_VDW">     -0.84910000</i>
   <i name="PARAM1">      0.12340000</i>
   <i name="PARAM2">      1.00000000</i>
   <i name="PARAM3">      0.00000000</i>
  </separator>
  <separator name="model GW" >
   <i type="int" name="MODEL_GW">     0</i>
   <i name="MODEL_EPS0">      6.82489395</i>
   <i name="MODEL_ALPHA">      1.00000000</i>
  </separator>
  <separator name="linear response parameters" >
   <i type="logical" name="LEPSILON"> F  </i>
   <i type="logical" name="LRPA"> F  </i>
   <i type="logical" name="LNABLA"> F  </i>
   <i type="logical" name="LVEL"> F  </i>
   <i name="CSHIFT">      0.10000000</i>
   <i name="OMEGAMAX">     -1.00000000</i>
   <i name="DEG_THRESHOLD">      0.00200000</i>
   <i name="RTIME">     -0.10000000</i>
   <i name="WPLASMAI">      0.00000000</i>
   <v name="DFIELD">      0.00000000      0.00000000      0.00000000</v>
   <v name="WPLASMA">      0.00000000      0.00000000      0.00000000      0.00000000      0.00000000      0.00000000      0.00000000      0.00000000      0.00000000</v>
  </separator>
  <separator name="orbital magnetization" >
   <i type="logical" name="NUCIND"> F  </i>
   <v name="MAGPOS">      0.00000000      0.00000000      0.00000000</v>
   <i type="logical" name="LNICSALL"> T  </i>
   <i type="logical" name="ORBITALMAG"> F  </i>
   <i type="logical" name="LMAGBLOCH"> F  </i>
   <i type="logical" name="LCHIMAG"> F  </i>
   <i type="logical" name="LGAUGE"> T  </i>
   <i type="int" name="MAGATOM">     0</i>
   <v name="MAGDIPOL">      0.00000000      0.00000000      0.00000000</v>
   <v name="AVECCONST">      0.00000000      0.00000000      0.00000000</v>
  </separator>
  <separator name="response functions" >
   <i type="logical" name="LFINITE_TEMPERATURE"> F  </i>
   <i type="logical" name="LADDER"> F  </i>
   <i type="logical" name="LRPAFORCE"> F  </i>
   <i type="logical" name="LFXC"> F  </i>
   <i type="logical" name="LHARTREE"> T  </i>
   <i type="int" name="IBSE">     0</i>
   <v type="int" name="KPOINT">    -1     0     0     0</v>
   <i type="logical" name="LTCTC"> F  </i>
   <i type="logical" name="LTCTE"> F  </i>
   <i type="logical" name="LTETE"> F  </i>
   <i type="logical" name="LTRIPLET"> F  </i>
   <i type="logical" name="LFXCEPS"> F  </i>
   <i type="logical" name="LFXHEG"> F  </i>
   <i type="int" name="NATURALO">     2</i>
   <i type="logical" name="LHOLEGF"> F  </i>
   <i type="logical" name="L2ORDER"> F  </i>
   <i type="logical" name="LDMP1"> F  </i>
   <i type="logical" name="LMP2LT"> F  </i>
   <i type="logical" name="LSMP2LT"> F  </i>
   <i type="logical" name="LGWLF"> F  </i>
   <i name="ENCUTGW">     -2.00000000</i>
   <i name="ENCUTGWSOFT">     -2.00000000</i>
   <i name="ENCUTLF">     -1.00000000</i>
   <i type="logical" name="LESF_SPLINES"> F  </i>
   <i type="int" name="LMAXMP2">    -1</i>
   <i name="SCISSOR">      0.00000000</i>
   <i type="int" name="NOMEGA">     0</i>
   <i type="int" name="NOMEGAR">     0</i>
   <i type="int" name="NBANDSGW">    -1</i>
   <i type="int" name="NBANDSO">    -1</i>
   <i type="int" name="NBANDSV">    -1</i>
   <i type="int" name="NELMGW">     1</i>
   <i type="int" name="NELMHF">     1</i>
   <i type="int" name="DIM">     3</i>
   <i type="int" name="IESPILON">     4</i>
   <i type="int" name="ANTIRES">     0</i>
   <i name="OMEGAMAX">    -30.00000000</i>
   <i name="OMEGAMIN">    -30.00000000</i>
   <i name="OMEGATL">   -200.00000000</i>
   <i type="int" name="OMEGAGRID">     0</i>
   <i name="CSHIFT">     -0.10000000</i>
   <i type="logical" name="LSELFENERGY"> F  </i>
   <i type="logical" name="LSPECTRAL"> F  </i>
   <i type="logical" name="LSPECTRALGW"> F  </i>
   <i type="logical" name="LSINGLES"> F  </i>
   <i type="logical" name="LFERMIGW"> F  </i>
   <i type="logical" name="ODDONLYGW"> F  </i>
   <i type="logical" name="EVENONLYGW"> F  </i>
   <i type="int" name="NKREDLFX">     1</i>
   <i type="int" name="NKREDLFY">     1</i>
   <i type="int" name="NKREDLFZ">     1</i>
   <i type="int" name="MAXMEM">  2800</i>
   <i type="int" name="TELESCOPE">     0</i>
   <i type="int" name="NTAUPAR">    -1</i>
   <i type="int" name="NOMEGAPAR">    -1</i>
   <i name="DAMP_NEWTON">      0.80000001</i>
   <i name="LAMBDA">      1.00000000</i>
  </separator>
  <separator name="External order field" >
   <i name="OFIELD_KAPPA">      0.00000000</i>
   <v name="OFIELD_K">      0.00000000      0.00000000      0.00000000</v>
   <i name="OFIELD_Q6_NEAR">      0.00000000</i>
   <i name="OFIELD_Q6_FAR">      0.00000000</i>
   <i name="OFIELD_A">      0.00000000</i>
  </separator>
  <separator name="optional k-points parameters" >
   <i type="int" name="KPOINTS_OPT_MODE">     1</i>
   <i type="logical" name="LKPOINTS_OPT"> F  </i>
  </separator>
 </parameters>
 <atominfo>
  <atoms>       4 </atoms>
  <types>       2 </types>
  <array name="atoms" >
   <dimension dim="1">ion</dimension>
   <field type="string">element</field>
   <field type="int">atomtype</field>
   <set>
    <rc><c>Al</c><c>   1</c></rc>
    <rc><c>Ni</c><c>   2</c></rc>
    <rc><c>Ni</c><c>   2</c></rc>
    <rc><c>Ni</c><c>   2</c></rc>
   </set>
  </array>
  <array name="atomtypes" >
   <dimension dim="1">type</dimension>
   <field type="int">atomspertype</field>
   <field type="string">element</field>
   <field>mass</field>
   <field>valence</field>
   <field type="string">pseudopotential</field>
   <set>
    <rc><c>   1</c><c>Al</c><c>     26.98200000</c><c>      3.00000000</c><c> PAW_PBE Al 04Jan2001                   </c></rc>
    <rc><c>   3</c><c>Ni</c><c>     58.69000000</c><c>     10.00000000</c><c> PAW_PBE Ni 06Sep2000                   </c></rc>
   </set>
  </array>
 </atominfo>
 <structure name="initialpos" >
  <crystal>
   <varray name="basis" >
    <v>       3.57000000       0.00000000       0.00000000 </v>
    <v>       0.00000000       3.57000000       0.00000000 </v>
    <v>       0.00000000       0.00000000       3.57000000 </v>
   </varray>
   <i name="volume">     45.49929300 </i>
   <varray name="rec_basis" >
    <v>       0.28011204       0.00000000       0.00000000 </v>
    <v>       0.00000000       0.28011204       0.00000000 </v>
    <v>       0.00000000       0.00000000       0.28011204 </v>
   </varray>
  </crystal>
  <varray name="positions" >
   <v>       0.00000000       0.00000000       0.00000000 </v>
   <v>       0.50000000       0.00000000       0.50000000 </v>
   <v>       0.50000000       0.50000000       0.00000000 </v>
   <v>       0.00000000       0.50000000       0.50000000 </v>
  </varray>
 </structure>
 <calculation>
  <scstep>
   <time name="dav">    5.09    5.34</time>
   <time name="total">    6.03    6.29</time>
   <energy>
    <i name="alphaZ">    218.55111503 </i>
    <i name="ewald">  -2684.51506966 </i>
    <i name="hartreedc">   -923.69883362 </i>
    <i name="XCdc">     69.16654628 </i>
    <i name="pawpsdc">   2647.41437926 </i>
    <i name="pawaedc">  -2815.92107855 </i>
    <i name="eentropy">      0.00127812 </i>
    <i name="bandstr">    359.92934814 </i>
    <i name="atom">   3287.24036057 </i>
    <i name="e_fr_energy">    158.16804558 </i>
    <i name="e_wo_entrp">    158.16676746 </i>
    <i name="e_0_energy">    158.16761954 </i>
   </energy>
  </scstep>
  <scstep>
   <time name="dav">    5.04    5.26</time>
   <time name="total">    5.08    5.30</time>
   <energy>
    <i name="e_fr_energy">    -21.84089986 </i>
    <i name="e_wo_entrp">    -21.83438442 </i>
    <i name="e_0_energy">    -21.83872804 </i>
   </energy>
  </scstep>
  <scstep>
   <time name="dav">    6.35    6.57</time>
   <time name="total">    6.40    6.61</time>
   <energy>
    <i name="e_fr_energy">    -26.27289751 </i>
    <i name="e_wo_entrp">    -26.26810888 </i>
    <i name="e_0_energy">    -26.27130130 </i>
   </energy>
  </scstep>
  <scstep>
   <time name="dav">    4.75    4.89</time>
   <time name="total">    4.79    4.93</time>
   <energy>
    <i name="e_fr_energy">    -26.31403921 </i>
    <i name="e_wo_entrp">    -26.30924195 </i>
    <i name="e_0_energy">    -26.31244012 </i>
   </energy>
  </scstep>
  <scstep>
   <time name="dav">    4.69    4.77</time>
   <time name="total">    4.96    5.04</time>
   <energy>
    <i name="e_fr_energy">    -26.31505667 </i>
    <i name="e_wo_entrp">    -26.31025926 </i>
    <i name="e_0_energy">    -26.31345753 </i>
   </energy>
  </scstep>
  <scstep>
   <time name="dav">    3.94    4.01</time>
   <time name="total">    4.76    4.83</time>
   <energy>
    <i name="e_fr_energy">    -27.53339145 </i>
    <i name="e_wo_entrp">    -27.53267264 </i>
    <i name="e_0_energy">    -27.53315185 </i>
   </energy>
  </scstep>
  <scstep>
   <time name="dav">    4.00    4.08</time>
   <time name="total">    4.81    4.89</time>
   <energy>
    <i name="e_fr_energy">    -22.27789771 </i>
    <i name="e_wo_entrp">    -22.26503555 </i>
    <i name="e_0_energy">    -22.27361032 </i>
   </energy>
  </scstep>
  <scstep>
   <time name="dav">    3.96    4.03</time>
   <time name="total">    4.77    4.84</time>
   <energy>
    <i name="e_fr_energy">    -22.20925953 </i>
    <i name="e_wo_entrp">    -22.19825079 </i>
    <i name="e_0_energy">    -22.20558995 </i>
   </energy>
  </scstep>
  <scstep>
   <time name="dav">    4.81    4.93</time>
   <time name="total">    5.61    5.74</time>
   <energy>
    <i name="e_fr_energy">    -22.20399169 </i>
    <i name="e_wo_entrp">    -22.19482635 </i>
    <i name="e_0_energy">    -22.20093658 </i>
   </energy>
  </scstep>
  <scstep>
   <time name="dav">    4.16    4.32</time>
   <time name="total">    4.97    5.13</time>
   <energy>
    <i name="e_fr_energy">    -22.20432813 </i>
    <i name="e_wo_entrp">    -22.19552575 </i>
    <i name="e_0_energy">    -22.20139400 </i>
   </energy>
  </scstep>
  <scstep>
   <time name="dav">    4.57    4.73</time>
   <time name="total">    5.38    5.54</time>
   <energy>
    <i name="e_fr_energy">    -22.20220866 </i>
    <i name="e_wo_entrp">    -22.19195263 </i>
    <i name="e_0_energy">    -22.19878999 </i>
   </energy>
  </scstep>
  <scstep>
   <time name="dav">    4.39    4.46</time>
   <time name="total">    5.20    5.27</time>
   <energy>
    <i name="e_fr_energy">    -22.20179768 </i>
    <i name="e_wo_entrp">    -22.19082495 </i>
    <i name="e_0_energy">    -22.19814010 </i>
   </energy>
  </scstep>
  <scstep>
   <time name="dav">    4.67    4.74</time>
   <time name="total">    5.48    5.55</time>
   <energy>
    <i name="e_fr_energy">    -22.20149606 </i>
    <i name="e_wo_entrp">    -22.19008253 </i>
    <i name="e_0_energy">    -22.19769155 </i>
   </energy>
  </scstep>
  <scstep>
   <time name="dav">    4.42    4.50</time>
   <time name="total">    5.23    5.31</time>
   <energy>
    <i name="e_fr_energy">    -22.20127336 </i>
    <i name="e_wo_entrp">    -22.18953374 </i>
    <i name="e_0_energy">    -22.19736015 </i>
   </energy>
  </scstep>
  <scstep>
   <time name="dav">    4.33    4.40</time>
   <time name="total">    5.14    5.22</time>
   <energy>
    <i name="e_fr_energy">    -22.20100340 </i>
    <i name="e_wo_entrp">    -22.18893219 </i>
    <i name="e_0_energy">    -22.19697966 </i>
   </energy>
  </scstep>
  <scstep>
   <time name="dav">    4.58    4.65</time>
   <time name="total">    5.39    5.47</time>
   <energy>
    <i name="e_fr_energy">    -22.20093067 </i>
    <i name="e_wo_entrp">    -22.18870529 </i>
    <i name="e_0_energy">    -22.19685554 </i>
   </energy>
  </scstep>
  <scstep>
   <time name="dav">    4.27    4.34</time>
   <time name="total">    5.08    5.16</time>
   <energy>
    <i name="e_fr_energy">    -22.20082638 </i>
    <i name="e_wo_entrp">    -22.18846140 </i>
    <i name="e_0_energy">    -22.19670472 </i>
   </energy>
  </scstep>
  <scstep>
   <time name="dav">    4.28    4.36</time>
   <time name="total">    5.09    5.17</time>
   <energy>
    <i name="e_fr_energy">    -22.20065903 </i>
    <i name="e_wo_entrp">    -22.18814724 </i>
    <i name="e_0_energy">    -22.19648843 </i>
   </energy>
  </scstep>
  <scstep>
   <time name="dav">    4.23    4.39</time>
   <time name="total">    5.04    5.20</time>
   <energy>
    <i name="e_fr_energy">    -22.20075097 </i>
    <i name="e_wo_entrp">    -22.18823604 </i>
    <i name="e_0_energy">    -22.19657933 </i>
   </energy>
  </scstep>
  <scstep>
   <time name="dav">    4.54    4.70</time>
   <time name="total">    5.35    5.51</time>
   <energy>
    <i name="e_fr_energy">    -22.20075911 </i>
    <i name="e_wo_entrp">    -22.18824887 </i>
    <i name="e_0_energy">    -22.19658903 </i>
   </energy>
  </scstep>
  <scstep>
   <time name="dav">    4.69    4.77</time>
   <time name="total">    5.50    5.58</time>
   <energy>
    <i name="e_fr_energy">    -22.20076422 </i>
    <i name="e_wo_entrp">    -22.18825777 </i>
    <i name="e_0_energy">    -22.19659540 </i>
   </energy>
  </scstep>
  <scstep>
   <time name="dav">    3.79    3.87</time>
   <time name="total">    4.60    4.68</time>
   <energy>
    <i name="e_fr_energy">    -22.20076232 </i>
    <i name="e_wo_entrp">    -22.18825429 </i>
    <i name="e_0_energy">    -22.19659297 </i>
   </energy>
  </scstep>
  <scstep>
   <time name="dav">    3.54    3.70</time>
   <time name="total">    4.35    4.51</time>
   <energy>
    <i name="e_fr_energy">    -22.20075984 </i>
    <i name="e_wo_entrp">    -22.18824926 </i>
    <i name="e_0_energy">    -22.19658965 </i>
   </energy>
  </scstep>
  <scstep>
   <time name="dav">    4.15    4.24</time>
   <time name="total">    4.96    5.05</time>
   <energy>
    <i name="e_fr_energy">    -22.20075751 </i>
    <i name="e_wo_entrp">    -22.18824424 </i>
    <i name="e_0_energy">    -22.19658642 </i>
   </energy>
  </scstep>
  <scstep>
   <time name="dav">    4.24    4.40</time>
   <time name="total">    5.05    5.21</time>
   <energy>
    <i name="e_fr_energy">    -22.20075600 </i>
    <i name="e_wo_entrp">    -22.18824094 </i>
    <i name="e_0_energy">    -22.19658431 </i>
   </energy>
  </scstep>
  <scstep>
   <time name="dav">    3.94    4.05</time>
   <time name="total">    4.75    4.86</time>
   <energy>
    <i name="e_fr_energy">    -22.20075641 </i>
    <i name="e_wo_entrp">    -22.18824121 </i>
    <i name="e_0_energy">    -22.19658468 </i>
   </energy>
  </scstep>
  <scstep>
   <time name="dav">    2.61    2.69</time>
   <time name="total">    3.42    3.50</time>
   <energy>
    <i name="e_fr_energy">    -22.20075685 </i>
    <i name="e_wo_entrp">    -22.18824177 </i>
    <i name="e_0_energy">    -22.19658516 </i>
   </energy>
  </scstep>
  <scstep>
   <time name="dav">    2.53    2.69</time>
   <time name="total">    3.13    3.30</time>
   <energy>
    <i name="alphaZ">    218.55111503 </i>
    <i name="ewald">  -2684.51506966 </i>
    <i name="hartreedc">   -862.73523995 </i>
    <i name="XCdc">     66.37653502 </i>
    <i name="pawpsdc">   2812.14805300 </i>
    <i name="pawaedc">  -2984.45452074 </i>
    <i name="eentropy">     -0.01251511 </i>
    <i name="bandstr">    125.20052503 </i>
    <i name="atom">   3287.24036057 </i>
    <i name="e_fr_energy">    -22.20075682 </i>
    <i name="e_wo_entrp">    -22.18824171 </i>
    <i name="e_0_energy">    -22.19658512 </i>
   </energy>
  </scstep>
  <structure>
   <crystal>
    <varray name="basis" >
     <v>       3.57000000       0.00000000       0.00000000 </v>
     <v>       0.00000000       3.57000000       0.00000000 </v>
     <v>       0.00000000       0.00000000       3.57000000 </v>
    </varray>
    <i name="volume">     45.49929300 </i>
    <varray name="rec_basis" >
     <v>       0.28011204       0.00000000       0.00000000 </v>
     <v>       0.00000000       0.28011204       0.00000000 </v>
     <v>       0.00000000       0.00000000       0.28011204 </v>
    </varray>
   </crystal>
   <varray name="positions" >
    <v>       0.00000000       0.00000000       0.00000000 </v>
    <v>       0.50000000       0.00000000       0.50000000 </v>
    <v>       0.50000000       0.50000000       0.00000000 </v>
    <v>       0.00000000       0.50000000       0.50000000 </v>
   </varray>
  </structure>
  <varray name="forces" >
   <v>       0.00000000       0.00000000       0.00000000 </v>
   <v>       0.00000000       0.00000000       0.00000000 </v>
   <v>       0.00000000       0.00000000       0.00000000 </v>
   <v>       0.00000000       0.00000000       0.00000000 </v>
  </varray>
  <varray name="stress" >
   <v>      -1.32466938       0.00000000      -0.00000000 </v>
   <v>      -0.00000000      -1.32466938      -0.00000000 </v>
   <v>       0.00000000       0.00000000      -1.32466938 </v>
  </varray>
  <energy>
   <i name="e_fr_energy">    -22.20075682 </i>
   <i name="e_wo_entrp">    -22.18824171 </i>
   <i name="e_0_energy">    -22.19658512 </i>
  </energy>
  <time name="totalsc">  144.77  148.18</time>
 </calculation>
 <calculation>
  <scstep>
   <time name="dav">    3.61    3.71</time>
   <time name="total">    4.42    4.51</time>
   <energy>
    <i name="alphaZ">    218.84885781 </i>
    <i name="ewald">  -2685.73359818 </i>
    <i name="hartreedc">   -863.12684027 </i>
    <i name="XCdc">     66.44241425 </i>
    <i name="pawpsdc">   2812.14823491 </i>
    <i name="pawaedc">  -2984.45470057 </i>
    <i name="eentropy">     -0.01266819 </i>
    <i name="bandstr">    126.44579550 </i>
    <i name="atom">   3287.24036057 </i>
    <i name="e_fr_energy">    -22.20214415 </i>
    <i name="e_wo_entrp">    -22.18947596 </i>
    <i name="e_0_energy">    -22.19792142 </i>
   </energy>
  </scstep>
  <scstep>
   <time name="dav">    3.94    4.02</time>
   <time name="total">    4.75    4.83</time>
   <energy>
    <i name="e_fr_energy">    -22.20280450 </i>
    <i name="e_wo_entrp">    -22.19050253 </i>
    <i name="e_0_energy">    -22.19870384 </i>
   </energy>
  </scstep>
  <scstep>
   <time name="dav">    3.96    4.04</time>
   <time name="total">    4.77    4.85</time>
   <energy>
    <i name="e_fr_energy">    -22.20080883 </i>
    <i name="e_wo_entrp">    -22.18825937 </i>
    <i name="e_0_energy">    -22.19662567 </i>
   </energy>
  </scstep>
  <scstep>
   <time name="dav">    4.15    4.27</time>
   <time name="total">    4.96    5.08</time>
   <energy>
    <i name="e_fr_energy">    -22.20076681 </i>
    <i name="e_wo_entrp">    -22.18826039 </i>
    <i name="e_0_energy">    -22.19659800 </i>
   </energy>
  </scstep>
  <scstep>
   <time name="dav">    3.99    4.08</time>
   <time name="total">    4.80    4.89</time>
   <energy>
    <i name="e_fr_energy">    -22.20076651 </i>
    <i name="e_wo_entrp">    -22.18825789 </i>
    <i name="e_0_energy">    -22.19659697 </i>
   </energy>
  </scstep>
  <scstep>
   <time name="dav">    4.17    4.29</time>
   <time name="total">    4.98    5.10</time>
   <energy>
    <i name="e_fr_energy">    -22.20076686 </i>
    <i name="e_wo_entrp">    -22.18826060 </i>
    <i name="e_0_energy">    -22.19659811 </i>
   </energy>
  </scstep>
  <scstep>
   <time name="dav">    4.12    4.23</time>
   <time name="total">    4.93    5.05</time>
   <energy>
    <i name="e_fr_energy">    -22.20076441 </i>
    <i name="e_wo_entrp">    -22.18825824 </i>
    <i name="e_0_energy">    -22.19659568 </i>
   </energy>
  </scstep>
  <scstep>
   <time name="dav">    4.28    4.45</time>
   <time name="total">    5.09    5.26</time>
   <energy>
    <i name="e_fr_energy">    -22.20076669 </i>
    <i name="e_wo_entrp">    -22.18826250 </i>
    <i name="e_0_energy">    -22.19659863 </i>
   </energy>
  </scstep>
  <scstep>
   <time name="dav">    3.71    3.87</time>
   <time name="total">    4.51    4.68</time>
   <energy>
    <i name="e_fr_energy">    -22.20076485 </i>
    <i name="e_wo_entrp">    -22.18825867 </i>
    <i name="e_0_energy">    -22.19659612 </i>
   </energy>
  </scstep>
  <scstep>
   <time name="dav">    4.23    4.39</time>
   <time name="total">    5.04    5.20</time>
   <energy>
    <i name="e_fr_energy">    -22.20076473 </i>
    <i name="e_wo_entrp">    -22.18825959 </i>
    <i name="e_0_energy">    -22.19659635 </i>
   </energy>
  </scstep>
  <scstep>
   <time name="dav">    4.08    4.24</time>
   <time name="total">    4.89    5.06</time>
   <energy>
    <i name="e_fr_energy">    -22.20076666 </i>
    <i name="e_wo_entrp">    -22.18826216 </i>
    <i name="e_0_energy">    -22.19659849 </i>
   </energy>
  </scstep>
  <scstep>
   <time name="dav">    2.95    3.03</time>
   <time name="total">    3.77    3.84</time>
   <energy>
    <i name="e_fr_energy">    -22.20076631 </i>
    <i name="e_wo_entrp">    -22.18826147 </i>
    <i name="e_0_energy">    -22.19659803 </i>
   </energy>
  </scstep>
  <scstep>
   <time name="dav">    3.81    3.89</time>
   <time name="total">    4.62    4.70</time>
   <energy>
    <i name="e_fr_energy">    -22.20076842 </i>
    <i name="e_wo_entrp">    -22.18826604 </i>
    <i name="e_0_energy">    -22.19660096 </i>
   </energy>
  </scstep>
  <scstep>
   <time name="dav">    3.72    3.81</time>
   <time name="total">    4.53    4.62</time>
   <energy>
    <i name="e_fr_energy">    -22.20076691 </i>
    <i name="e_wo_entrp">    -22.18826310 </i>
    <i name="e_0_energy">    -22.19659898 </i>
   </energy>
  </scstep>
  <scstep>
   <time name="dav">    3.89    4.05</time>
   <time name="total">    4.70    4.87</time>
   <energy>
    <i name="e_fr_energy">    -22.20077158 </i>
    <i name="e_wo_entrp">    -22.18827308 </i>
    <i name="e_0_energy">    -22.19660541 </i>
   </energy>
  </scstep>
  <scstep>
   <time name="dav">    3.76    3.83</time>
   <time name="total">    4.57    4.64</time>
   <energy>
    <i name="e_fr_energy">    -22.20076973 </i>
    <i name="e_wo_entrp">    -22.18826941 </i>
    <i name="e_0_energy">    -22.19660295 </i>
   </energy>
  </scstep>
  <scstep>
   <time name="dav">    2.52    2.68</time>
   <time name="total">    3.33    3.49</time>
   <energy>
    <i name="e_fr_energy">    -22.20077041 </i>
    <i name="e_wo_entrp">    -22.18827064 </i>
    <i name="e_0_energy">    -22.19660382 </i>
   </energy>
  </scstep>
  <scstep>
   <time name="dav">    2.52    2.69</time>
   <time name="total">    3.13    3.30</time>
   <energy>
    <i name="alphaZ">    218.84885781 </i>
    <i name="ewald">  -2685.73359818 </i>
    <i name="hartreedc">   -862.13586911 </i>
    <i name="XCdc">     66.38999672 </i>
    <i name="pawpsdc">   2813.03585664 </i>
    <i name="pawaedc">  -2985.36567332 </i>
    <i name="eentropy">     -0.01249967 </i>
    <i name="bandstr">    125.53179808 </i>
    <i name="atom">   3287.24036057 </i>
    <i name="e_fr_energy">    -22.20077045 </i>
    <i name="e_wo_entrp">    -22.18827078 </i>
    <i name="e_0_energy">    -22.19660389 </i>
   </energy>
  </scstep>
  <structure>
   <crystal>
    <varray name="basis" >
     <v>       3.56838028       0.00000000      -0.00000000 </v>
     <v>      -0.00000000       3.56838028      -0.00000000 </v>
     <v>       0.00000000       0.00000000       3.56838028 </v>
    </varray>
    <i name="volume">     45.43739144 </i>
    <varray name="rec_basis" >
     <v>       0.28023919       0.00000000      -0.00000000 </v>
     <v>      -0.00000000       0.28023919      -0.00000000 </v>
     <v>       0.00000000       0.00000000       0.28023919 </v>
    </varray>
   </crystal>
   <varray name="positions" >
    <v>       0.00000000       0.00000000       0.00000000 </v>
    <v>       0.50000000       0.00000000       0.50000000 </v>
    <v>       0.50000000       0.50000000       0.00000000 </v>
    <v>       0.00000000       0.50000000       0.50000000 </v>
   </varray>
  </structure>
  <varray name="forces" >
   <v>       0.00000000      -0.00000000       0.00000000 </v>
   <v>       0.00000000       0.00000000       0.00000000 </v>
   <v>       0.00000000      -0.00000000       0.00000000 </v>
   <v>      -0.00000000       0.00000000       0.00000000 </v>
  </varray>
  <varray name="stress" >
   <v>       1.12476657      -0.00000000       0.00000000 </v>
   <v>      -0.00000000       1.12476657       0.00000000 </v>
   <v>      -0.00000000      -0.00000000       1.12476657 </v>
  </varray>
  <energy>
   <i name="e_fr_energy">    -22.20077045 </i>
   <i name="e_wo_entrp">    -22.18827078 </i>
   <i name="e_0_energy">    -22.19660389 </i>
  </energy>
  <time name="totalsc">   85.43   87.61</time>
 </calculation>
 <calculation>
  <scstep>
   <time name="dav">    3.55    3.71</time>
   <time name="total">    4.36    4.52</time>
   <energy>
    <i name="alphaZ">    218.75240600 </i>
    <i name="ewald">  -2685.33898501 </i>
    <i name="hartreedc">   -862.00922975 </i>
    <i name="XCdc">     66.36867280 </i>
    <i name="pawpsdc">   2813.03592667 </i>
    <i name="pawaedc">  -2985.36572029 </i>
    <i name="eentropy">     -0.01245073 </i>
    <i name="bandstr">    125.12809518 </i>
    <i name="atom">   3287.24036057 </i>
    <i name="e_fr_energy">    -22.20092454 </i>
    <i name="e_wo_entrp">    -22.18847382 </i>
    <i name="e_0_energy">    -22.19677430 </i>
   </energy>
  </scstep>
  <scstep>
   <time name="dav">    3.86    4.03</time>
   <time name="total">    4.67    4.84</time>
   <energy>
    <i name="e_fr_energy">    -22.20099796 </i>
    <i name="e_wo_entrp">    -22.18843898 </i>
    <i name="e_0_energy">    -22.19681163 </i>
   </energy>
  </scstep>
  <scstep>
   <time name="dav">    3.96    4.04</time>
   <time name="total">    4.77    4.85</time>
   <energy>
    <i name="e_fr_energy">    -22.20079389 </i>
    <i name="e_wo_entrp">    -22.18831817 </i>
    <i name="e_0_energy">    -22.19663531 </i>
   </energy>
  </scstep>
  <scstep>
   <time name="dav">    4.12    4.20</time>
   <time name="total">    4.94    5.01</time>
   <energy>
    <i name="e_fr_energy">    -22.20079965 </i>
    <i name="e_wo_entrp">    -22.18832271 </i>
    <i name="e_0_energy">    -22.19664067 </i>
   </energy>
  </scstep>
  <scstep>
   <time name="dav">    4.41    4.48</time>
   <time name="total">    5.22    5.29</time>
   <energy>
    <i name="e_fr_energy">    -22.20077561 </i>
    <i name="e_wo_entrp">    -22.18828387 </i>
    <i name="e_0_energy">    -22.19661170 </i>
   </energy>
  </scstep>
  <scstep>
   <time name="dav">    4.16    4.24</time>
   <time name="total">    4.97    5.05</time>
   <energy>
    <i name="e_fr_energy">    -22.20075764 </i>
    <i name="e_wo_entrp">    -22.18825912 </i>
    <i name="e_0_energy">    -22.19659147 </i>
   </energy>
  </scstep>
  <scstep>
   <time name="dav">    4.75    4.83</time>
   <time name="total">    5.56    5.64</time>
   <energy>
    <i name="e_fr_energy">    -22.20077802 </i>
    <i name="e_wo_entrp">    -22.18828288 </i>
    <i name="e_0_energy">    -22.19661297 </i>
   </energy>
  </scstep>
  <scstep>
   <time name="dav">    3.97    4.05</time>
   <time name="total">    4.78    4.86</time>
   <energy>
    <i name="e_fr_energy">    -22.20076352 </i>
    <i name="e_wo_entrp">    -22.18825957 </i>
    <i name="e_0_energy">    -22.19659554 </i>
   </energy>
  </scstep>
  <scstep>
   <time name="dav">    4.62    4.72</time>
   <time name="total">    5.43    5.53</time>
   <energy>
    <i name="e_fr_energy">    -22.20078632 </i>
    <i name="e_wo_entrp">    -22.18829418 </i>
    <i name="e_0_energy">    -22.19662227 </i>
   </energy>
  </scstep>
  <scstep>
   <time name="dav">    3.66    3.83</time>
   <time name="total">    4.48    4.64</time>
   <energy>
    <i name="e_fr_energy">    -22.20077606 </i>
    <i name="e_wo_entrp">    -22.18827359 </i>
    <i name="e_0_energy">    -22.19660857 </i>
   </energy>
  </scstep>
  <scstep>
   <time name="dav">    3.86    4.02</time>
   <time name="total">    4.67    4.84</time>
   <energy>
    <i name="e_fr_energy">    -22.20077683 </i>
    <i name="e_wo_entrp">    -22.18827308 </i>
    <i name="e_0_energy">    -22.19660892 </i>
   </energy>
  </scstep>
  <scstep>
   <time name="dav">    2.59    2.67</time>
   <time name="total">    3.40    3.49</time>
   <energy>
    <i name="e_fr_energy">    -22.20077633 </i>
    <i name="e_wo_entrp">    -22.18827179 </i>
    <i name="e_0_energy">    -22.19660815 </i>
   </energy>
  </scstep>
  <scstep>
   <time name="dav">    2.77    2.85</time>
   <time name="total">    3.59    3.67</time>
   <energy>
    <i name="e_fr_energy">    -22.20077544 </i>
    <i name="e_wo_entrp">    -22.18826988 </i>
    <i name="e_0_energy">    -22.19660692 </i>
   </energy>
  </scstep>
  <scstep>
   <time name="dav">    3.10    3.22</time>
   <time name="total">    3.91    4.03</time>
   <energy>
    <i name="e_fr_energy">    -22.20077424 </i>
    <i name="e_wo_entrp">    -22.18826735 </i>
    <i name="e_0_energy">    -22.19660528 </i>
   </energy>
  </scstep>
  <scstep>
   <time name="dav">    2.87    3.04</time>
   <time name="total">    3.68    3.85</time>
   <energy>
    <i name="e_fr_energy">    -22.20077406 </i>
    <i name="e_wo_entrp">    -22.18826664 </i>
    <i name="e_0_energy">    -22.19660492 </i>
   </energy>
  </scstep>
  <scstep>
   <time name="dav">    2.75    2.91</time>
   <time name="total">    3.56    3.72</time>
   <energy>
    <i name="e_fr_energy">    -22.20077345 </i>
    <i name="e_wo_entrp">    -22.18826531 </i>
    <i name="e_0_energy">    -22.19660407 </i>
   </energy>
  </scstep>
  <scstep>
   <time name="dav">    2.60    2.76</time>
   <time name="total">    3.41    3.57</time>
   <energy>
    <i name="e_fr_energy">    -22.20077308 </i>
    <i name="e_wo_entrp">    -22.18826443 </i>
    <i name="e_0_energy">    -22.19660353 </i>
   </energy>
  </scstep>
  <scstep>
   <time name="dav">    3.10    3.18</time>
   <time name="total">    3.91    3.99</time>
   <energy>
    <i name="e_fr_energy">    -22.20077265 </i>
    <i name="e_wo_entrp">    -22.18826349 </i>
    <i name="e_0_energy">    -22.19660293 </i>
   </energy>
  </scstep>
  <scstep>
   <time name="dav">    3.43    3.54</time>
   <time name="total">    4.04    4.14</time>
   <energy>
    <i name="alphaZ">    218.75240600 </i>
    <i name="ewald">  -2685.33898501 </i>
    <i name="hartreedc">   -862.32984628 </i>
    <i name="XCdc">     66.38562620 </i>
    <i name="pawpsdc">   2812.74786711 </i>
    <i name="pawaedc">  -2985.07015770 </i>
    <i name="eentropy">     -0.01250932 </i>
    <i name="bandstr">    125.42446585 </i>
    <i name="atom">   3287.24036057 </i>
    <i name="e_fr_energy">    -22.20077257 </i>
    <i name="e_wo_entrp">    -22.18826325 </i>
    <i name="e_0_energy">    -22.19660280 </i>
   </energy>
  </scstep>
  <structure>
   <crystal>
    <varray name="basis" >
     <v>       3.56890465       0.00000000      -0.00000000 </v>
     <v>      -0.00000000       3.56890465      -0.00000000 </v>
     <v>       0.00000000       0.00000000       3.56890465 </v>
    </varray>
    <i name="volume">     45.45742559 </i>
    <varray name="rec_basis" >
     <v>       0.28019802       0.00000000      -0.00000000 </v>
     <v>      -0.00000000       0.28019802      -0.00000000 </v>
     <v>       0.00000000       0.00000000       0.28019802 </v>
    </varray>
   </crystal>
   <varray name="positions" >
    <v>       0.00000000       0.00000000       0.00000000 </v>
    <v>       0.50000000       0.00000000       0.50000000 </v>
    <v>       0.50000000       0.50000000       0.00000000 </v>
    <v>       0.00000000       0.50000000       0.50000000 </v>
   </varray>
  </structure>
  <varray name="forces" >
   <v>       0.00000000      -0.00000000       0.00000000 </v>
   <v>       0.00000000       0.00000000       0.00000000 </v>
   <v>       0.00000000      -0.00000000       0.00000000 </v>
   <v>      -0.00000000       0.00000000       0.00000000 </v>
  </varray>
  <varray name="stress" >
   <v>       0.33806988       0.00000000       0.00000000 </v>
   <v>       0.00000000       0.33806988      -0.00000000 </v>
   <v>      -0.00000000       0.00000000       0.33806988 </v>
  </varray>
  <energy>
   <i name="e_fr_energy">    -22.20077257 </i>
   <i name="e_wo_entrp">    -22.18826325 </i>
   <i name="e_0_energy">    -22.19660280 </i>
  </energy>
  <time name="totalsc">   86.79   88.96</time>
  <eigenvalues>
   <array>
    <dimension dim="1">band</dimension>
    <dimension dim="2">kpoint</dimension>
    <dimension dim="3">spin</dimension>
    <field>eigene</field>
    <field>occ</field>
    <set>
     <set comment="spin 1">
      <set comment="kpoint 1">
       <r>   -3.7887    1.0000 </r>
       <r>    1.9073    1.0000 </r>
       <r>    2.6040    1.0000 </r>
       <r>    2.6040    1.0000 </r>
       <r>    3.0125    1.0000 </r>
       <r>    3.0125    1.0000 </r>
       <r>    3.0125    1.0000 </r>
       <r>    4.8689    1.0000 </r>
       <r>    4.8689    1.0000 </r>
       <r>    4.8689    1.0000 </r>
       <r>    5.6499    1.0055 </r>
       <r>    5.6499    1.0055 </r>
       <r>    5.9977    0.7925 </r>
       <r>    6.2471   -0.0067 </r>
       <r>    6.2471   -0.0067 </r>
       <r>    6.2471   -0.0067 </r>
       <r>    6.9812   -0.0000 </r>
       <r>    6.9812   -0.0000 </r>
       <r>    6.9812   -0.0000 </r>
       <r>   12.6825    0.0000 </r>
       <r>   12.6825    0.0000 </r>
       <r>   13.3395    0.0000 </r>
       <r>   18.3183    0.0000 </r>
       <r>   18.3183    0.0000 </r>
      </set>
      <set comment="kpoint 2">
       <r>   -3.7513    1.0000 </r>
       <r>    1.9194    1.0000 </r>
       <r>    2.5800    1.0000 </r>
       <r>    2.6280    1.0000 </r>
       <r>    3.0179    1.0000 </r>
       <r>    3.0179    1.0000 </r>
       <r>    3.0217    1.0000 </r>
       <r>    4.8472    1.0000 </r>
       <r>    4.8472    1.0000 </r>
       <r>    4.8590    1.0000 </r>
       <r>    5.6287    1.0037 </r>
       <r>    5.6503    1.0055 </r>
       <r>    5.9840    0.8360 </r>
       <r>    6.1266    0.2792 </r>
       <r>    6.1266    0.2792 </r>
       <r>    6.2471   -0.0067 </r>
       <r>    6.8177   -0.0000 </r>
       <r>    7.1512   -0.0000 </r>
       <r>    7.1512   -0.0000 </r>
       <r>   12.6799    0.0000 </r>
       <r>   12.8256    0.0000 </r>
       <r>   13.4583    0.0000 </r>
       <r>   18.1519    0.0000 </r>
       <r>   18.1519    0.0000 </r>
      </set>
      <set comment="kpoint 3">
       <r>   -3.6392    1.0000 </r>
       <r>    1.9480    1.0000 </r>
       <r>    2.5070    1.0000 </r>
       <r>    2.6985    1.0000 </r>
       <r>    3.0336    1.0000 </r>
       <r>    3.0336    1.0000 </r>
       <r>    3.0486    1.0000 </r>
       <r>    4.7851    1.0000 </r>
       <r>    4.7851    1.0000 </r>
       <r>    4.8299    1.0000 </r>
       <r>    5.5613    1.0009 </r>
       <r>    5.6512    1.0056 </r>
       <r>    5.9095    0.9935 </r>
       <r>    5.9095    0.9935 </r>
       <r>    5.9436    0.9385 </r>
       <r>    6.2472   -0.0068 </r>
       <r>    6.4190   -0.0171 </r>
       <r>    7.5153   -0.0000 </r>
       <r>    7.5153   -0.0000 </r>
       <r>   12.6721    0.0000 </r>
       <r>   13.0213    0.0000 </r>
       <r>   13.9644    0.0000 </r>
       <r>   17.5607    0.0000 </r>
       <r>   17.5607    0.0000 </r>
      </set>
      <set comment="kpoint 4">
       <r>   -3.4536    1.0000 </r>
       <r>    1.9508    1.0000 </r>
       <r>    2.4031    1.0000 </r>
       <r>    2.8122    1.0000 </r>
       <r>    3.0586    1.0000 </r>
       <r>    3.0586    1.0000 </r>
       <r>    3.0917    1.0000 </r>
       <r>    4.6923    1.0000 </r>
       <r>    4.6923    1.0000 </r>
       <r>    4.7836    1.0000 </r>
       <r>    5.4276    1.0000 </r>
       <r>    5.6503    1.0055 </r>
       <r>    5.7001    1.0122 </r>
       <r>    5.7001    1.0122 </r>
       <r>    5.8786    1.0215 </r>
       <r>    5.9719    0.8711 </r>
       <r>    6.2474   -0.0070 </r>
       <r>    7.9637   -0.0000 </r>
       <r>    7.9637   -0.0000 </r>
       <r>   12.6594    0.0000 </r>
       <r>   13.1316    0.0000 </r>
       <r>   14.8306    0.0000 </r>
       <r>   16.7120    0.0000 </r>
       <r>   16.7120    0.0000 </r>
      </set>
      <set comment="kpoint 5">
       <r>   -3.1965    1.0000 </r>
       <r>    1.7995    1.0000 </r>
       <r>    2.3648    1.0000 </r>
       <r>    2.9625    1.0000 </r>
       <r>    3.0908    1.0000 </r>
       <r>    3.0908    1.0000 </r>
       <r>    3.1480    1.0000 </r>
       <r>    4.5832    1.0000 </r>
       <r>    4.5832    1.0000 </r>
       <r>    4.7232    1.0000 </r>
       <r>    5.1923    1.0000 </r>
       <r>    5.5182    1.0003 </r>
       <r>    5.5182    1.0003 </r>
       <r>    5.6395    1.0046 </r>
       <r>    5.6464    1.0052 </r>
       <r>    5.7981    1.0328 </r>
       <r>    6.2476   -0.0071 </r>
       <r>    8.4686   -0.0000 </r>
       <r>    8.4686   -0.0000 </r>
       <r>   12.6422    0.0000 </r>
       <r>   13.2273    0.0000 </r>
       <r>   15.7501    0.0000 </r>
       <r>   15.8079    0.0000 </r>
       <r>   15.8079    0.0000 </r>
      </set>
      <set comment="kpoint 6">
       <r>   -2.8712    1.0000 </r>
       <r>    1.4345    1.0000 </r>
       <r>    2.4334    1.0000 </r>
       <r>    3.1271    1.0000 </r>
       <r>    3.1271    1.0000 </r>
       <r>    3.1395    1.0000 </r>
       <r>    3.2131    1.0000 </r>
       <r>    4.4733    1.0000 </r>
       <r>    4.4733    1.0000 </r>
       <r>    4.6536    1.0000 </r>
       <r>    4.9252    1.0000 </r>
       <r>    5.3651    1.0000 </r>
       <r>    5.3651    1.0000 </r>
       <r>    5.4486    1.0000 </r>
       <r>    5.5889    1.0017 </r>
       <r>    5.7350    1.0192 </r>
       <r>    6.2478   -0.0073 </r>
       <r>    9.0214   -0.0000 </r>
       <r>    9.0214   -0.0000 </r>
       <r>   12.6218    0.0000 </r>
       <r>   13.3368    0.0000 </r>
       <r>   14.9123    0.0000 </r>
       <r>   14.9123    0.0000 </r>
       <r>   15.9690    0.0000 </r>
      </set>
      <set comment="kpoint 7">
       <r>   -2.4834    1.0000 </r>
       <r>    0.9350    1.0000 </r>
       <r>    2.5407    1.0000 </r>
       <r>    3.1636    1.0000 </r>
       <r>    3.1636    1.0000 </r>
       <r>    3.2808    1.0000 </r>
       <r>    3.3285    1.0000 </r>
       <r>    4.3761    1.0000 </r>
       <r>    4.3761    1.0000 </r>
       <r>    4.5818    1.0000 </r>
       <r>    4.7293    1.0000 </r>
       <r>    5.2406    1.0000 </r>
       <r>    5.2406    1.0000 </r>
       <r>    5.2965    1.0000 </r>
       <r>    5.4801    1.0001 </r>
       <r>    5.7149    1.0150 </r>
       <r>    6.2479   -0.0075 </r>
       <r>    9.6180   -0.0000 </r>
       <r>    9.6180   -0.0000 </r>
       <r>   12.6002    0.0000 </r>
       <r>   13.4678    0.0000 </r>
       <r>   14.0445    0.0000 </r>
       <r>   14.0445    0.0000 </r>
       <r>   15.6164    0.0000 </r>
      </set>
      <set comment="kpoint 8">
       <r>   -2.0437    1.0000 </r>
       <r>    0.3743    1.0000 </r>
       <r>    2.6454    1.0000 </r>
       <r>    3.1952    1.0000 </r>
       <r>    3.1952    1.0000 </r>
       <r>    3.3420    1.0000 </r>
       <r>    3.5068    1.0000 </r>
       <r>    4.3010    1.0000 </r>
       <r>    4.3010    1.0000 </r>
       <r>    4.5172    1.0000 </r>
       <r>    4.6156    1.0000 </r>
       <r>    5.1469    1.0000 </r>
       <r>    5.1469    1.0000 </r>
       <r>    5.1702    1.0000 </r>
       <r>    5.3543    1.0000 </r>
       <r>    5.7117    1.0143 </r>
       <r>    6.2481   -0.0076 </r>
       <r>   10.2562   -0.0000 </r>
       <r>   10.2562   -0.0000 </r>
       <r>   12.5805    0.0000 </r>
       <r>   13.2112    0.0000 </r>
       <r>   13.2112    0.0000 </r>
       <r>   13.6177    0.0000 </r>
       <r>   15.2304    0.0000 </r>
      </set>
      <set comment="kpoint 9">
       <r>   -1.5844    1.0000 </r>
       <r>   -0.1734    1.0000 </r>
       <r>    2.7212    1.0000 </r>
       <r>    3.2170    1.0000 </r>
       <r>    3.2170    1.0000 </r>
       <r>    3.3860    1.0000 </r>
       <r>    3.6413    1.0000 </r>
       <r>    4.2540    1.0000 </r>
       <r>    4.2540    1.0000 </r>
       <r>    4.4710    1.0000 </r>
       <r>    4.5621    1.0000 </r>
       <r>    5.0812    1.0000 </r>
       <r>    5.0880    1.0000 </r>
       <r>    5.0880    1.0000 </r>
       <r>    5.2518    1.0000 </r>
       <r>    5.7119    1.0144 </r>
       <r>    6.2482   -0.0077 </r>
       <r>   10.9341   -0.0000 </r>
       <r>   10.9341   -0.0000 </r>
       <r>   12.4159    0.0000 </r>
       <r>   12.4159    0.0000 </r>
       <r>   12.5666    0.0000 </r>
       <r>   13.7634    0.0000 </r>
       <r>   14.9280    0.0000 </r>
      </set>
      <set comment="kpoint 10">
       <r>   -1.2982    1.0000 </r>
       <r>   -0.4917    1.0000 </r>
       <r>    2.7489    1.0000 </r>
       <r>    3.2247    1.0000 </r>
       <r>    3.2247    1.0000 </r>
       <r>    3.4021    1.0000 </r>
       <r>    3.6929    1.0000 </r>
       <r>    4.2381    1.0000 </r>
       <r>    4.2381    1.0000 </r>
       <r>    4.4541    1.0000 </r>
       <r>    4.5473    1.0000 </r>
       <r>    5.0484    1.0000 </r>
       <r>    5.0678    1.0000 </r>
       <r>    5.0678    1.0000 </r>
       <r>    5.2112    1.0000 </r>
       <r>    5.7122    1.0144 </r>
       <r>    6.2482   -0.0078 </r>
       <r>   11.5954    0.0000 </r>
       <r>   11.5954    0.0000 </r>
       <r>   11.7155    0.0000 </r>
       <r>   11.7155    0.0000 </r>
       <r>   12.5615    0.0000 </r>
       <r>   13.8337    0.0000 </r>
       <r>   14.8036    0.0000 </r>
      </set>
      <set comment="kpoint 11">
       <r>   -3.7139    1.0000 </r>
       <r>    1.9319    1.0000 </r>
       <r>    2.5800    1.0000 </r>
       <r>    2.6277    1.0000 </r>
       <r>    3.0137    1.0000 </r>
       <r>    3.0229    1.0000 </r>
       <r>    3.0405    1.0000 </r>
       <r>    4.7961    1.0000 </r>
       <r>    4.8261    1.0000 </r>
       <r>    4.8797    1.0000 </r>
       <r>    5.6178    1.0030 </r>
       <r>    5.6402    1.0046 </r>
       <r>    5.9635    0.8930 </r>
       <r>    6.0088    0.7539 </r>
       <r>    6.0517    0.5864 </r>
       <r>    6.2306    0.0120 </r>
       <r>    6.8951   -0.0000 </r>
       <r>    7.0799   -0.0000 </r>
       <r>    7.2907   -0.0000 </r>
       <r>   12.7444    0.0000 </r>
       <r>   12.9323    0.0000 </r>
       <r>   13.5510    0.0000 </r>
       <r>   17.6966    0.0000 </r>
       <r>   18.0649    0.0000 </r>
      </set>
      <set comment="kpoint 12">
       <r>   -3.6019    1.0000 </r>
       <r>    1.9618    1.0000 </r>
       <r>    2.5164    1.0000 </r>
       <r>    2.6883    1.0000 </r>
       <r>    3.0217    1.0000 </r>
       <r>    3.0376    1.0000 </r>
       <r>    3.0756    1.0000 </r>
       <r>    4.7124    1.0000 </r>
       <r>    4.7664    1.0000 </r>
       <r>    4.8763    1.0000 </r>
       <r>    5.5491    1.0007 </r>
       <r>    5.6367    1.0043 </r>
       <r>    5.7714    1.0275 </r>
       <r>    5.8734    1.0245 </r>
       <r>    5.9353    0.9544 </r>
       <r>    6.2216    0.0248 </r>
       <r>    6.5675   -0.0013 </r>
       <r>    7.3736   -0.0000 </r>
       <r>    7.6205   -0.0000 </r>
       <r>   12.7605    0.0000 </r>
       <r>   13.1700    0.0000 </r>
       <r>   14.0027    0.0000 </r>
       <r>   16.9639    0.0000 </r>
       <r>   17.5833    0.0000 </r>
      </set>
      <set comment="kpoint 13">
       <r>   -3.4167    1.0000 </r>
       <r>    1.9681    1.0000 </r>
       <r>    2.4121    1.0000 </r>
       <r>    2.7992    1.0000 </r>
       <r>    3.0417    1.0000 </r>
       <r>    3.0615    1.0000 </r>
       <r>    3.1241    1.0000 </r>
       <r>    4.6089    1.0000 </r>
       <r>    4.6780    1.0000 </r>
       <r>    4.8467    1.0000 </r>
       <r>    5.3827    1.0000 </r>
       <r>    5.5720    1.0012 </r>
       <r>    5.6399    1.0046 </r>
       <r>    5.6798    1.0090 </r>
       <r>    5.8686    1.0269 </r>
       <r>    6.1450    0.2137 </r>
       <r>    6.2194    0.0283 </r>
       <r>    7.7986   -0.0000 </r>
       <r>    8.0484   -0.0000 </r>
       <r>   12.7566    0.0000 </r>
       <r>   13.3005    0.0000 </r>
       <r>   14.8546    0.0000 </r>
       <r>   16.1282    0.0000 </r>
       <r>   16.7516    0.0000 </r>
      </set>
      <set comment="kpoint 14">
       <r>   -3.1601    1.0000 </r>
       <r>    1.8214    1.0000 </r>
       <r>    2.3721    1.0000 </r>
       <r>    2.9445    1.0000 </r>
       <r>    3.0715    1.0000 </r>
       <r>    3.0952    1.0000 </r>
       <r>    3.1833    1.0000 </r>
       <r>    4.4980    1.0000 </r>
       <r>    4.5748    1.0000 </r>
       <r>    4.7942    1.0000 </r>
       <r>    5.1214    1.0000 </r>
       <r>    5.4276    1.0000 </r>
       <r>    5.5038    1.0002 </r>
       <r>    5.6281    1.0037 </r>
       <r>    5.7697    1.0271 </r>
       <r>    5.8286    1.0355 </r>
       <r>    6.2189    0.0290 </r>
       <r>    8.2775   -0.0000 </r>
       <r>    8.5405   -0.0000 </r>
       <r>   12.7438    0.0000 </r>
       <r>   13.4065    0.0000 </r>
       <r>   15.2459    0.0000 </r>
       <r>   15.8479    0.0000 </r>
       <r>   15.8480    0.0000 </r>
      </set>
      <set comment="kpoint 15">
       <r>   -2.8355    1.0000 </r>
       <r>    1.4589    1.0000 </r>
       <r>    2.4415    1.0000 </r>
       <r>    3.0838    1.0000 </r>
       <r>    3.1083    1.0000 </r>
       <r>    3.1655    1.0000 </r>
       <r>    3.2481    1.0000 </r>
       <r>    4.3942    1.0000 </r>
       <r>    4.4683    1.0000 </r>
       <r>    4.7231    1.0000 </r>
       <r>    4.8729    1.0000 </r>
       <r>    5.2893    1.0000 </r>
       <r>    5.3541    1.0000 </r>
       <r>    5.5487    1.0007 </r>
       <r>    5.6081    1.0025 </r>
       <r>    5.7282    1.0177 </r>
       <r>    6.2190    0.0289 </r>
       <r>    8.7983   -0.0000 </r>
       <r>    9.0845   -0.0000 </r>
       <r>   12.7166    0.0000 </r>
       <r>   13.5248    0.0000 </r>
       <r>   14.4437    0.0000 </r>
       <r>   14.9523    0.0000 </r>
       <r>   16.2118    0.0000 </r>
      </set>
      <set comment="kpoint 16">
       <r>   -2.4484    1.0000 </r>
       <r>    0.9618    1.0000 </r>
       <r>    2.5504    1.0000 </r>
       <r>    3.1377    1.0000 </r>
       <r>    3.1477    1.0000 </r>
       <r>    3.3112    1.0000 </r>
       <r>    3.3330    1.0000 </r>
       <r>    4.3110    1.0000 </r>
       <r>    4.3660    1.0000 </r>
       <r>    4.6390    1.0000 </r>
       <r>    4.7054    1.0000 </r>
       <r>    5.1588    1.0000 </r>
       <r>    5.2344    1.0000 </r>
       <r>    5.3954    1.0000 </r>
       <r>    5.4933    1.0002 </r>
       <r>    5.7041    1.0129 </r>
       <r>    6.2192    0.0285 </r>
       <r>    9.3553   -0.0000 </r>
       <r>    9.6746   -0.0000 </r>
       <r>   12.6470    0.0000 </r>
       <r>   13.6114    0.0000 </r>
       <r>   13.7616    0.0000 </r>
       <r>   14.0851    0.0000 </r>
       <r>   15.8826    0.0000 </r>
      </set>
      <set comment="kpoint 17">
       <r>   -2.0099    1.0000 </r>
       <r>    0.4034    1.0000 </r>
       <r>    2.6573    1.0000 </r>
       <r>    3.1664    1.0000 </r>
       <r>    3.1845    1.0000 </r>
       <r>    3.3634    1.0000 </r>
       <r>    3.5110    1.0000 </r>
       <r>    4.2591    1.0000 </r>
       <r>    4.2780    1.0000 </r>
       <r>    4.5516    1.0000 </r>
       <r>    4.6202    1.0000 </r>
       <r>    5.0474    1.0000 </r>
       <r>    5.1474    1.0000 </r>
       <r>    5.2755    1.0000 </r>
       <r>    5.3675    1.0000 </r>
       <r>    5.7005    1.0123 </r>
       <r>    6.2195    0.0281 </r>
       <r>    9.9440   -0.0000 </r>
       <r>   10.3078   -0.0000 </r>
       <r>   12.4102    0.0000 </r>
       <r>   13.1554    0.0000 </r>
       <r>   13.2531    0.0000 </r>
       <r>   13.8521    0.0000 </r>
       <r>   15.4841    0.0000 </r>
      </set>
      <set comment="kpoint 18">
       <r>   -1.5523    1.0000 </r>
       <r>   -0.1417    1.0000 </r>
       <r>    2.7357    1.0000 </r>
       <r>    3.1830    1.0000 </r>
       <r>    3.2115    1.0000 </r>
       <r>    3.3968    1.0000 </r>
       <r>    3.6501    1.0000 </r>
       <r>    4.2172    1.0000 </r>
       <r>    4.2405    1.0000 </r>
       <r>    4.4781    1.0000 </r>
       <r>    4.5874    1.0000 </r>
       <r>    4.9687    1.0000 </r>
       <r>    5.0945    1.0000 </r>
       <r>    5.2032    1.0000 </r>
       <r>    5.2613    1.0000 </r>
       <r>    5.7009    1.0123 </r>
       <r>    6.2197    0.0278 </r>
       <r>   10.5558   -0.0000 </r>
       <r>   10.9815   -0.0000 </r>
       <r>   11.8811    0.0000 </r>
       <r>   12.4602    0.0000 </r>
       <r>   12.9671    0.0000 </r>
       <r>   14.0155    0.0000 </r>
       <r>   15.1627    0.0000 </r>
      </set>
      <set comment="kpoint 19">
       <r>   -1.2680    1.0000 </r>
       <r>   -0.4579    1.0000 </r>
       <r>    2.7647    1.0000 </r>
       <r>    3.1883    1.0000 </r>
       <r>    3.2216    1.0000 </r>
       <r>    3.4079    1.0000 </r>
       <r>    3.7050    1.0000 </r>
       <r>    4.1945    1.0000 </r>
       <r>    4.2396    1.0000 </r>
       <r>    4.4468    1.0000 </r>
       <r>    4.5802    1.0000 </r>
       <r>    4.9395    1.0000 </r>
       <r>    5.0768    1.0000 </r>
       <r>    5.1845    1.0000 </r>
       <r>    5.2132    1.0000 </r>
       <r>    5.7012    1.0124 </r>
       <r>    6.2197    0.0277 </r>
       <r>   11.0602   -0.0000 </r>
       <r>   11.3770   -0.0000 </r>
       <r>   11.6289    0.0000 </r>
       <r>   11.7730    0.0000 </r>
       <r>   12.9313    0.0000 </r>
       <r>   14.0979    0.0000 </r>
       <r>   15.0262    0.0000 </r>
      </set>
      <set comment="kpoint 20">
       <r>   -3.4906    1.0000 </r>
       <r>    1.9967    1.0000 </r>
       <r>    2.5056    1.0000 </r>
       <r>    2.6928    1.0000 </r>
       <r>    3.0185    1.0000 </r>
       <r>    3.0498    1.0000 </r>
       <r>    3.1229    1.0000 </r>
       <r>    4.6018    1.0000 </r>
       <r>    4.7144    1.0000 </r>
       <r>    4.9111    1.0000 </r>
       <r>    5.4380    1.0000 </r>
       <r>    5.6013    1.0022 </r>
       <r>    5.6120    1.0027 </r>
       <r>    5.7668    1.0264 </r>
       <r>    5.8974    1.0066 </r>
       <r>    6.1817    0.1051 </r>
       <r>    6.6943   -0.0000 </r>
       <r>    7.1865   -0.0000 </r>
       <r>    7.8961   -0.0000 </r>
       <r>   12.8219    0.0000 </r>
       <r>   13.6260    0.0000 </r>
       <r>   14.2167    0.0000 </r>
       <r>   16.1074    0.0000 </r>
       <r>   17.5362    0.0000 </r>
      </set>
      <set comment="kpoint 21">
       <r>   -3.3064    1.0000 </r>
       <r>    2.0159    1.0000 </r>
       <r>    2.4212    1.0000 </r>
       <r>    2.7717    1.0000 </r>
       <r>    3.0288    1.0000 </r>
       <r>    3.0713    1.0000 </r>
       <r>    3.1828    1.0000 </r>
       <r>    4.4802    1.0000 </r>
       <r>    4.6402    1.0000 </r>
       <r>    4.9166    1.0000 </r>
       <r>    5.1919    1.0000 </r>
       <r>    5.5007    1.0002 </r>
       <r>    5.6037    1.0023 </r>
       <r>    5.6159    1.0029 </r>
       <r>    5.8332    1.0353 </r>
       <r>    6.1582    0.1708 </r>
       <r>    6.3913   -0.0233 </r>
       <r>    7.4371   -0.0000 </r>
       <r>    8.2821   -0.0000 </r>
       <r>   12.8332    0.0000 </r>
       <r>   13.8979    0.0000 </r>
       <r>   14.9384    0.0000 </r>
       <r>   15.2380    0.0000 </r>
       <r>   16.8668    0.0000 </r>
      </set>
      <set comment="kpoint 22">
       <r>   -3.0512    1.0000 </r>
       <r>    1.8852    1.0000 </r>
       <r>    2.3810    1.0000 </r>
       <r>    2.8965    1.0000 </r>
       <r>    3.0512    1.0000 </r>
       <r>    3.1081    1.0000 </r>
       <r>    3.2513    1.0000 </r>
       <r>    4.3610    1.0000 </r>
       <r>    4.5547    1.0000 </r>
       <r>    4.8907    1.0000 </r>
       <r>    4.9373    1.0000 </r>
       <r>    5.3831    1.0000 </r>
       <r>    5.4581    1.0001 </r>
       <r>    5.5950    1.0019 </r>
       <r>    5.7467    1.0218 </r>
       <r>    6.0463    0.6088 </r>
       <r>    6.1473    0.2057 </r>
       <r>    7.8417   -0.0000 </r>
       <r>    8.7443   -0.0000 </r>
       <r>   12.8087    0.0000 </r>
       <r>   14.0143    0.0000 </r>
       <r>   14.4403    0.0000 </r>
       <r>   15.9121    0.0000 </r>
       <r>   15.9664    0.0000 </r>
      </set>
      <set comment="kpoint 23">
       <r>   -2.7286    1.0000 </r>
       <r>    1.5305    1.0000 </r>
       <r>    2.4556    1.0000 </r>
       <r>    3.0116    1.0000 </r>
       <r>    3.0836    1.0000 </r>
       <r>    3.1891    1.0000 </r>
       <r>    3.3207    1.0000 </r>
       <r>    4.2595    1.0000 </r>
       <r>    4.4542    1.0000 </r>
       <r>    4.7411    1.0000 </r>
       <r>    4.8300    1.0000 </r>
       <r>    5.2458    1.0000 </r>
       <r>    5.3194    1.0000 </r>
       <r>    5.5440    1.0006 </r>
       <r>    5.6699    1.0077 </r>
       <r>    5.7984    1.0328 </r>
       <r>    6.1424    0.2223 </r>
       <r>    8.2939   -0.0000 </r>
       <r>    9.2661   -0.0000 </r>
       <r>   12.6820    0.0000 </r>
       <r>   13.6936    0.0000 </r>
       <r>   14.2345    0.0000 </r>
       <r>   15.0702    0.0000 </r>
       <r>   16.4573    0.0000 </r>
      </set>
      <set comment="kpoint 24">
       <r>   -2.3442    1.0000 </r>
       <r>    1.0406    1.0000 </r>
       <r>    2.5708    1.0000 </r>
       <r>    3.0674    1.0000 </r>
       <r>    3.1228    1.0000 </r>
       <r>    3.3425    1.0000 </r>
       <r>    3.3796    1.0000 </r>
       <r>    4.1924    1.0000 </r>
       <r>    4.3313    1.0000 </r>
       <r>    4.6471    1.0000 </r>
       <r>    4.7338    1.0000 </r>
       <r>    5.1037    1.0000 </r>
       <r>    5.2157    1.0000 </r>
       <r>    5.4272    1.0000 </r>
       <r>    5.5923    1.0018 </r>
       <r>    5.6786    1.0089 </r>
       <r>    6.1403    0.2298 </r>
       <r>    8.7790   -0.0000 </r>
       <r>    9.8392   -0.0000 </r>
       <r>   12.2913    0.0000 </r>
       <r>   13.3549    0.0000 </r>
       <r>   14.2049    0.0000 </r>
       <r>   14.3888    0.0000 </r>
       <r>   16.2147    0.0000 </r>
      </set>
      <set comment="kpoint 25">
       <r>   -1.9092    1.0000 </r>
       <r>    0.4898    1.0000 </r>
       <r>    2.6861    1.0000 </r>
       <r>    3.0867    1.0000 </r>
       <r>    3.1639    1.0000 </r>
       <r>    3.4152    1.0000 </r>
       <r>    3.5194    1.0000 </r>
       <r>    4.1753    1.0000 </r>
       <r>    4.2172    1.0000 </r>
       <r>    4.6133    1.0000 </r>
       <r>    4.6260    1.0000 </r>
       <r>    4.9743    1.0000 </r>
       <r>    5.1490    1.0000 </r>
       <r>    5.3130    1.0000 </r>
       <r>    5.4599    1.0001 </r>
       <r>    5.6680    1.0075 </r>
       <r>    6.1394    0.2329 </r>
       <r>    9.2919   -0.0000 </r>
       <r>   10.4586   -0.0000 </r>
       <r>   11.6974    0.0000 </r>
       <r>   13.2621    0.0000 </r>
       <r>   13.3773    0.0000 </r>
       <r>   14.5796    0.0000 </r>
       <r>   15.8490    0.0000 </r>
      </set>
      <set comment="kpoint 26">
       <r>   -1.4566    1.0000 </r>
       <r>   -0.0477    1.0000 </r>
       <r>    2.7752    1.0000 </r>
       <r>    3.0876    1.0000 </r>
       <r>    3.1982    1.0000 </r>
       <r>    3.4254    1.0000 </r>
       <r>    3.6693    1.0000 </r>
       <r>    4.1337    1.0000 </r>
       <r>    4.2082    1.0000 </r>
       <r>    4.4930    1.0000 </r>
       <r>    4.6357    1.0000 </r>
       <r>    4.8768    1.0000 </r>
       <r>    5.1127    1.0000 </r>
       <r>    5.2395    1.0000 </r>
       <r>    5.3539    1.0000 </r>
       <r>    5.6682    1.0075 </r>
       <r>    6.1390    0.2341 </r>
       <r>    9.8255   -0.0000 </r>
       <r>   11.0803   -0.0000 </r>
       <r>   11.1198   -0.0000 </r>
       <r>   12.5915    0.0000 </r>
       <r>   13.2459    0.0000 </r>
       <r>   14.7801    0.0000 </r>
       <r>   15.5358    0.0000 </r>
      </set>
      <set comment="kpoint 27">
       <r>   -1.1778    1.0000 </r>
       <r>   -0.3574    1.0000 </r>
       <r>    2.8103    1.0000 </r>
       <r>    3.0842    1.0000 </r>
       <r>    3.2125    1.0000 </r>
       <r>    3.4249    1.0000 </r>
       <r>    3.7343    1.0000 </r>
       <r>    4.0981    1.0000 </r>
       <r>    4.2443    1.0000 </r>
       <r>    4.4278    1.0000 </r>
       <r>    4.6451    1.0000 </r>
       <r>    4.8378    1.0000 </r>
       <r>    5.1011    1.0000 </r>
       <r>    5.2172    1.0000 </r>
       <r>    5.3101    1.0000 </r>
       <r>    5.6687    1.0075 </r>
       <r>    6.1389    0.2344 </r>
       <r>   10.2419   -0.0000 </r>
       <r>   10.6325   -0.0000 </r>
       <r>   11.7293    0.0000 </r>
       <r>   11.9406    0.0000 </r>
       <r>   13.2449    0.0000 </r>
       <r>   14.8982    0.0000 </r>
       <r>   15.3807    0.0000 </r>
      </set>
      <set comment="kpoint 28">
       <r>   -3.1238    1.0000 </r>
       <r>    2.0694    1.0000 </r>
       <r>    2.3741    1.0000 </r>
       <r>    2.7786    1.0000 </r>
       <r>    3.0296    1.0000 </r>
       <r>    3.0915    1.0000 </r>
       <r>    3.2552    1.0000 </r>
       <r>    4.3454    1.0000 </r>
       <r>    4.5911    1.0000 </r>
       <r>    4.9458    1.0000 </r>
       <r>    4.9604    1.0000 </r>
       <r>    5.4531    1.0001 </r>
       <r>    5.5087    1.0002 </r>
       <r>    5.5668    1.0010 </r>
       <r>    5.7726    1.0277 </r>
       <r>    6.1012    0.3787 </r>
       <r>    6.4706   -0.0082 </r>
       <r>    7.2191   -0.0000 </r>
       <r>    8.6273   -0.0000 </r>
       <r>   12.8235    0.0000 </r>
       <r>   14.3742    0.0000 </r>
       <r>   14.6478    0.0000 </r>
       <r>   15.2122    0.0000 </r>
       <r>   16.9749    0.0000 </r>
      </set>
      <set comment="kpoint 29">
       <r>   -2.8712    1.0000 </r>
       <r>    1.9852    1.0000 </r>
       <r>    2.3377    1.0000 </r>
       <r>    2.8496    1.0000 </r>
       <r>    3.0437    1.0000 </r>
       <r>    3.1317    1.0000 </r>
       <r>    3.3356    1.0000 </r>
       <r>    4.2190    1.0000 </r>
       <r>    4.5358    1.0000 </r>
       <r>    4.7175    1.0000 </r>
       <r>    4.9701    1.0000 </r>
       <r>    5.3609    1.0000 </r>
       <r>    5.3763    1.0000 </r>
       <r>    5.5480    1.0007 </r>
       <r>    5.6899    1.0105 </r>
       <r>    6.0633    0.5377 </r>
       <r>    6.2365    0.0047 </r>
       <r>    7.4028   -0.0000 </r>
       <r>    9.0553   -0.0000 </r>
       <r>   12.6636    0.0000 </r>
       <r>   13.6967    0.0000 </r>
       <r>   14.9812    0.0000 </r>
       <r>   16.0193    0.0000 </r>
       <r>   16.1572    0.0000 </r>
      </set>
      <set comment="kpoint 30">
       <r>   -2.5520    1.0000 </r>
       <r>    1.6445    1.0000 </r>
       <r>    2.4307    1.0000 </r>
       <r>    2.9338    1.0000 </r>
       <r>    3.0696    1.0000 </r>
       <r>    3.2141    1.0000 </r>
       <r>    3.4133    1.0000 </r>
       <r>    4.1178    1.0000 </r>
       <r>    4.4182    1.0000 </r>
       <r>    4.6021    1.0000 </r>
       <r>    4.9284    1.0000 </r>
       <r>    5.2329    1.0000 </r>
       <r>    5.2565    1.0000 </r>
       <r>    5.5066    1.0002 </r>
       <r>    5.6173    1.0030 </r>
       <r>    5.9675    0.8828 </r>
       <r>    6.0412    0.6294 </r>
       <r>    7.7506   -0.0000 </r>
       <r>    9.5491   -0.0000 </r>
       <r>   12.1767    0.0000 </r>
       <r>   13.4070    0.0000 </r>
       <r>   15.1675    0.0000 </r>
       <r>   15.2597    0.0000 </r>
       <r>   16.6404    0.0000 </r>
      </set>
      <set comment="kpoint 31">
       <r>   -2.1720    1.0000 </r>
       <r>    1.1674    1.0000 </r>
       <r>    2.5607    1.0000 </r>
       <r>    2.9822    1.0000 </r>
       <r>    3.1049    1.0000 </r>
       <r>    3.3540    1.0000 </r>
       <r>    3.4687    1.0000 </r>
       <r>    4.0661    1.0000 </r>
       <r>    4.2607    1.0000 </r>
       <r>    4.5975    1.0000 </r>
       <r>    4.8189    1.0000 </r>
       <r>    5.0884    1.0000 </r>
       <r>    5.1848    1.0000 </r>
       <r>    5.4035    1.0000 </r>
       <r>    5.5981    1.0020 </r>
       <r>    5.7597    1.0248 </r>
       <r>    6.0289    0.6785 </r>
       <r>    8.1544   -0.0000 </r>
       <r>   10.0990   -0.0000 </r>
       <r>   11.5099   -0.0000 </r>
       <r>   13.3665    0.0000 </r>
       <r>   14.3981    0.0000 </r>
       <r>   15.3468    0.0000 </r>
       <r>   16.4952    0.0000 </r>
      </set>
      <set comment="kpoint 32">
       <r>   -1.7430    1.0000 </r>
       <r>    0.6299    1.0000 </r>
       <r>    2.6914    1.0000 </r>
       <r>    2.9904    1.0000 </r>
       <r>    3.1453    1.0000 </r>
       <r>    3.4824    1.0000 </r>
       <r>    3.5250    1.0000 </r>
       <r>    4.0870    1.0000 </r>
       <r>    4.1343    1.0000 </r>
       <r>    4.6275    1.0000 </r>
       <r>    4.6657    1.0000 </r>
       <r>    4.9470    1.0000 </r>
       <r>    5.1526    1.0000 </r>
       <r>    5.2996    1.0000 </r>
       <r>    5.5699    1.0011 </r>
       <r>    5.6288    1.0037 </r>
       <r>    6.0223    0.7042 </r>
       <r>    8.5958   -0.0000 </r>
       <r>   10.6983   -0.0000 </r>
       <r>   10.8421   -0.0000 </r>
       <r>   13.3938    0.0000 </r>
       <r>   13.5782    0.0000 </r>
       <r>   15.5120    0.0000 </r>
       <r>   16.2078    0.0000 </r>
      </set>
      <set comment="kpoint 33">
       <r>   -1.2991    1.0000 </r>
       <r>    0.1057    1.0000 </r>
       <r>    2.8065    1.0000 </r>
       <r>    2.9643    1.0000 </r>
       <r>    3.1819    1.0000 </r>
       <r>    3.4647    1.0000 </r>
       <r>    3.6853    1.0000 </r>
       <r>    4.0378    1.0000 </r>
       <r>    4.1721    1.0000 </r>
       <r>    4.5060    1.0000 </r>
       <r>    4.6706    1.0000 </r>
       <r>    4.8283    1.0000 </r>
       <r>    5.1384    1.0000 </r>
       <r>    5.2350    1.0000 </r>
       <r>    5.4718    1.0001 </r>
       <r>    5.6153    1.0029 </r>
       <r>    6.0190    0.7166 </r>
       <r>    9.0686   -0.0000 </r>
       <r>   10.2248   -0.0000 </r>
       <r>   11.3396   -0.0000 </r>
       <r>   12.8053    0.0000 </r>
       <r>   13.4290    0.0000 </r>
       <r>   15.6193    0.0000 </r>
       <r>   16.0230    0.0000 </r>
      </set>
      <set comment="kpoint 34">
       <r>   -1.0295    1.0000 </r>
       <r>   -0.1930    1.0000 </r>
       <r>    2.8809    1.0000 </r>
       <r>    2.9206    1.0000 </r>
       <r>    3.1981    1.0000 </r>
       <r>    3.4519    1.0000 </r>
       <r>    3.7677    1.0000 </r>
       <r>    3.9853    1.0000 </r>
       <r>    4.2521    1.0000 </r>
       <r>    4.4030    1.0000 </r>
       <r>    4.7086    1.0000 </r>
       <r>    4.7621    1.0000 </r>
       <r>    5.1342    1.0000 </r>
       <r>    5.2165    1.0000 </r>
       <r>    5.4277    1.0000 </r>
       <r>    5.6153    1.0029 </r>
       <r>    6.0180    0.7202 </r>
       <r>    9.4554   -0.0000 </r>
       <r>    9.7888   -0.0000 </r>
       <r>   11.8961    0.0000 </r>
       <r>   12.2051    0.0000 </r>
       <r>   13.4441    0.0000 </r>
       <r>   15.6442    0.0000 </r>
       <r>   15.9754    0.0000 </r>
      </set>
      <set comment="kpoint 35">
       <r>   -2.6222    1.0000 </r>
       <r>    2.0855    1.0000 </r>
       <r>    2.1811    1.0000 </r>
       <r>    2.8585    1.0000 </r>
       <r>    3.0497    1.0000 </r>
       <r>    3.1740    1.0000 </r>
       <r>    3.4302    1.0000 </r>
       <r>    4.0860    1.0000 </r>
       <r>    4.4993    1.0000 </r>
       <r>    4.5340    1.0000 </r>
       <r>    5.0229    1.0000 </r>
       <r>    5.2619    1.0000 </r>
       <r>    5.3135    1.0000 </r>
       <r>    5.5065    1.0002 </r>
       <r>    5.6092    1.0025 </r>
       <r>    5.9914    0.8129 </r>
       <r>    6.2629   -0.0196 </r>
       <r>    7.2039   -0.0000 </r>
       <r>    9.4510   -0.0000 </r>
       <r>   12.1318    0.0000 </r>
       <r>   13.4202    0.0000 </r>
       <r>   15.8923    0.0000 </r>
       <r>   16.2392    0.0000 </r>
       <r>   16.3541    0.0000 </r>
      </set>
      <set comment="kpoint 36">
       <r>   -2.3079    1.0000 </r>
       <r>    1.7923    1.0000 </r>
       <r>    2.2761    1.0000 </r>
       <r>    2.9109    1.0000 </r>
       <r>    3.0683    1.0000 </r>
       <r>    3.2499    1.0000 </r>
       <r>    3.5215    1.0000 </r>
       <r>    3.9811    1.0000 </r>
       <r>    4.3107    1.0000 </r>
       <r>    4.5510    1.0000 </r>
       <r>    5.0104    1.0000 </r>
       <r>    5.1614    1.0000 </r>
       <r>    5.2184    1.0000 </r>
       <r>    5.4618    1.0001 </r>
       <r>    5.5334    1.0005 </r>
       <r>    5.9402    0.9453 </r>
       <r>    6.0854    0.4445 </r>
       <r>    7.3332   -0.0000 </r>
       <r>    9.9158   -0.0000 </r>
       <r>   11.4030   -0.0000 </r>
       <r>   13.4064    0.0000 </r>
       <r>   15.5045    0.0000 </r>
       <r>   16.1892    0.0000 </r>
       <r>   16.7277    0.0000 </r>
      </set>
      <set comment="kpoint 37">
       <r>   -1.9346    1.0000 </r>
       <r>    1.3341    1.0000 </r>
       <r>    2.4249    1.0000 </r>
       <r>    2.9568    1.0000 </r>
       <r>    3.0971    1.0000 </r>
       <r>    3.3710    1.0000 </r>
       <r>    3.5731    1.0000 </r>
       <r>    3.9449    1.0000 </r>
       <r>    4.1594    1.0000 </r>
       <r>    4.5895    1.0000 </r>
       <r>    4.8730    1.0000 </r>
       <r>    5.0895    1.0000 </r>
       <r>    5.1498    1.0000 </r>
       <r>    5.3613    1.0000 </r>
       <r>    5.5204    1.0003 </r>
       <r>    5.8763    1.0229 </r>
       <r>    5.9070    0.9964 </r>
       <r>    7.6197   -0.0000 </r>
       <r>   10.4396   -0.0000 </r>
       <r>   10.6782   -0.0000 </r>
       <r>   13.4672    0.0000 </r>
       <r>   14.6530    0.0000 </r>
       <r>   16.2370    0.0000 </r>
       <r>   16.9463    0.0000 </r>
      </set>
      <set comment="kpoint 38">
       <r>   -1.5144    1.0000 </r>
       <r>    0.8170    1.0000 </r>
       <r>    2.5605    1.0000 </r>
       <r>    2.9760    1.0000 </r>
       <r>    3.1323    1.0000 </r>
       <r>    3.5258    1.0000 </r>
       <r>    3.5539    1.0000 </r>
       <r>    4.0127    1.0000 </r>
       <r>    4.0454    1.0000 </r>
       <r>    4.6373    1.0000 </r>
       <r>    4.6936    1.0000 </r>
       <r>    4.9514    1.0000 </r>
       <r>    5.1599    1.0000 </r>
       <r>    5.2663    1.0000 </r>
       <r>    5.5255    1.0004 </r>
       <r>    5.7050    1.0131 </r>
       <r>    5.8870    1.0157 </r>
       <r>    7.9761   -0.0000 </r>
       <r>   10.0096   -0.0000 </r>
       <r>   11.0147   -0.0000 </r>
       <r>   13.5471    0.0000 </r>
       <r>   13.8461    0.0000 </r>
       <r>   16.1059    0.0000 </r>
       <r>   16.9962    0.0000 </r>
      </set>
      <set comment="kpoint 39">
       <r>   -1.0829    1.0000 </r>
       <r>    0.3130    1.0000 </r>
       <r>    2.6617    1.0000 </r>
       <r>    2.9726    1.0000 </r>
       <r>    3.1652    1.0000 </r>
       <r>    3.5085    1.0000 </r>
       <r>    3.6854    1.0000 </r>
       <r>    3.9506    1.0000 </r>
       <r>    4.1448    1.0000 </r>
       <r>    4.5112    1.0000 </r>
       <r>    4.6834    1.0000 </r>
       <r>    4.8306    1.0000 </r>
       <r>    5.1671    1.0000 </r>
       <r>    5.2137    1.0000 </r>
       <r>    5.5307    1.0004 </r>
       <r>    5.5842    1.0015 </r>
       <r>    5.8764    1.0228 </r>
       <r>    8.3831   -0.0000 </r>
       <r>    9.4131   -0.0000 </r>
       <r>   11.6299    0.0000 </r>
       <r>   13.0930    0.0000 </r>
       <r>   13.6146    0.0000 </r>
       <r>   15.9372    0.0000 </r>
       <r>   17.1022    0.0000 </r>
      </set>
      <set comment="kpoint 40">
       <r>   -0.8260    1.0000 </r>
       <r>    0.0295    1.0000 </r>
       <r>    2.7017    1.0000 </r>
       <r>    2.9659    1.0000 </r>
       <r>    3.1799    1.0000 </r>
       <r>    3.4870    1.0000 </r>
       <r>    3.7943    1.0000 </r>
       <r>    3.8728    1.0000 </r>
       <r>    4.2629    1.0000 </r>
       <r>    4.3784    1.0000 </r>
       <r>    4.7220    1.0000 </r>
       <r>    4.7607    1.0000 </r>
       <r>    5.1694    1.0000 </r>
       <r>    5.2014    1.0000 </r>
       <r>    5.5291    1.0004 </r>
       <r>    5.5408    1.0006 </r>
       <r>    5.8731    1.0247 </r>
       <r>    8.7526   -0.0000 </r>
       <r>    8.9800   -0.0000 </r>
       <r>   12.1285    0.0000 </r>
       <r>   12.5486    0.0000 </r>
       <r>   13.6416    0.0000 </r>
       <r>   15.8678    0.0000 </r>
       <r>   17.1536    0.0000 </r>
      </set>
      <set comment="kpoint 41">
       <r>   -2.0005    1.0000 </r>
       <r>    1.9377    1.0000 </r>
       <r>    1.9832    1.0000 </r>
       <r>    2.9504    1.0000 </r>
       <r>    3.0787    1.0000 </r>
       <r>    3.3089    1.0000 </r>
       <r>    3.6369    1.0000 </r>
       <r>    3.8627    1.0000 </r>
       <r>    4.1722    1.0000 </r>
       <r>    4.5723    1.0000 </r>
       <r>    5.0160    1.0000 </r>
       <r>    5.0919    1.0000 </r>
       <r>    5.1731    1.0000 </r>
       <r>    5.4233    1.0000 </r>
       <r>    5.4319    1.0000 </r>
       <r>    5.8559    1.0317 </r>
       <r>    6.0692    0.5130 </r>
       <r>    7.1702   -0.0000 </r>
       <r>   10.3524   -0.0000 </r>
       <r>   10.6206   -0.0000 </r>
       <r>   13.4901    0.0000 </r>
       <r>   15.6348    0.0000 </r>
       <r>   16.0267    0.0000 </r>
       <r>   16.7525    0.0000 </r>
      </set>
      <set comment="kpoint 42">
       <r>   -1.6362    1.0000 </r>
       <r>    1.5274    1.0000 </r>
       <r>    2.1352    1.0000 </r>
       <r>    3.0001    1.0000 </r>
       <r>    3.0990    1.0000 </r>
       <r>    3.4030    1.0000 </r>
       <r>    3.6833    1.0000 </r>
       <r>    3.8428    1.0000 </r>
       <r>    4.0542    1.0000 </r>
       <r>    4.6194    1.0000 </r>
       <r>    4.8630    1.0000 </r>
       <r>    5.0833    1.0000 </r>
       <r>    5.1372    1.0000 </r>
       <r>    5.3082    1.0000 </r>
       <r>    5.4221    1.0000 </r>
       <r>    5.7938    1.0320 </r>
       <r>    5.9302    0.9634 </r>
       <r>    7.2625   -0.0000 </r>
       <r>    9.8965   -0.0000 </r>
       <r>   10.8491   -0.0000 </r>
       <r>   13.6048    0.0000 </r>
       <r>   14.9405    0.0000 </r>
       <r>   16.2315    0.0000 </r>
       <r>   16.6615    0.0000 </r>
      </set>
      <set comment="kpoint 43">
       <r>   -1.2281    1.0000 </r>
       <r>    1.0400    1.0000 </r>
       <r>    2.2865    1.0000 </r>
       <r>    3.0312    1.0000 </r>
       <r>    3.1251    1.0000 </r>
       <r>    3.5295    1.0000 </r>
       <r>    3.6126    1.0000 </r>
       <r>    3.9640    1.0000 </r>
       <r>    3.9739    1.0000 </r>
       <r>    4.6692    1.0000 </r>
       <r>    4.6871    1.0000 </r>
       <r>    4.9652    1.0000 </r>
       <r>    5.1730    1.0000 </r>
       <r>    5.2146    1.0000 </r>
       <r>    5.4279    1.0000 </r>
       <r>    5.7523    1.0231 </r>
       <r>    5.7731    1.0278 </r>
       <r>    7.4976   -0.0000 </r>
       <r>    9.2519   -0.0000 </r>
       <r>   11.3973   -0.0000 </r>
       <r>   13.7253    0.0000 </r>
       <r>   14.1643    0.0000 </r>
       <r>   16.4072    0.0000 </r>
       <r>   16.5711    0.0000 </r>
      </set>
      <set comment="kpoint 44">
       <r>   -0.8133    1.0000 </r>
       <r>    0.5642    1.0000 </r>
       <r>    2.3926    1.0000 </r>
       <r>    3.0428    1.0000 </r>
       <r>    3.1494    1.0000 </r>
       <r>    3.5507    1.0000 </r>
       <r>    3.6672    1.0000 </r>
       <r>    3.8864    1.0000 </r>
       <r>    4.1358    1.0000 </r>
       <r>    4.5051    1.0000 </r>
       <r>    4.7053    1.0000 </r>
       <r>    4.8542    1.0000 </r>
       <r>    5.1706    1.0000 </r>
       <r>    5.1947    1.0000 </r>
       <r>    5.4368    1.0000 </r>
       <r>    5.6533    1.0058 </r>
       <r>    5.7286    1.0178 </r>
       <r>    7.8165   -0.0000 </r>
       <r>    8.6945   -0.0000 </r>
       <r>   11.9818    0.0000 </r>
       <r>   13.4400    0.0000 </r>
       <r>   13.8223    0.0000 </r>
       <r>   16.1869    0.0000 </r>
       <r>   16.8599    0.0000 </r>
      </set>
      <set comment="kpoint 45">
       <r>   -0.5723    1.0000 </r>
       <r>    0.3006    1.0000 </r>
       <r>    2.4311    1.0000 </r>
       <r>    3.0446    1.0000 </r>
       <r>    3.1599    1.0000 </r>
       <r>    3.5271    1.0000 </r>
       <r>    3.7756    1.0000 </r>
       <r>    3.8074    1.0000 </r>
       <r>    4.2764    1.0000 </r>
       <r>    4.3577    1.0000 </r>
       <r>    4.7240    1.0000 </r>
       <r>    4.8004    1.0000 </r>
       <r>    5.1632    1.0000 </r>
       <r>    5.2019    1.0000 </r>
       <r>    5.4415    1.0000 </r>
       <r>    5.6055    1.0024 </r>
       <r>    5.7209    1.0161 </r>
       <r>    8.1567   -0.0000 </r>
       <r>    8.2753   -0.0000 </r>
       <r>   12.4256    0.0000 </r>
       <r>   12.9495    0.0000 </r>
       <r>   13.8607    0.0000 </r>
       <r>   16.1023    0.0000 </r>
       <r>   16.9812    0.0000 </r>
      </set>
      <set comment="kpoint 46">
       <r>   -1.2840    1.0000 </r>
       <r>    1.6804    1.0000 </r>
       <r>    1.7919    1.0000 </r>
       <r>    3.0510    1.0000 </r>
       <r>    3.1086    1.0000 </r>
       <r>    3.4632    1.0000 </r>
       <r>    3.7025    1.0000 </r>
       <r>    3.8603    1.0000 </r>
       <r>    3.9656    1.0000 </r>
       <r>    4.6709    1.0000 </r>
       <r>    4.7758    1.0000 </r>
       <r>    5.0462    1.0000 </r>
       <r>    5.1595    1.0000 </r>
       <r>    5.2372    1.0000 </r>
       <r>    5.3393    1.0000 </r>
       <r>    5.7013    1.0124 </r>
       <r>    5.8880    1.0149 </r>
       <r>    7.1352   -0.0000 </r>
       <r>    9.1972   -0.0000 </r>
       <r>   11.3180   -0.0000 </r>
       <r>   13.7623    0.0000 </r>
       <r>   15.0555    0.0000 </r>
       <r>   15.6542    0.0000 </r>
       <r>   16.7938    0.0000 </r>
      </set>
      <set comment="kpoint 47">
       <r>   -0.8919    1.0000 </r>
       <r>    1.2799    1.0000 </r>
       <r>    1.9309    1.0000 </r>
       <r>    3.0774    1.0000 </r>
       <r>    3.1225    1.0000 </r>
       <r>    3.5541    1.0000 </r>
       <r>    3.6355    1.0000 </r>
       <r>    3.8989    1.0000 </r>
       <r>    3.9964    1.0000 </r>
       <r>    4.6410    1.0000 </r>
       <r>    4.7227    1.0000 </r>
       <r>    4.9692    1.0000 </r>
       <r>    5.1489    1.0000 </r>
       <r>    5.1926    1.0000 </r>
       <r>    5.3132    1.0000 </r>
       <r>    5.6337    1.0041 </r>
       <r>    5.7844    1.0303 </r>
       <r>    7.2053   -0.0000 </r>
       <r>    8.5959   -0.0000 </r>
       <r>   11.8374    0.0000 </r>
       <r>   13.9204    0.0000 </r>
       <r>   14.4929    0.0000 </r>
       <r>   15.8130    0.0000 </r>
       <r>   16.6595    0.0000 </r>
      </set>
      <set comment="kpoint 48">
       <r>   -0.4985    1.0000 </r>
       <r>    0.8428    1.0000 </r>
       <r>    2.0657    1.0000 </r>
       <r>    3.0813    1.0000 </r>
       <r>    3.1353    1.0000 </r>
       <r>    3.5856    1.0000 </r>
       <r>    3.6557    1.0000 </r>
       <r>    3.8451    1.0000 </r>
       <r>    4.1513    1.0000 </r>
       <r>    4.4844    1.0000 </r>
       <r>    4.7539    1.0000 </r>
       <r>    4.8766    1.0000 </r>
       <r>    5.1060    1.0000 </r>
       <r>    5.2187    1.0000 </r>
       <r>    5.3113    1.0000 </r>
       <r>    5.5919    1.0018 </r>
       <r>    5.6881    1.0102 </r>
       <r>    7.4049   -0.0000 </r>
       <r>    8.0991   -0.0000 </r>
       <r>   12.3885    0.0000 </r>
       <r>   13.8223    0.0000 </r>
       <r>   14.0462    0.0000 </r>
       <r>   16.0885    0.0000 </r>
       <r>   16.4567    0.0000 </r>
      </set>
      <set comment="kpoint 49">
       <r>   -0.2759    1.0000 </r>
       <r>    0.6033    1.0000 </r>
       <r>    2.1163    1.0000 </r>
       <r>    3.0795    1.0000 </r>
       <r>    3.1406    1.0000 </r>
       <r>    3.5676    1.0000 </r>
       <r>    3.7184    1.0000 </r>
       <r>    3.8067    1.0000 </r>
       <r>    4.2920    1.0000 </r>
       <r>    4.3423    1.0000 </r>
       <r>    4.7656    1.0000 </r>
       <r>    4.8297    1.0000 </r>
       <r>    5.1008    1.0000 </r>
       <r>    5.2286    1.0000 </r>
       <r>    5.3125    1.0000 </r>
       <r>    5.5775    1.0013 </r>
       <r>    5.6487    1.0054 </r>
       <r>    7.6840   -0.0000 </r>
       <r>    7.7234   -0.0000 </r>
       <r>   12.7860    0.0000 </r>
       <r>   13.3814    0.0000 </r>
       <r>   14.0960    0.0000 </r>
       <r>   16.2106    0.0000 </r>
       <r>   16.3707    0.0000 </r>
      </set>
      <set comment="kpoint 50">
       <r>   -0.5206    1.0000 </r>
       <r>    1.4572    1.0000 </r>
       <r>    1.5823    1.0000 </r>
       <r>    3.0802    1.0000 </r>
       <r>    3.1228    1.0000 </r>
       <r>    3.6117    1.0000 </r>
       <r>    3.6259    1.0000 </r>
       <r>    3.8521    1.0000 </r>
       <r>    4.0782    1.0000 </r>
       <r>    4.5575    1.0000 </r>
       <r>    4.7823    1.0000 </r>
       <r>    4.9458    1.0000 </r>
       <r>    5.0764    1.0000 </r>
       <r>    5.2164    1.0000 </r>
       <r>    5.2169    1.0000 </r>
       <r>    5.5413    1.0006 </r>
       <r>    5.7412    1.0205 </r>
       <r>    7.1071   -0.0000 </r>
       <r>    8.0579   -0.0000 </r>
       <r>   12.3261    0.0000 </r>
       <r>   14.1126    0.0000 </r>
       <r>   14.6289    0.0000 </r>
       <r>   15.3097    0.0000 </r>
       <r>   16.8039    0.0000 </r>
      </set>
      <set comment="kpoint 51">
       <r>   -0.1532    1.0000 </r>
       <r>    1.1184    1.0000 </r>
       <r>    1.7052    1.0000 </r>
       <r>    3.0523    1.0000 </r>
       <r>    3.1240    1.0000 </r>
       <r>    3.6098    1.0000 </r>
       <r>    3.6832    1.0000 </r>
       <r>    3.8182    1.0000 </r>
       <r>    4.1924    1.0000 </r>
       <r>    4.4464    1.0000 </r>
       <r>    4.8204    1.0000 </r>
       <r>    4.8895    1.0000 </r>
       <r>    5.0292    1.0000 </r>
       <r>    5.1752    1.0000 </r>
       <r>    5.2383    1.0000 </r>
       <r>    5.4807    1.0001 </r>
       <r>    5.6821    1.0094 </r>
       <r>    7.1666   -0.0000 </r>
       <r>    7.6434   -0.0000 </r>
       <r>   12.8435    0.0000 </r>
       <r>   14.1902    0.0000 </r>
       <r>   14.2643    0.0000 </r>
       <r>   15.3924    0.0000 </r>
       <r>   16.7455    0.0000 </r>
      </set>
      <set comment="kpoint 52">
       <r>    0.0495    1.0000 </r>
       <r>    0.9070    1.0000 </r>
       <r>    1.7729    1.0000 </r>
       <r>    3.0350    1.0000 </r>
       <r>    3.1246    1.0000 </r>
       <r>    3.6030    1.0000 </r>
       <r>    3.7232    1.0000 </r>
       <r>    3.7980    1.0000 </r>
       <r>    4.3078    1.0000 </r>
       <r>    4.3323    1.0000 </r>
       <r>    4.8326    1.0000 </r>
       <r>    4.8510    1.0000 </r>
       <r>    5.0233    1.0000 </r>
       <r>    5.1664    1.0000 </r>
       <r>    5.2481    1.0000 </r>
       <r>    5.4586    1.0001 </r>
       <r>    5.6549    1.0060 </r>
       <r>    7.3464   -0.0000 </r>
       <r>    7.3503   -0.0000 </r>
       <r>   13.2082    0.0000 </r>
       <r>   13.8032    0.0000 </r>
       <r>   14.3243    0.0000 </r>
       <r>   15.4956    0.0000 </r>
       <r>   16.6840    0.0000 </r>
      </set>
      <set comment="kpoint 53">
       <r>    0.1853    1.0000 </r>
       <r>    1.3077    1.0000 </r>
       <r>    1.3857    1.0000 </r>
       <r>    2.9804    1.0000 </r>
       <r>    3.1166    1.0000 </r>
       <r>    3.6232    1.0000 </r>
       <r>    3.7342    1.0000 </r>
       <r>    3.7999    1.0000 </r>
       <r>    4.2532    1.0000 </r>
       <r>    4.3912    1.0000 </r>
       <r>    4.8781    1.0000 </r>
       <r>    4.8815    1.0000 </r>
       <r>    4.9662    1.0000 </r>
       <r>    5.0787    1.0000 </r>
       <r>    5.2532    1.0000 </r>
       <r>    5.4063    1.0000 </r>
       <r>    5.6525    1.0057 </r>
       <r>    7.0894   -0.0000 </r>
       <r>    7.3294   -0.0000 </r>
       <r>   13.3313    0.0000 </r>
       <r>   14.3668    0.0000 </r>
       <r>   14.4351    0.0000 </r>
       <r>   14.8912    0.0000 </r>
       <r>   16.9835    0.0000 </r>
      </set>
      <set comment="kpoint 54">
       <r>    0.3704    1.0000 </r>
       <r>    1.1543    1.0000 </r>
       <r>    1.4386    1.0000 </r>
       <r>    2.9409    1.0000 </r>
       <r>    3.1140    1.0000 </r>
       <r>    3.6274    1.0000 </r>
       <r>    3.7636    1.0000 </r>
       <r>    3.7892    1.0000 </r>
       <r>    4.3202    1.0000 </r>
       <r>    4.3268    1.0000 </r>
       <r>    4.8627    1.0000 </r>
       <r>    4.8982    1.0000 </r>
       <r>    4.9511    1.0000 </r>
       <r>    5.0502    1.0000 </r>
       <r>    5.2598    1.0000 </r>
       <r>    5.3791    1.0000 </r>
       <r>    5.6353    1.0042 </r>
       <r>    7.1466   -0.0000 </r>
       <r>    7.1480   -0.0000 </r>
       <r>   13.6906    0.0000 </r>
       <r>   14.1412    0.0000 </r>
       <r>   14.5021    0.0000 </r>
       <r>   14.8377    0.0000 </r>
       <r>   17.0444    0.0000 </r>
      </set>
      <set comment="kpoint 55">
       <r>    0.5485    1.0000 </r>
       <r>    1.2554    1.0000 </r>
       <r>    1.2554    1.0000 </r>
       <r>    2.8898    1.0000 </r>
       <r>    3.1103    1.0000 </r>
       <r>    3.6361    1.0000 </r>
       <r>    3.7855    1.0000 </r>
       <r>    3.7855    1.0000 </r>
       <r>    4.3251    1.0000 </r>
       <r>    4.3251    1.0000 </r>
       <r>    4.8594    1.0000 </r>
       <r>    4.9269    1.0000 </r>
       <r>    4.9269    1.0000 </r>
       <r>    5.0065    1.0000 </r>
       <r>    5.2638    1.0000 </r>
       <r>    5.3510    1.0000 </r>
       <r>    5.6216    1.0032 </r>
       <r>    7.0835   -0.0000 </r>
       <r>    7.0835   -0.0000 </r>
       <r>   14.1915    0.0000 </r>
       <r>   14.2784    0.0000 </r>
       <r>   14.2784    0.0000 </r>
       <r>   14.5717    0.0000 </r>
       <r>   17.3552    0.0000 </r>
      </set>
      <set comment="kpoint 56">
       <r>   -3.6765    1.0000 </r>
       <r>    1.9446    1.0000 </r>
       <r>    2.6038    1.0000 </r>
       <r>    2.6038    1.0000 </r>
       <r>    3.0048    1.0000 </r>
       <r>    3.0458    1.0000 </r>
       <r>    3.0458    1.0000 </r>
       <r>    4.7371    1.0000 </r>
       <r>    4.8573    1.0000 </r>
       <r>    4.8573    1.0000 </r>
       <r>    5.6183    1.0030 </r>
       <r>    5.6183    1.0030 </r>
       <r>    5.9396    0.9464 </r>
       <r>    5.9396    0.9464 </r>
       <r>    5.9532    0.9178 </r>
       <r>    6.2189    0.0291 </r>
       <r>    6.9691   -0.0000 </r>
       <r>    7.2053   -0.0000 </r>
       <r>    7.2053   -0.0000 </r>
       <r>   12.9321    0.0000 </r>
       <r>   12.9321    0.0000 </r>
       <r>   13.6321    0.0000 </r>
       <r>   17.5134    0.0000 </r>
       <r>   17.9849    0.0000 </r>
      </set>
      <set comment="kpoint 57">
       <r>   -3.5648    1.0000 </r>
       <r>    1.9756    1.0000 </r>
       <r>    2.5307    1.0000 </r>
       <r>    2.6738    1.0000 </r>
       <r>    3.0054    1.0000 </r>
       <r>    3.0616    1.0000 </r>
       <r>    3.0863    1.0000 </r>
       <r>    4.6434    1.0000 </r>
       <r>    4.7935    1.0000 </r>
       <r>    4.8719    1.0000 </r>
       <r>    5.5397    1.0005 </r>
       <r>    5.6184    1.0030 </r>
       <r>    5.7217    1.0163 </r>
       <r>    5.7864    1.0307 </r>
       <r>    5.9167    0.9841 </r>
       <r>    6.2066    0.0504 </r>
       <r>    6.6856   -0.0001 </r>
       <r>    7.4390   -0.0000 </r>
       <r>    7.5085   -0.0000 </r>
       <r>   12.9310    0.0000 </r>
       <r>   13.2395    0.0000 </r>
       <r>   14.0427    0.0000 </r>
       <r>   16.8770    0.0000 </r>
       <r>   17.1835    0.0000 </r>
      </set>
      <set comment="kpoint 58">
       <r>   -3.3798    1.0000 </r>
       <r>    1.9850    1.0000 </r>
       <r>    2.4235    1.0000 </r>
       <r>    2.7858    1.0000 </r>
       <r>    3.0178    1.0000 </r>
       <r>    3.0875    1.0000 </r>
       <r>    3.1391    1.0000 </r>
       <r>    4.5367    1.0000 </r>
       <r>    4.6982    1.0000 </r>
       <r>    4.8604    1.0000 </r>
       <r>    5.3427    1.0000 </r>
       <r>    5.5473    1.0007 </r>
       <r>    5.5880    1.0016 </r>
       <r>    5.6463    1.0051 </r>
       <r>    5.8577    1.0311 </r>
       <r>    6.2003    0.0628 </r>
       <r>    6.2636   -0.0200 </r>
       <r>    7.8517   -0.0000 </r>
       <r>    7.9059   -0.0000 </r>
       <r>   12.9268    0.0000 </r>
       <r>   13.4006    0.0000 </r>
       <r>   14.8783    0.0000 </r>
       <r>   16.0727    0.0000 </r>
       <r>   16.2944    0.0000 </r>
      </set>
      <set comment="kpoint 59">
       <r>   -3.1238    1.0000 </r>
       <r>    1.8428    1.0000 </r>
       <r>    2.3807    1.0000 </r>
       <r>    2.9306    1.0000 </r>
       <r>    3.0402    1.0000 </r>
       <r>    3.1246    1.0000 </r>
       <r>    3.2011    1.0000 </r>
       <r>    4.4302    1.0000 </r>
       <r>    4.5859    1.0000 </r>
       <r>    4.8253    1.0000 </r>
       <r>    5.0679    1.0000 </r>
       <r>    5.4138    1.0000 </r>
       <r>    5.4466    1.0000 </r>
       <r>    5.6245    1.0034 </r>
       <r>    5.7810    1.0296 </r>
       <r>    5.9112    0.9913 </r>
       <r>    6.1969    0.0697 </r>
       <r>    8.3274   -0.0000 </r>
       <r>    8.3623   -0.0000 </r>
       <r>   12.9134    0.0000 </r>
       <r>   13.5222    0.0000 </r>
       <r>   15.1814    0.0000 </r>
       <r>   15.4258    0.0000 </r>
       <r>   15.9157    0.0000 </r>
      </set>
      <set comment="kpoint 60">
       <r>   -2.7998    1.0000 </r>
       <r>    1.4829    1.0000 </r>
       <r>    2.4500    1.0000 </r>
       <r>    3.0692    1.0000 </r>
       <r>    3.0783    1.0000 </r>
       <r>    3.1902    1.0000 </r>
       <r>    3.2667    1.0000 </r>
       <r>    4.3357    1.0000 </r>
       <r>    4.4711    1.0000 </r>
       <r>    4.7628    1.0000 </r>
       <r>    4.8287    1.0000 </r>
       <r>    5.2758    1.0000 </r>
       <r>    5.3126    1.0000 </r>
       <r>    5.5849    1.0015 </r>
       <r>    5.6573    1.0062 </r>
       <r>    5.7142    1.0148 </r>
       <r>    6.1952    0.0735 </r>
       <r>    8.8501   -0.0000 </r>
       <r>    8.8628   -0.0000 </r>
       <r>   12.8739    0.0000 </r>
       <r>   13.6563    0.0000 </r>
       <r>   14.3635    0.0000 </r>
       <r>   14.6238    0.0000 </r>
       <r>   16.4599    0.0000 </r>
      </set>
      <set comment="kpoint 61">
       <r>   -2.4137    1.0000 </r>
       <r>    0.9882    1.0000 </r>
       <r>    2.5600    1.0000 </r>
       <r>    3.1000    1.0000 </r>
       <r>    3.1564    1.0000 </r>
       <r>    3.3279    1.0000 </r>
       <r>    3.3388    1.0000 </r>
       <r>    4.2625    1.0000 </r>
       <r>    4.3654    1.0000 </r>
       <r>    4.6284    1.0000 </r>
       <r>    4.7248    1.0000 </r>
       <r>    5.1403    1.0000 </r>
       <r>    5.2039    1.0000 </r>
       <r>    5.4749    1.0001 </r>
       <r>    5.4859    1.0001 </r>
       <r>    5.6915    1.0108 </r>
       <r>    6.1943    0.0753 </r>
       <r>    9.3983   -0.0000 </r>
       <r>    9.4139   -0.0000 </r>
       <r>   12.7553    0.0000 </r>
       <r>   13.5553    0.0000 </r>
       <r>   13.8161    0.0000 </r>
       <r>   13.9515    0.0000 </r>
       <r>   16.1863    0.0000 </r>
      </set>
      <set comment="kpoint 62">
       <r>   -1.9763    1.0000 </r>
       <r>    0.4324    1.0000 </r>
       <r>    2.6689    1.0000 </r>
       <r>    3.1262    1.0000 </r>
       <r>    3.1948    1.0000 </r>
       <r>    3.3758    1.0000 </r>
       <r>    3.5154    1.0000 </r>
       <r>    4.2194    1.0000 </r>
       <r>    4.2756    1.0000 </r>
       <r>    4.5232    1.0000 </r>
       <r>    4.6642    1.0000 </r>
       <r>    5.0225    1.0000 </r>
       <r>    5.1270    1.0000 </r>
       <r>    5.3443    1.0000 </r>
       <r>    5.3640    1.0000 </r>
       <r>    5.6885    1.0103 </r>
       <r>    6.1940    0.0761 </r>
       <r>    9.9595   -0.0000 </r>
       <r>   10.0158   -0.0000 </r>
       <r>   12.4383    0.0000 </r>
       <r>   12.7788    0.0000 </r>
       <r>   13.5327    0.0000 </r>
       <r>   13.9984    0.0000 </r>
       <r>   15.7706    0.0000 </r>
      </set>
      <set comment="kpoint 63">
       <r>   -1.5204    1.0000 </r>
       <r>   -0.1103    1.0000 </r>
       <r>    2.7500    1.0000 </r>
       <r>    3.1419    1.0000 </r>
       <r>    3.2178    1.0000 </r>
       <r>    3.4046    1.0000 </r>
       <r>    3.6591    1.0000 </r>
       <r>    4.2079    1.0000 </r>
       <r>    4.2084    1.0000 </r>
       <r>    4.4591    1.0000 </r>
       <r>    4.6267    1.0000 </r>
       <r>    4.9384    1.0000 </r>
       <r>    5.0875    1.0000 </r>
       <r>    5.2588    1.0000 </r>
       <r>    5.2633    1.0000 </r>
       <r>    5.6891    1.0104 </r>
       <r>    6.1938    0.0765 </r>
       <r>   10.5230   -0.0000 </r>
       <r>   10.6538   -0.0000 </r>
       <r>   11.9310    0.0000 </r>
       <r>   12.0360    0.0000 </r>
       <r>   13.3761    0.0000 </r>
       <r>   14.1783    0.0000 </r>
       <r>   15.4271    0.0000 </r>
      </set>
      <set comment="kpoint 64">
       <r>   -1.2379    1.0000 </r>
       <r>   -0.4242    1.0000 </r>
       <r>    2.7805    1.0000 </r>
       <r>    3.1466    1.0000 </r>
       <r>    3.2257    1.0000 </r>
       <r>    3.4140    1.0000 </r>
       <r>    3.7180    1.0000 </r>
       <r>    4.1794    1.0000 </r>
       <r>    4.2109    1.0000 </r>
       <r>    4.4338    1.0000 </r>
       <r>    4.6157    1.0000 </r>
       <r>    4.9066    1.0000 </r>
       <r>    5.0792    1.0000 </r>
       <r>    5.2132    1.0000 </r>
       <r>    5.2356    1.0000 </r>
       <r>    5.6896    1.0105 </r>
       <r>    6.1938    0.0765 </r>
       <r>   10.8954   -0.0000 </r>
       <r>   11.3098   -0.0000 </r>
       <r>   11.3451   -0.0000 </r>
       <r>   11.5608    0.0000 </r>
       <r>   13.3413    0.0000 </r>
       <r>   14.2677    0.0000 </r>
       <r>   15.2806    0.0000 </r>
      </set>
      <set comment="kpoint 65">
       <r>   -3.4537    1.0000 </r>
       <r>    2.0106    1.0000 </r>
       <r>    2.5293    1.0000 </r>
       <r>    2.6705    1.0000 </r>
       <r>    2.9954    1.0000 </r>
       <r>    3.0847    1.0000 </r>
       <r>    3.1277    1.0000 </r>
       <r>    4.5347    1.0000 </r>
       <r>    4.7594    1.0000 </r>
       <r>    4.8841    1.0000 </r>
       <r>    5.4344    1.0000 </r>
       <r>    5.5803    1.0014 </r>
       <r>    5.5952    1.0019 </r>
       <r>    5.6834    1.0095 </r>
       <r>    5.8653    1.0284 </r>
       <r>    6.1805    0.1080 </r>
       <r>    6.7951   -0.0000 </r>
       <r>    7.2635   -0.0000 </r>
       <r>    7.7401   -0.0000 </r>
       <r>   13.0680    0.0000 </r>
       <r>   13.6301    0.0000 </r>
       <r>   14.2571    0.0000 </r>
       <r>   16.1378    0.0000 </r>
       <r>   17.0739    0.0000 </r>
      </set>
      <set comment="kpoint 66">
       <r>   -3.2698    1.0000 </r>
       <r>    2.0313    1.0000 </r>
       <r>    2.4398    1.0000 </r>
       <r>    2.7557    1.0000 </r>
       <r>    2.9982    1.0000 </r>
       <r>    3.1106    1.0000 </r>
       <r>    3.1883    1.0000 </r>
       <r>    4.4190    1.0000 </r>
       <r>    4.6758    1.0000 </r>
       <r>    4.8892    1.0000 </r>
       <r>    5.1929    1.0000 </r>
       <r>    5.4945    1.0002 </r>
       <r>    5.5224    1.0004 </r>
       <r>    5.6066    1.0024 </r>
       <r>    5.8046    1.0338 </r>
       <r>    6.1589    0.1686 </r>
       <r>    6.4805   -0.0070 </r>
       <r>    7.5007   -0.0000 </r>
       <r>    8.1031   -0.0000 </r>
       <r>   13.0901    0.0000 </r>
       <r>   13.9185    0.0000 </r>
       <r>   14.9607    0.0000 </r>
       <r>   15.2783    0.0000 </r>
       <r>   16.3296    0.0000 </r>
      </set>
      <set comment="kpoint 67">
       <r>   -3.0152    1.0000 </r>
       <r>    1.9051    1.0000 </r>
       <r>    2.3935    1.0000 </r>
       <r>    2.8873    1.0000 </r>
       <r>    3.0139    1.0000 </r>
       <r>    3.1484    1.0000 </r>
       <r>    3.2571    1.0000 </r>
       <r>    4.3107    1.0000 </r>
       <r>    4.5726    1.0000 </r>
       <r>    4.8567    1.0000 </r>
       <r>    4.9515    1.0000 </r>
       <r>    5.3744    1.0000 </r>
       <r>    5.4006    1.0000 </r>
       <r>    5.5926    1.0018 </r>
       <r>    5.7319    1.0185 </r>
       <r>    6.1103    0.3422 </r>
       <r>    6.1461    0.2099 </r>
       <r>    7.8967   -0.0000 </r>
       <r>    8.5367   -0.0000 </r>
       <r>   13.0632    0.0000 </r>
       <r>   14.0570    0.0000 </r>
       <r>   14.4676    0.0000 </r>
       <r>   15.4503    0.0000 </r>
       <r>   15.9843    0.0000 </r>
      </set>
      <set comment="kpoint 68">
       <r>   -2.6932    1.0000 </r>
       <r>    1.5534    1.0000 </r>
       <r>    2.4653    1.0000 </r>
       <r>    3.0032    1.0000 </r>
       <r>    3.0588    1.0000 </r>
       <r>    3.2153    1.0000 </r>
       <r>    3.3259    1.0000 </r>
       <r>    4.2223    1.0000 </r>
       <r>    4.4580    1.0000 </r>
       <r>    4.7076    1.0000 </r>
       <r>    4.8499    1.0000 </r>
       <r>    5.2451    1.0000 </r>
       <r>    5.2765    1.0000 </r>
       <r>    5.5570    1.0008 </r>
       <r>    5.6660    1.0072 </r>
       <r>    5.8289    1.0354 </r>
       <r>    6.1337    0.2532 </r>
       <r>    8.3418   -0.0000 </r>
       <r>    9.0231   -0.0000 </r>
       <r>   12.8938    0.0000 </r>
       <r>   13.7919    0.0000 </r>
       <r>   14.2017    0.0000 </r>
       <r>   14.7003    0.0000 </r>
       <r>   16.7015    0.0000 </r>
      </set>
      <set comment="kpoint 69">
       <r>   -2.3097    1.0000 </r>
       <r>    1.0662    1.0000 </r>
       <r>    2.5795    1.0000 </r>
       <r>    3.0393    1.0000 </r>
       <r>    3.1354    1.0000 </r>
       <r>    3.3476    1.0000 </r>
       <r>    3.3845    1.0000 </r>
       <r>    4.1661    1.0000 </r>
       <r>    4.3348    1.0000 </r>
       <r>    4.5818    1.0000 </r>
       <r>    4.7862    1.0000 </r>
       <r>    5.1071    1.0000 </r>
       <r>    5.1818    1.0000 </r>
       <r>    5.4581    1.0001 </r>
       <r>    5.6106    1.0026 </r>
       <r>    5.6612    1.0067 </r>
       <r>    6.1271    0.2772 </r>
       <r>    8.8197   -0.0000 </r>
       <r>    9.5515   -0.0000 </r>
       <r>   12.4270    0.0000 </r>
       <r>   13.3708    0.0000 </r>
       <r>   13.9690    0.0000 </r>
       <r>   14.4828    0.0000 </r>
       <r>   16.5793    0.0000 </r>
      </set>
      <set comment="kpoint 70">
       <r>   -1.8759    1.0000 </r>
       <r>    0.5180    1.0000 </r>
       <r>    2.6956    1.0000 </r>
       <r>    3.0525    1.0000 </r>
       <r>    3.1825    1.0000 </r>
       <r>    3.4164    1.0000 </r>
       <r>    3.5238    1.0000 </r>
       <r>    4.1533    1.0000 </r>
       <r>    4.2220    1.0000 </r>
       <r>    4.5036    1.0000 </r>
       <r>    4.7269    1.0000 </r>
       <r>    4.9781    1.0000 </r>
       <r>    5.1237    1.0000 </r>
       <r>    5.3431    1.0000 </r>
       <r>    5.4700    1.0001 </r>
       <r>    5.6527    1.0058 </r>
       <r>    6.1234    0.2913 </r>
       <r>    9.3232   -0.0000 </r>
       <r>   10.1092   -0.0000 </r>
       <r>   11.8150    0.0000 </r>
       <r>   12.8051    0.0000 </r>
       <r>   13.7714    0.0000 </r>
       <r>   14.6548    0.0000 </r>
       <r>   16.1960    0.0000 </r>
      </set>
      <set comment="kpoint 71">
       <r>   -1.4251    1.0000 </r>
       <r>   -0.0168    1.0000 </r>
       <r>    2.7882    1.0000 </r>
       <r>    3.0491    1.0000 </r>
       <r>    3.2118    1.0000 </r>
       <r>    3.4296    1.0000 </r>
       <r>    3.6782    1.0000 </r>
       <r>    4.1277    1.0000 </r>
       <r>    4.1847    1.0000 </r>
       <r>    4.4374    1.0000 </r>
       <r>    4.6938    1.0000 </r>
       <r>    4.8818    1.0000 </r>
       <r>    5.1009    1.0000 </r>
       <r>    5.2516    1.0000 </r>
       <r>    5.3703    1.0000 </r>
       <r>    5.6541    1.0059 </r>
       <r>    6.1215    0.2985 </r>
       <r>    9.8381   -0.0000 </r>
       <r>   10.6330   -0.0000 </r>
       <r>   11.2727   -0.0000 </r>
       <r>   12.1471    0.0000 </r>
       <r>   13.7456    0.0000 </r>
       <r>   14.8510    0.0000 </r>
       <r>   15.8571    0.0000 </r>
      </set>
      <set comment="kpoint 72">
       <r>   -1.1483    1.0000 </r>
       <r>   -0.3241    1.0000 </r>
       <r>    2.8266    1.0000 </r>
       <r>    3.0422    1.0000 </r>
       <r>    3.2227    1.0000 </r>
       <r>    3.4317    1.0000 </r>
       <r>    3.7492    1.0000 </r>
       <r>    4.0850    1.0000 </r>
       <r>    4.2095    1.0000 </r>
       <r>    4.4009    1.0000 </r>
       <r>    4.6867    1.0000 </r>
       <r>    4.8441    1.0000 </r>
       <r>    5.1007    1.0000 </r>
       <r>    5.2117    1.0000 </r>
       <r>    5.3339    1.0000 </r>
       <r>    5.6549    1.0060 </r>
       <r>    6.1209    0.3007 </r>
       <r>   10.2044   -0.0000 </r>
       <r>   10.6414   -0.0000 </r>
       <r>   11.3341   -0.0000 </r>
       <r>   11.6492    0.0000 </r>
       <r>   13.7470    0.0000 </r>
       <r>   14.9571    0.0000 </r>
       <r>   15.7018    0.0000 </r>
      </set>
      <set comment="kpoint 73">
       <r>   -3.0876    1.0000 </r>
       <r>    2.0829    1.0000 </r>
       <r>    2.3985    1.0000 </r>
       <r>    2.7629    1.0000 </r>
       <r>    2.9936    1.0000 </r>
       <r>    3.1342    1.0000 </r>
       <r>    3.2588    1.0000 </r>
       <r>    4.2960    1.0000 </r>
       <r>    4.6198    1.0000 </r>
       <r>    4.8589    1.0000 </r>
       <r>    5.0290    1.0000 </r>
       <r>    5.4273    1.0000 </r>
       <r>    5.4546    1.0001 </r>
       <r>    5.5647    1.0010 </r>
       <r>    5.7310    1.0183 </r>
       <r>    6.1164    0.3179 </r>
       <r>    6.5520   -0.0018 </r>
       <r>    7.2644   -0.0000 </r>
       <r>    8.4262   -0.0000 </r>
       <r>   13.0945    0.0000 </r>
       <r>   14.4314    0.0000 </r>
       <r>   14.6510    0.0000 </r>
       <r>   15.2261    0.0000 </r>
       <r>   16.4869    0.0000 </r>
      </set>
      <set comment="kpoint 74">
       <r>   -2.8355    1.0000 </r>
       <r>    2.0018    1.0000 </r>
       <r>    2.3560    1.0000 </r>
       <r>    2.8419    1.0000 </r>
       <r>    3.0074    1.0000 </r>
       <r>    3.1701    1.0000 </r>
       <r>    3.3382    1.0000 </r>
       <r>    4.1835    1.0000 </r>
       <r>    4.5465    1.0000 </r>
       <r>    4.6929    1.0000 </r>
       <r>    4.9816    1.0000 </r>
       <r>    5.3160    1.0000 </r>
       <r>    5.3664    1.0000 </r>
       <r>    5.5442    1.0006 </r>
       <r>    5.6529    1.0058 </r>
       <r>    6.0795    0.4694 </r>
       <r>    6.2985   -0.0339 </r>
       <r>    7.4422   -0.0000 </r>
       <r>    8.8245   -0.0000 </r>
       <r>   12.8870    0.0000 </r>
       <r>   13.8204    0.0000 </r>
       <r>   14.9582    0.0000 </r>
       <r>   15.6429    0.0000 </r>
       <r>   16.0829    0.0000 </r>
      </set>
      <set comment="kpoint 75">
       <r>   -2.5171    1.0000 </r>
       <r>    1.6654    1.0000 </r>
       <r>    2.4416    1.0000 </r>
       <r>    2.9302    1.0000 </r>
       <r>    3.0492    1.0000 </r>
       <r>    3.2358    1.0000 </r>
       <r>    3.4142    1.0000 </r>
       <r>    4.0962    1.0000 </r>
       <r>    4.4165    1.0000 </r>
       <r>    4.5791    1.0000 </r>
       <r>    4.9362    1.0000 </r>
       <r>    5.2125    1.0000 </r>
       <r>    5.2460    1.0000 </r>
       <r>    5.5083    1.0002 </r>
       <r>    5.5924    1.0018 </r>
       <r>    5.9940    0.8045 </r>
       <r>    6.0614    0.5456 </r>
       <r>    7.7859   -0.0000 </r>
       <r>    9.2783   -0.0000 </r>
       <r>   12.3175    0.0000 </r>
       <r>   13.6206    0.0000 </r>
       <r>   14.7166    0.0000 </r>
       <r>   15.3019    0.0000 </r>
       <r>   16.7337    0.0000 </r>
      </set>
      <set comment="kpoint 76">
       <r>   -2.1381    1.0000 </r>
       <r>    1.1913    1.0000 </r>
       <r>    2.5658    1.0000 </r>
       <r>    2.9718    1.0000 </r>
       <r>    3.1115    1.0000 </r>
       <r>    3.3566    1.0000 </r>
       <r>    3.4690    1.0000 </r>
       <r>    4.0555    1.0000 </r>
       <r>    4.2617    1.0000 </r>
       <r>    4.5402    1.0000 </r>
       <r>    4.8546    1.0000 </r>
       <r>    5.0959    1.0000 </r>
       <r>    5.1620    1.0000 </r>
       <r>    5.4133    1.0000 </r>
       <r>    5.5820    1.0014 </r>
       <r>    5.7702    1.0272 </r>
       <r>    6.0360    0.6506 </r>
       <r>    8.1848   -0.0000 </r>
       <r>    9.7688   -0.0000 </r>
       <r>   11.6380    0.0000 </r>
       <r>   13.5044    0.0000 </r>
       <r>   14.1084    0.0000 </r>
       <r>   15.4472    0.0000 </r>
       <r>   16.8207    0.0000 </r>
      </set>
      <set comment="kpoint 77">
       <r>   -1.7105    1.0000 </r>
       <r>    0.6568    1.0000 </r>
       <r>    2.6910    1.0000 </r>
       <r>    2.9770    1.0000 </r>
       <r>    3.1619    1.0000 </r>
       <r>    3.4736    1.0000 </r>
       <r>    3.5328    1.0000 </r>
       <r>    4.0797    1.0000 </r>
       <r>    4.1349    1.0000 </r>
       <r>    4.5012    1.0000 </r>
       <r>    4.7755    1.0000 </r>
       <r>    4.9600    1.0000 </r>
       <r>    5.1334    1.0000 </r>
       <r>    5.3109    1.0000 </r>
       <r>    5.5728    1.0012 </r>
       <r>    5.6142    1.0028 </r>
       <r>    6.0230    0.7015 </r>
       <r>    8.6194   -0.0000 </r>
       <r>   10.2303   -0.0000 </r>
       <r>   11.0518   -0.0000 </r>
       <r>   13.0189    0.0000 </r>
       <r>   13.9224    0.0000 </r>
       <r>   15.6379    0.0000 </r>
       <r>   16.5206    0.0000 </r>
      </set>
      <set comment="kpoint 78">
       <r>   -1.2685    1.0000 </r>
       <r>    0.1357    1.0000 </r>
       <r>    2.8020    1.0000 </r>
       <r>    2.9504    1.0000 </r>
       <r>    3.1979    1.0000 </r>
       <r>    3.4682    1.0000 </r>
       <r>    3.6918    1.0000 </r>
       <r>    4.0305    1.0000 </r>
       <r>    4.1562    1.0000 </r>
       <r>    4.4253    1.0000 </r>
       <r>    4.7460    1.0000 </r>
       <r>    4.8478    1.0000 </r>
       <r>    5.1283    1.0000 </r>
       <r>    5.2352    1.0000 </r>
       <r>    5.4802    1.0001 </r>
       <r>    5.5964    1.0020 </r>
       <r>    6.0161    0.7273 </r>
       <r>    9.0803   -0.0000 </r>
       <r>   10.1618   -0.0000 </r>
       <r>   11.0848   -0.0000 </r>
       <r>   12.3704    0.0000 </r>
       <r>   13.9467    0.0000 </r>
       <r>   15.8262    0.0000 </r>
       <r>   16.2273    0.0000 </r>
      </set>
      <set comment="kpoint 79">
       <r>   -1.0010    1.0000 </r>
       <r>   -0.1606    1.0000 </r>
       <r>    2.8836    1.0000 </r>
       <r>    2.8978    1.0000 </r>
       <r>    3.2123    1.0000 </r>
       <r>    3.4602    1.0000 </r>
       <r>    3.7838    1.0000 </r>
       <r>    3.9661    1.0000 </r>
       <r>    4.2188    1.0000 </r>
       <r>    4.3620    1.0000 </r>
       <r>    4.7561    1.0000 </r>
       <r>    4.7900    1.0000 </r>
       <r>    5.1342    1.0000 </r>
       <r>    5.2040    1.0000 </r>
       <r>    5.4379    1.0000 </r>
       <r>    5.5971    1.0020 </r>
       <r>    6.0140    0.7352 </r>
       <r>    9.4390   -0.0000 </r>
       <r>    9.8043   -0.0000 </r>
       <r>   11.4755   -0.0000 </r>
       <r>   11.8967    0.0000 </r>
       <r>   13.9670    0.0000 </r>
       <r>   16.0043    0.0000 </r>
       <r>   16.0130    0.0000 </r>
      </set>
      <set comment="kpoint 80">
       <r>   -2.5872    1.0000 </r>
       <r>    2.0931    1.0000 </r>
       <r>    2.2065    1.0000 </r>
       <r>    2.8561    1.0000 </r>
       <r>    3.0199    1.0000 </r>
       <r>    3.2036    1.0000 </r>
       <r>    3.4310    1.0000 </r>
       <r>    4.0645    1.0000 </r>
       <r>    4.4870    1.0000 </r>
       <r>    4.5314    1.0000 </r>
       <r>    5.0256    1.0000 </r>
       <r>    5.2220    1.0000 </r>
       <r>    5.3173    1.0000 </r>
       <r>    5.5017    1.0002 </r>
       <r>    5.5624    1.0009 </r>
       <r>    6.0202    0.7120 </r>
       <r>    6.3208   -0.0354 </r>
       <r>    7.2269   -0.0000 </r>
       <r>    9.1856   -0.0000 </r>
       <r>   12.2726    0.0000 </r>
       <r>   13.6555    0.0000 </r>
       <r>   15.7143    0.0000 </r>
       <r>   15.7472    0.0000 </r>
       <r>   16.0481    0.0000 </r>
      </set>
      <set comment="kpoint 81">
       <r>   -2.2737    1.0000 </r>
       <r>    1.8099    1.0000 </r>
       <r>    2.2871    1.0000 </r>
       <r>    2.9142    1.0000 </r>
       <r>    3.0531    1.0000 </r>
       <r>    3.2636    1.0000 </r>
       <r>    3.5202    1.0000 </r>
       <r>    3.9721    1.0000 </r>
       <r>    4.3062    1.0000 </r>
       <r>    4.5271    1.0000 </r>
       <r>    5.0113    1.0000 </r>
       <r>    5.1424    1.0000 </r>
       <r>    5.2252    1.0000 </r>
       <r>    5.4502    1.0000 </r>
       <r>    5.5006    1.0002 </r>
       <r>    5.9668    0.8847 </r>
       <r>    6.1271    0.2773 </r>
       <r>    7.3526   -0.0000 </r>
       <r>    9.5950   -0.0000 </r>
       <r>   11.5352    0.0000 </r>
       <r>   13.6839    0.0000 </r>
       <r>   14.9984    0.0000 </r>
       <r>   16.0999    0.0000 </r>
       <r>   16.3390    0.0000 </r>
      </set>
      <set comment="kpoint 82">
       <r>   -1.9015    1.0000 </r>
       <r>    1.3557    1.0000 </r>
       <r>    2.4261    1.0000 </r>
       <r>    2.9616    1.0000 </r>
       <r>    3.1010    1.0000 </r>
       <r>    3.3682    1.0000 </r>
       <r>    3.5717    1.0000 </r>
       <r>    3.9439    1.0000 </r>
       <r>    4.1600    1.0000 </r>
       <r>    4.5312    1.0000 </r>
       <r>    4.9032    1.0000 </r>
       <r>    5.1012    1.0000 </r>
       <r>    5.1383    1.0000 </r>
       <r>    5.3514    1.0000 </r>
       <r>    5.4987    1.0002 </r>
       <r>    5.8755    1.0233 </r>
       <r>    5.9502    0.9245 </r>
       <r>    7.6376   -0.0000 </r>
       <r>    9.9835   -0.0000 </r>
       <r>   10.8973   -0.0000 </r>
       <r>   13.6906    0.0000 </r>
       <r>   14.3112    0.0000 </r>
       <r>   16.3541    0.0000 </r>
       <r>   16.6110    0.0000 </r>
      </set>
      <set comment="kpoint 83">
       <r>   -1.4829    1.0000 </r>
       <r>    0.8421    1.0000 </r>
       <r>    2.5502    1.0000 </r>
       <r>    2.9837    1.0000 </r>
       <r>    3.1466    1.0000 </r>
       <r>    3.5025    1.0000 </r>
       <r>    3.5721    1.0000 </r>
       <r>    4.0002    1.0000 </r>
       <r>    4.0560    1.0000 </r>
       <r>    4.5074    1.0000 </r>
       <r>    4.8024    1.0000 </r>
       <r>    4.9712    1.0000 </r>
       <r>    5.1469    1.0000 </r>
       <r>    5.2621    1.0000 </r>
       <r>    5.5050    1.0002 </r>
       <r>    5.7045    1.0130 </r>
       <r>    5.9113    0.9912 </r>
       <r>    7.9907   -0.0000 </r>
       <r>    9.9007   -0.0000 </r>
       <r>   10.8372   -0.0000 </r>
       <r>   13.2909    0.0000 </r>
       <r>   14.0883    0.0000 </r>
       <r>   16.4156    0.0000 </r>
       <r>   16.9310    0.0000 </r>
      </set>
      <set comment="kpoint 84">
       <r>   -1.0537    1.0000 </r>
       <r>    0.3416    1.0000 </r>
       <r>    2.6394    1.0000 </r>
       <r>    2.9859    1.0000 </r>
       <r>    3.1822    1.0000 </r>
       <r>    3.5124    1.0000 </r>
       <r>    3.6858    1.0000 </r>
       <r>    3.9423    1.0000 </r>
       <r>    4.1349    1.0000 </r>
       <r>    4.4214    1.0000 </r>
       <r>    4.7614    1.0000 </r>
       <r>    4.8613    1.0000 </r>
       <r>    5.1566    1.0000 </r>
       <r>    5.2068    1.0000 </r>
       <r>    5.5111    1.0003 </r>
       <r>    5.5812    1.0014 </r>
       <r>    5.8942    1.0096 </r>
       <r>    8.3909   -0.0000 </r>
       <r>    9.3948   -0.0000 </r>
       <r>   11.3030   -0.0000 </r>
       <r>   12.6604    0.0000 </r>
       <r>   14.1396    0.0000 </r>
       <r>   16.3055    0.0000 </r>
       <r>   17.1443    0.0000 </r>
      </set>
      <set comment="kpoint 85">
       <r>   -0.7990    1.0000 </r>
       <r>    0.0609    1.0000 </r>
       <r>    2.6732    1.0000 </r>
       <r>    2.9829    1.0000 </r>
       <r>    3.1969    1.0000 </r>
       <r>    3.4973    1.0000 </r>
       <r>    3.8089    1.0000 </r>
       <r>    3.8478    1.0000 </r>
       <r>    4.2328    1.0000 </r>
       <r>    4.3312    1.0000 </r>
       <r>    4.7598    1.0000 </r>
       <r>    4.8105    1.0000 </r>
       <r>    5.1698    1.0000 </r>
       <r>    5.1830    1.0000 </r>
       <r>    5.5161    1.0003 </r>
       <r>    5.5316    1.0004 </r>
       <r>    5.8889    1.0142 </r>
       <r>    8.7414   -0.0000 </r>
       <r>    8.9937   -0.0000 </r>
       <r>   11.6900    0.0000 </r>
       <r>   12.2255    0.0000 </r>
       <r>   14.1723    0.0000 </r>
       <r>   16.2389    0.0000 </r>
       <r>   17.1895    0.0000 </r>
      </set>
      <set comment="kpoint 86">
       <r>   -1.9673    1.0000 </r>
       <r>    1.9642    1.0000 </r>
       <r>    1.9821    1.0000 </r>
       <r>    2.9593    1.0000 </r>
       <r>    3.0726    1.0000 </r>
       <r>    3.3110    1.0000 </r>
       <r>    3.6322    1.0000 </r>
       <r>    3.8645    1.0000 </r>
       <r>    4.1717    1.0000 </r>
       <r>    4.5323    1.0000 </r>
       <r>    5.0223    1.0000 </r>
       <r>    5.0874    1.0000 </r>
       <r>    5.1814    1.0000 </r>
       <r>    5.3758    1.0000 </r>
       <r>    5.4301    1.0000 </r>
       <r>    5.8933    1.0105 </r>
       <r>    6.1059    0.3599 </r>
       <r>    7.1770   -0.0000 </r>
       <r>    9.8999   -0.0000 </r>
       <r>   10.8429   -0.0000 </r>
       <r>   13.7996    0.0000 </r>
       <r>   15.1892    0.0000 </r>
       <r>   15.4329    0.0000 </r>
       <r>   17.2488    0.0000 </r>
      </set>
      <set comment="kpoint 87">
       <r>   -1.6043    1.0000 </r>
       <r>    1.5460    1.0000 </r>
       <r>    2.1385    1.0000 </r>
       <r>    3.0108    1.0000 </r>
       <r>    3.1051    1.0000 </r>
       <r>    3.3920    1.0000 </r>
       <r>    3.6835    1.0000 </r>
       <r>    3.8434    1.0000 </r>
       <r>    4.0607    1.0000 </r>
       <r>    4.5449    1.0000 </r>
       <r>    4.9093    1.0000 </r>
       <r>    5.0899    1.0000 </r>
       <r>    5.1365    1.0000 </r>
       <r>    5.2767    1.0000 </r>
       <r>    5.4106    1.0000 </r>
       <r>    5.8270    1.0355 </r>
       <r>    5.9564    0.9105 </r>
       <r>    7.2667   -0.0000 </r>
       <r>    9.7644   -0.0000 </r>
       <r>   10.7095   -0.0000 </r>
       <r>   13.8935    0.0000 </r>
       <r>   14.5609    0.0000 </r>
       <r>   15.6874    0.0000 </r>
       <r>   17.1749    0.0000 </r>
      </set>
      <set comment="kpoint 88">
       <r>   -1.1980    1.0000 </r>
       <r>    1.0626    1.0000 </r>
       <r>    2.2808    1.0000 </r>
       <r>    3.0431    1.0000 </r>
       <r>    3.1396    1.0000 </r>
       <r>    3.5028    1.0000 </r>
       <r>    3.6341    1.0000 </r>
       <r>    3.9245    1.0000 </r>
       <r>    4.0122    1.0000 </r>
       <r>    4.5177    1.0000 </r>
       <r>    4.8170    1.0000 </r>
       <r>    4.9860    1.0000 </r>
       <r>    5.1597    1.0000 </r>
       <r>    5.2009    1.0000 </r>
       <r>    5.4091    1.0000 </r>
       <r>    5.7522    1.0231 </r>
       <r>    5.8163    1.0350 </r>
       <r>    7.5013   -0.0000 </r>
       <r>    9.2165   -0.0000 </r>
       <r>   11.1143   -0.0000 </r>
       <r>   13.6108    0.0000 </r>
       <r>   14.2754    0.0000 </r>
       <r>   16.0405    0.0000 </r>
       <r>   16.9094    0.0000 </r>
      </set>
      <set comment="kpoint 89">
       <r>   -0.7860    1.0000 </r>
       <r>    0.5911    1.0000 </r>
       <r>    2.3784    1.0000 </r>
       <r>    3.0565    1.0000 </r>
       <r>    3.1672    1.0000 </r>
       <r>    3.5515    1.0000 </r>
       <r>    3.6646    1.0000 </r>
       <r>    3.8786    1.0000 </r>
       <r>    4.1313    1.0000 </r>
       <r>    4.4229    1.0000 </r>
       <r>    4.7736    1.0000 </r>
       <r>    4.8881    1.0000 </r>
       <r>    5.1456    1.0000 </r>
       <r>    5.1970    1.0000 </r>
       <r>    5.4114    1.0000 </r>
       <r>    5.6484    1.0053 </r>
       <r>    5.7692    1.0270 </r>
       <r>    7.8177   -0.0000 </r>
       <r>    8.6843   -0.0000 </r>
       <r>   11.6150    0.0000 </r>
       <r>   13.0080    0.0000 </r>
       <r>   14.3486    0.0000 </r>
       <r>   16.3431    0.0000 </r>
       <r>   16.6652    0.0000 </r>
      </set>
      <set comment="kpoint 90">
       <r>   -0.5476    1.0000 </r>
       <r>    0.3306    1.0000 </r>
       <r>    2.4132    1.0000 </r>
       <r>    3.0592    1.0000 </r>
       <r>    3.1786    1.0000 </r>
       <r>    3.5391    1.0000 </r>
       <r>    3.7489    1.0000 </r>
       <r>    3.8170    1.0000 </r>
       <r>    4.2507    1.0000 </r>
       <r>    4.3158    1.0000 </r>
       <r>    4.7614    1.0000 </r>
       <r>    4.8459    1.0000 </r>
       <r>    5.1422    1.0000 </r>
       <r>    5.2020    1.0000 </r>
       <r>    5.4127    1.0000 </r>
       <r>    5.6035    1.0023 </r>
       <r>    5.7577    1.0243 </r>
       <r>    8.1457   -0.0000 </r>
       <r>    8.2826   -0.0000 </r>
       <r>   11.9683    0.0000 </r>
       <r>   12.6123    0.0000 </r>
       <r>   14.3928    0.0000 </r>
       <r>   16.4579    0.0000 </r>
       <r>   16.5858    0.0000 </r>
      </set>
      <set comment="kpoint 91">
       <r>   -1.2537    1.0000 </r>
       <r>    1.7076    1.0000 </r>
       <r>    1.7869    1.0000 </r>
       <r>    3.0594    1.0000 </r>
       <r>    3.1220    1.0000 </r>
       <r>    3.4425    1.0000 </r>
       <r>    3.7252    1.0000 </r>
       <r>    3.8311    1.0000 </r>
       <r>    3.9898    1.0000 </r>
       <r>    4.5536    1.0000 </r>
       <r>    4.8727    1.0000 </r>
       <r>    5.0471    1.0000 </r>
       <r>    5.1615    1.0000 </r>
       <r>    5.1934    1.0000 </r>
       <r>    5.3440    1.0000 </r>
       <r>    5.7429    1.0209 </r>
       <r>    5.9061    0.9975 </r>
       <r>    7.1306   -0.0000 </r>
       <r>    9.1563   -0.0000 </r>
       <r>   11.0487   -0.0000 </r>
       <r>   14.0814    0.0000 </r>
       <r>   14.6677    0.0000 </r>
       <r>   15.1723    0.0000 </r>
       <r>   17.3021    0.0000 </r>
      </set>
      <set comment="kpoint 92">
       <r>   -0.8639    1.0000 </r>
       <r>    1.2998    1.0000 </r>
       <r>    1.9324    1.0000 </r>
       <r>    3.0819    1.0000 </r>
       <r>    3.1412    1.0000 </r>
       <r>    3.5212    1.0000 </r>
       <r>    3.6714    1.0000 </r>
       <r>    3.8700    1.0000 </r>
       <r>    4.0204    1.0000 </r>
       <r>    4.5160    1.0000 </r>
       <r>    4.8338    1.0000 </r>
       <r>    4.9786    1.0000 </r>
       <r>    5.1149    1.0000 </r>
       <r>    5.1922    1.0000 </r>
       <r>    5.3114    1.0000 </r>
       <r>    5.6739    1.0082 </r>
       <r>    5.7942    1.0321 </r>
       <r>    7.1988   -0.0000 </r>
       <r>    8.5774   -0.0000 </r>
       <r>   11.5009   -0.0000 </r>
       <r>   13.9587    0.0000 </r>
       <r>   14.4372    0.0000 </r>
       <r>   15.3794    0.0000 </r>
       <r>   17.0938    0.0000 </r>
      </set>
      <set comment="kpoint 93">
       <r>   -0.4738    1.0000 </r>
       <r>    0.8675    1.0000 </r>
       <r>    2.0619    1.0000 </r>
       <r>    3.0853    1.0000 </r>
       <r>    3.1547    1.0000 </r>
       <r>    3.5794    1.0000 </r>
       <r>    3.6650    1.0000 </r>
       <r>    3.8367    1.0000 </r>
       <r>    4.1505    1.0000 </r>
       <r>    4.4213    1.0000 </r>
       <r>    4.8083    1.0000 </r>
       <r>    4.8992    1.0000 </r>
       <r>    5.0830    1.0000 </r>
       <r>    5.2171    1.0000 </r>
       <r>    5.2972    1.0000 </r>
       <r>    5.6331    1.0040 </r>
       <r>    5.6918    1.0108 </r>
       <r>    7.3981   -0.0000 </r>
       <r>    8.0889   -0.0000 </r>
       <r>   11.9864    0.0000 </r>
       <r>   13.3944    0.0000 </r>
       <r>   14.5449    0.0000 </r>
       <r>   15.7048    0.0000 </r>
       <r>   16.7929    0.0000 </r>
      </set>
      <set comment="kpoint 94">
       <r>   -0.2545    1.0000 </r>
       <r>    0.6319    1.0000 </r>
       <r>    2.1098    1.0000 </r>
       <r>    3.0835    1.0000 </r>
       <r>    3.1601    1.0000 </r>
       <r>    3.5814    1.0000 </r>
       <r>    3.7005    1.0000 </r>
       <r>    3.8095    1.0000 </r>
       <r>    4.2719    1.0000 </r>
       <r>    4.3131    1.0000 </r>
       <r>    4.7964    1.0000 </r>
       <r>    4.8614    1.0000 </r>
       <r>    5.0821    1.0000 </r>
       <r>    5.2280    1.0000 </r>
       <r>    5.2917    1.0000 </r>
       <r>    5.6262    1.0035 </r>
       <r>    5.6444    1.0050 </r>
       <r>    7.6713   -0.0000 </r>
       <r>    7.7216   -0.0000 </r>
       <r>   12.3069    0.0000 </r>
       <r>   13.0337    0.0000 </r>
       <r>   14.6027    0.0000 </r>
       <r>   15.8764    0.0000 </r>
       <r>   16.6370    0.0000 </r>
      </set>
      <set comment="kpoint 95">
       <r>   -0.4955    1.0000 </r>
       <r>    1.4845    1.0000 </r>
       <r>    1.5803    1.0000 </r>
       <r>    3.0740    1.0000 </r>
       <r>    3.1437    1.0000 </r>
       <r>    3.5726    1.0000 </r>
       <r>    3.6790    1.0000 </r>
       <r>    3.8341    1.0000 </r>
       <r>    4.0888    1.0000 </r>
       <r>    4.4799    1.0000 </r>
       <r>    4.8572    1.0000 </r>
       <r>    4.9422    1.0000 </r>
       <r>    5.0441    1.0000 </r>
       <r>    5.2165    1.0000 </r>
       <r>    5.2299    1.0000 </r>
       <r>    5.5845    1.0015 </r>
       <r>    5.7436    1.0211 </r>
       <r>    7.0952   -0.0000 </r>
       <r>    8.0443   -0.0000 </r>
       <r>   11.9425    0.0000 </r>
       <r>   14.2785    0.0000 </r>
       <r>   14.3057    0.0000 </r>
       <r>   15.1017    0.0000 </r>
       <r>   17.0531    0.0000 </r>
      </set>
      <set comment="kpoint 96">
       <r>   -0.1326    1.0000 </r>
       <r>    1.1412    1.0000 </r>
       <r>    1.7114    1.0000 </r>
       <r>    3.0403    1.0000 </r>
       <r>    3.1440    1.0000 </r>
       <r>    3.6187    1.0000 </r>
       <r>    3.6934    1.0000 </r>
       <r>    3.8084    1.0000 </r>
       <r>    4.1925    1.0000 </r>
       <r>    4.4057    1.0000 </r>
       <r>    4.8630    1.0000 </r>
       <r>    4.8873    1.0000 </r>
       <r>    5.0124    1.0000 </r>
       <r>    5.1806    1.0000 </r>
       <r>    5.2380    1.0000 </r>
       <r>    5.5259    1.0004 </r>
       <r>    5.6792    1.0089 </r>
       <r>    7.1536   -0.0000 </r>
       <r>    7.6310   -0.0000 </r>
       <r>   12.4049    0.0000 </r>
       <r>   13.7839    0.0000 </r>
       <r>   14.5542    0.0000 </r>
       <r>   15.2633    0.0000 </r>
       <r>   16.7721    0.0000 </r>
      </set>
      <set comment="kpoint 97">
       <r>    0.0660    1.0000 </r>
       <r>    0.9345    1.0000 </r>
       <r>    1.7781    1.0000 </r>
       <r>    3.0212    1.0000 </r>
       <r>    3.1443    1.0000 </r>
       <r>    3.6280    1.0000 </r>
       <r>    3.7148    1.0000 </r>
       <r>    3.7949    1.0000 </r>
       <r>    4.2940    1.0000 </r>
       <r>    4.3157    1.0000 </r>
       <r>    4.8562    1.0000 </r>
       <r>    4.8568    1.0000 </r>
       <r>    5.0142    1.0000 </r>
       <r>    5.1661    1.0000 </r>
       <r>    5.2466    1.0000 </r>
       <r>    5.5065    1.0002 </r>
       <r>    5.6496    1.0054 </r>
       <r>    7.3315   -0.0000 </r>
       <r>    7.3399   -0.0000 </r>
       <r>   12.7006    0.0000 </r>
       <r>   13.4548    0.0000 </r>
       <r>   14.6529    0.0000 </r>
       <r>   15.3874    0.0000 </r>
       <r>   16.6049    0.0000 </r>
      </set>
      <set comment="kpoint 98">
       <r>    0.1998    1.0000 </r>
       <r>    1.3351    1.0000 </r>
       <r>    1.3961    1.0000 </r>
       <r>    2.9572    1.0000 </r>
       <r>    3.1364    1.0000 </r>
       <r>    3.6565    1.0000 </r>
       <r>    3.7329    1.0000 </r>
       <r>    3.7904    1.0000 </r>
       <r>    4.2515    1.0000 </r>
       <r>    4.3698    1.0000 </r>
       <r>    4.8552    1.0000 </r>
       <r>    4.9113    1.0000 </r>
       <r>    4.9639    1.0000 </r>
       <r>    5.0952    1.0000 </r>
       <r>    5.2514    1.0000 </r>
       <r>    5.4503    1.0000 </r>
       <r>    5.6476    1.0053 </r>
       <r>    7.0735   -0.0000 </r>
       <r>    7.3147   -0.0000 </r>
       <r>   12.8459    0.0000 </r>
       <r>   14.0383    0.0000 </r>
       <r>   14.2305    0.0000 </r>
       <r>   15.2743    0.0000 </r>
       <r>   16.4915    0.0000 </r>
      </set>
      <set comment="kpoint 99">
       <r>    0.3788    1.0000 </r>
       <r>    1.1814    1.0000 </r>
       <r>    1.4561    1.0000 </r>
       <r>    2.9141    1.0000 </r>
       <r>    3.1336    1.0000 </r>
       <r>    3.6689    1.0000 </r>
       <r>    3.7558    1.0000 </r>
       <r>    3.7824    1.0000 </r>
       <r>    4.3122    1.0000 </r>
       <r>    4.3185    1.0000 </r>
       <r>    4.8338    1.0000 </r>
       <r>    4.9173    1.0000 </r>
       <r>    4.9618    1.0000 </r>
       <r>    5.0652    1.0000 </r>
       <r>    5.2573    1.0000 </r>
       <r>    5.4239    1.0000 </r>
       <r>    5.6298    1.0038 </r>
       <r>    7.1309   -0.0000 </r>
       <r>    7.1314   -0.0000 </r>
       <r>   13.1332    0.0000 </r>
       <r>   13.8069    0.0000 </r>
       <r>   14.2920    0.0000 </r>
       <r>   15.3389    0.0000 </r>
       <r>   16.3280    0.0000 </r>
      </set>
      <set comment="kpoint 100">
       <r>    0.5486    1.0000 </r>
       <r>    1.2828    1.0000 </r>
       <r>    1.2828    1.0000 </r>
       <r>    2.8586    1.0000 </r>
       <r>    3.1299    1.0000 </r>
       <r>    3.6840    1.0000 </r>
       <r>    3.7776    1.0000 </r>
       <r>    3.7776    1.0000 </r>
       <r>    4.3195    1.0000 </r>
       <r>    4.3195    1.0000 </r>
       <r>    4.8168    1.0000 </r>
       <r>    4.9445    1.0000 </r>
       <r>    4.9445    1.0000 </r>
       <r>    5.0262    1.0000 </r>
       <r>    5.2606    1.0000 </r>
       <r>    5.3953    1.0000 </r>
       <r>    5.6161    1.0029 </r>
       <r>    7.0663   -0.0000 </r>
       <r>    7.0663   -0.0000 </r>
       <r>   13.4465    0.0000 </r>
       <r>   13.9570    0.0000 </r>
       <r>   13.9570    0.0000 </r>
       <r>   15.3818    0.0000 </r>
       <r>   16.1758    0.0000 </r>
      </set>
      <set comment="kpoint 101">
       <r>   -3.3432    1.0000 </r>
       <r>    2.0466    1.0000 </r>
       <r>    2.5992    1.0000 </r>
       <r>    2.5992    1.0000 </r>
       <r>    2.9736    1.0000 </r>
       <r>    3.1424    1.0000 </r>
       <r>    3.1424    1.0000 </r>
       <r>    4.4223    1.0000 </r>
       <r>    4.8094    1.0000 </r>
       <r>    4.8094    1.0000 </r>
       <r>    5.4148    1.0000 </r>
       <r>    5.4148    1.0000 </r>
       <r>    5.5804    1.0014 </r>
       <r>    5.5804    1.0014 </r>
       <r>    5.7970    1.0326 </r>
       <r>    6.1721    0.1302 </r>
       <r>    6.9297   -0.0000 </r>
       <r>    7.4706   -0.0000 </r>
       <r>    7.4706   -0.0000 </r>
       <r>   13.6377    0.0000 </r>
       <r>   13.6377    0.0000 </r>
       <r>   14.4412    0.0000 </r>
       <r>   16.0561    0.0000 </r>
       <r>   16.4487    0.0000 </r>
      </set>
      <set comment="kpoint 102">
       <r>   -3.1604    1.0000 </r>
       <r>    2.0734    1.0000 </r>
       <r>    2.4834    1.0000 </r>
       <r>    2.7105    1.0000 </r>
       <r>    2.9645    1.0000 </r>
       <r>    3.1672    1.0000 </r>
       <r>    3.2104    1.0000 </r>
       <r>    4.3085    1.0000 </r>
       <r>    4.7020    1.0000 </r>
       <r>    4.8259    1.0000 </r>
       <r>    5.1709    1.0000 </r>
       <r>    5.3636    1.0000 </r>
       <r>    5.4937    1.0002 </r>
       <r>    5.5691    1.0011 </r>
       <r>    5.7275    1.0175 </r>
       <r>    6.1545    0.1825 </r>
       <r>    6.6686   -0.0001 </r>
       <r>    7.6170   -0.0000 </r>
       <r>    7.7656   -0.0000 </r>
       <r>   13.6273    0.0000 </r>
       <r>   14.0624    0.0000 </r>
       <r>   15.0231    0.0000 </r>
       <r>   15.3174    0.0000 </r>
       <r>   15.5719    0.0000 </r>
      </set>
      <set comment="kpoint 103">
       <r>   -2.9073    1.0000 </r>
       <r>    1.9622    1.0000 </r>
       <r>    2.4200    1.0000 </r>
       <r>    2.8536    1.0000 </r>
       <r>    2.9679    1.0000 </r>
       <r>    3.2040    1.0000 </r>
       <r>    3.2831    1.0000 </r>
       <r>    4.2106    1.0000 </r>
       <r>    4.5781    1.0000 </r>
       <r>    4.7695    1.0000 </r>
       <r>    4.9748    1.0000 </r>
       <r>    5.2862    1.0000 </r>
       <r>    5.3843    1.0000 </r>
       <r>    5.5645    1.0010 </r>
       <r>    5.6621    1.0068 </r>
       <r>    6.1320    0.2593 </r>
       <r>    6.2769   -0.0274 </r>
       <r>    7.9991   -0.0000 </r>
       <r>    8.1178   -0.0000 </r>
       <r>   13.5233    0.0000 </r>
       <r>   14.2124    0.0000 </r>
       <r>   14.4819    0.0000 </r>
       <r>   14.8568    0.0000 </r>
       <r>   16.0023    0.0000 </r>
      </set>
      <set comment="kpoint 104">
       <r>   -2.5875    1.0000 </r>
       <r>    1.6202    1.0000 </r>
       <r>    2.4845    1.0000 </r>
       <r>    2.9799    1.0000 </r>
       <r>    3.0079    1.0000 </r>
       <r>    3.2619    1.0000 </r>
       <r>    3.3516    1.0000 </r>
       <r>    4.1398    1.0000 </r>
       <r>    4.4500    1.0000 </r>
       <r>    4.6165    1.0000 </r>
       <r>    4.8988    1.0000 </r>
       <r>    5.2044    1.0000 </r>
       <r>    5.2540    1.0000 </r>
       <r>    5.5395    1.0005 </r>
       <r>    5.6118    1.0027 </r>
       <r>    5.9502    0.9245 </r>
       <r>    6.1101    0.3431 </r>
       <r>    8.4499   -0.0000 </r>
       <r>    8.5086   -0.0000 </r>
       <r>   13.1647    0.0000 </r>
       <r>   13.5648    0.0000 </r>
       <r>   14.4787    0.0000 </r>
       <r>   14.4922    0.0000 </r>
       <r>   16.7477    0.0000 </r>
      </set>
      <set comment="kpoint 105">
       <r>   -2.2068    1.0000 </r>
       <r>    1.1413    1.0000 </r>
       <r>    2.5950    1.0000 </r>
       <r>    2.9925    1.0000 </r>
       <r>    3.1301    1.0000 </r>
       <r>    3.3689    1.0000 </r>
       <r>    3.4044    1.0000 </r>
       <r>    4.1049    1.0000 </r>
       <r>    4.3247    1.0000 </r>
       <r>    4.4836    1.0000 </r>
       <r>    4.8562    1.0000 </r>
       <r>    5.1145    1.0000 </r>
       <r>    5.1369    1.0000 </r>
       <r>    5.4572    1.0001 </r>
       <r>    5.6041    1.0023 </r>
       <r>    5.7046    1.0130 </r>
       <r>    6.0925    0.4148 </r>
       <r>    8.9252   -0.0000 </r>
       <r>    8.9449   -0.0000 </r>
       <r>   12.5849    0.0000 </r>
       <r>   12.7880    0.0000 </r>
       <r>   14.4087    0.0000 </r>
       <r>   14.6923    0.0000 </r>
       <r>   17.0212    0.0000 </r>
      </set>
      <set comment="kpoint 106">
       <r>   -1.7768    1.0000 </r>
       <r>    0.6015    1.0000 </r>
       <r>    2.7108    1.0000 </r>
       <r>    2.9935    1.0000 </r>
       <r>    3.1951    1.0000 </r>
       <r>    3.4347    1.0000 </r>
       <r>    3.5298    1.0000 </r>
       <r>    4.1119    1.0000 </r>
       <r>    4.2034    1.0000 </r>
       <r>    4.4032    1.0000 </r>
       <r>    4.8157    1.0000 </r>
       <r>    4.9843    1.0000 </r>
       <r>    5.0974    1.0000 </r>
       <r>    5.3518    1.0000 </r>
       <r>    5.5319    1.0004 </r>
       <r>    5.6082    1.0025 </r>
       <r>    6.0805    0.4653 </r>
       <r>    9.3516   -0.0000 </r>
       <r>    9.4764   -0.0000 </r>
       <r>   11.9792    0.0000 </r>
       <r>   12.0530    0.0000 </r>
       <r>   14.4520    0.0000 </r>
       <r>   14.9208    0.0000 </r>
       <r>   16.7919    0.0000 </r>
      </set>
      <set comment="kpoint 107">
       <r>   -1.3314    1.0000 </r>
       <r>    0.0750    1.0000 </r>
       <r>    2.8137    1.0000 </r>
       <r>    2.9707    1.0000 </r>
       <r>    3.2260    1.0000 </r>
       <r>    3.4482    1.0000 </r>
       <r>    3.6948    1.0000 </r>
       <r>    4.0871    1.0000 </r>
       <r>    4.1481    1.0000 </r>
       <r>    4.3573    1.0000 </r>
       <r>    4.7840    1.0000 </r>
       <r>    4.8867    1.0000 </r>
       <r>    5.0945    1.0000 </r>
       <r>    5.2504    1.0000 </r>
       <r>    5.4276    1.0000 </r>
       <r>    5.6122    1.0027 </r>
       <r>    6.0737    0.4939 </r>
       <r>    9.7443   -0.0000 </r>
       <r>   10.0348   -0.0000 </r>
       <r>   11.3725   -0.0000 </r>
       <r>   11.4656   -0.0000 </r>
       <r>   14.5101    0.0000 </r>
       <r>   15.1438    0.0000 </r>
       <r>   16.4653    0.0000 </r>
      </set>
      <set comment="kpoint 108">
       <r>   -1.0605    1.0000 </r>
       <r>   -0.2254    1.0000 </r>
       <r>    2.8740    1.0000 </r>
       <r>    2.9381    1.0000 </r>
       <r>    3.2356    1.0000 </r>
       <r>    3.4522    1.0000 </r>
       <r>    3.7860    1.0000 </r>
       <r>    4.0162    1.0000 </r>
       <r>    4.1719    1.0000 </r>
       <r>    4.3382    1.0000 </r>
       <r>    4.7731    1.0000 </r>
       <r>    4.8481    1.0000 </r>
       <r>    5.1117    1.0000 </r>
       <r>    5.1949    1.0000 </r>
       <r>    5.3925    1.0000 </r>
       <r>    5.6137    1.0028 </r>
       <r>    6.0715    0.5031 </r>
       <r>    9.9414   -0.0000 </r>
       <r>   10.4715   -0.0000 </r>
       <r>   10.8952   -0.0000 </r>
       <r>   11.2268   -0.0000 </r>
       <r>   14.5352    0.0000 </r>
       <r>   15.2550    0.0000 </r>
       <r>   16.3113    0.0000 </r>
      </set>
      <set comment="kpoint 109">
       <r>   -2.9794    1.0000 </r>
       <r>    2.1192    1.0000 </r>
       <r>    2.4701    1.0000 </r>
       <r>    2.7049    1.0000 </r>
       <r>    2.9472    1.0000 </r>
       <r>    3.2059    1.0000 </r>
       <r>    3.2696    1.0000 </r>
       <r>    4.1978    1.0000 </r>
       <r>    4.6530    1.0000 </r>
       <r>    4.7497    1.0000 </r>
       <r>    5.0839    1.0000 </r>
       <r>    5.2669    1.0000 </r>
       <r>    5.4586    1.0001 </r>
       <r>    5.5296    1.0004 </r>
       <r>    5.6382    1.0044 </r>
       <r>    6.1370    0.2412 </r>
       <r>    6.7368   -0.0000 </r>
       <r>    7.3936   -0.0000 </r>
       <r>    7.9755   -0.0000 </r>
       <r>   13.7248    0.0000 </r>
       <r>   14.6082    0.0000 </r>
       <r>   14.6221    0.0000 </r>
       <r>   15.2197    0.0000 </r>
       <r>   15.7431    0.0000 </r>
      </set>
      <set comment="kpoint 110">
       <r>   -2.7290    1.0000 </r>
       <r>    2.0477    1.0000 </r>
       <r>    2.4068    1.0000 </r>
       <r>    2.8096    1.0000 </r>
       <r>    2.9492    1.0000 </r>
       <r>    3.2409    1.0000 </r>
       <r>    3.3471    1.0000 </r>
       <r>    4.1054    1.0000 </r>
       <r>    4.5469    1.0000 </r>
       <r>    4.6277    1.0000 </r>
       <r>    5.0064    1.0000 </r>
       <r>    5.2086    1.0000 </r>
       <r>    5.3712    1.0000 </r>
       <r>    5.5175    1.0003 </r>
       <r>    5.5593    1.0009 </r>
       <r>    6.1081    0.3508 </r>
       <r>    6.4506   -0.0112 </r>
       <r>    7.5536   -0.0000 </r>
       <r>    8.3080   -0.0000 </r>
       <r>   13.2849    0.0000 </r>
       <r>   14.1780    0.0000 </r>
       <r>   14.6806    0.0000 </r>
       <r>   15.2336    0.0000 </r>
       <r>   15.7125    0.0000 </r>
      </set>
      <set comment="kpoint 111">
       <r>   -2.4128    1.0000 </r>
       <r>    1.7253    1.0000 </r>
       <r>    2.4669    1.0000 </r>
       <r>    2.9265    1.0000 </r>
       <r>    2.9903    1.0000 </r>
       <r>    3.2911    1.0000 </r>
       <r>    3.4194    1.0000 </r>
       <r>    4.0442    1.0000 </r>
       <r>    4.4052    1.0000 </r>
       <r>    4.5079    1.0000 </r>
       <r>    4.9592    1.0000 </r>
       <r>    5.1549    1.0000 </r>
       <r>    5.2538    1.0000 </r>
       <r>    5.4771    1.0001 </r>
       <r>    5.5267    1.0004 </r>
       <r>    6.0667    0.5234 </r>
       <r>    6.1172    0.3149 </r>
       <r>    7.8867   -0.0000 </r>
       <r>    8.6894   -0.0000 </r>
       <r>   12.5648    0.0000 </r>
       <r>   13.6396    0.0000 </r>
       <r>   14.5333    0.0000 </r>
       <r>   15.3790    0.0000 </r>
       <r>   16.0646    0.0000 </r>
      </set>
      <set comment="kpoint 112">
       <r>   -2.0370    1.0000 </r>
       <r>    1.2613    1.0000 </r>
       <r>    2.5699    1.0000 </r>
       <r>    2.9601    1.0000 </r>
       <r>    3.1052    1.0000 </r>
       <r>    3.3774    1.0000 </r>
       <r>    3.4702    1.0000 </r>
       <r>    4.0279    1.0000 </r>
       <r>    4.2614    1.0000 </r>
       <r>    4.4219    1.0000 </r>
       <r>    4.9148    1.0000 </r>
       <r>    5.1090    1.0000 </r>
       <r>    5.1301    1.0000 </r>
       <r>    5.3964    1.0000 </r>
       <r>    5.5322    1.0005 </r>
       <r>    5.8310    1.0354 </r>
       <r>    6.0466    0.6075 </r>
       <r>    8.2708   -0.0000 </r>
       <r>    9.1024   -0.0000 </r>
       <r>   11.8536    0.0000 </r>
       <r>   12.9308    0.0000 </r>
       <r>   14.6198    0.0000 </r>
       <r>   15.5807    0.0000 </r>
       <r>   16.4304    0.0000 </r>
      </set>
      <set comment="kpoint 113">
       <r>   -1.6134    1.0000 </r>
       <r>    0.7364    1.0000 </r>
       <r>    2.6716    1.0000 </r>
       <r>    2.9687    1.0000 </r>
       <r>    3.1865    1.0000 </r>
       <r>    3.4740    1.0000 </r>
       <r>    3.5353    1.0000 </r>
       <r>    4.0626    1.0000 </r>
       <r>    4.1340    1.0000 </r>
       <r>    4.3564    1.0000 </r>
       <r>    4.8737    1.0000 </r>
       <r>    4.9971    1.0000 </r>
       <r>    5.0997    1.0000 </r>
       <r>    5.3077    1.0000 </r>
       <r>    5.5390    1.0005 </r>
       <r>    5.6331    1.0040 </r>
       <r>    6.0216    0.7069 </r>
       <r>    8.6810   -0.0000 </r>
       <r>    9.5162   -0.0000 </r>
       <r>   11.2359   -0.0000 </r>
       <r>   12.2454    0.0000 </r>
       <r>   14.7564    0.0000 </r>
       <r>   15.8032    0.0000 </r>
       <r>   16.7683    0.0000 </r>
      </set>
      <set comment="kpoint 114">
       <r>   -1.1774    1.0000 </r>
       <r>    0.2246    1.0000 </r>
       <r>    2.7532    1.0000 </r>
       <r>    2.9586    1.0000 </r>
       <r>    3.2278    1.0000 </r>
       <r>    3.4845    1.0000 </r>
       <r>    3.6957    1.0000 </r>
       <r>    4.0070    1.0000 </r>
       <r>    4.1289    1.0000 </r>
       <r>    4.3030    1.0000 </r>
       <r>    4.8458    1.0000 </r>
       <r>    4.9015    1.0000 </r>
       <r>    5.1089    1.0000 </r>
       <r>    5.2234    1.0000 </r>
       <r>    5.5083    1.0002 </r>
       <r>    5.5453    1.0006 </r>
       <r>    6.0066    0.7618 </r>
       <r>    9.0908   -0.0000 </r>
       <r>    9.8082   -0.0000 </r>
       <r>   10.8461   -0.0000 </r>
       <r>   11.6389    0.0000 </r>
       <r>   14.8764    0.0000 </r>
       <r>   16.0193    0.0000 </r>
       <r>   16.8506    0.0000 </r>
      </set>
      <set comment="kpoint 115">
       <r>   -0.9162    1.0000 </r>
       <r>   -0.0642    1.0000 </r>
       <r>    2.7889    1.0000 </r>
       <r>    2.9468    1.0000 </r>
       <r>    3.2409    1.0000 </r>
       <r>    3.4855    1.0000 </r>
       <r>    3.8268    1.0000 </r>
       <r>    3.8952    1.0000 </r>
       <r>    4.1709    1.0000 </r>
       <r>    4.2717    1.0000 </r>
       <r>    4.8399    1.0000 </r>
       <r>    4.8597    1.0000 </r>
       <r>    5.1399    1.0000 </r>
       <r>    5.1661    1.0000 </r>
       <r>    5.4659    1.0001 </r>
       <r>    5.5467    1.0006 </r>
       <r>    6.0017    0.7790 </r>
       <r>    9.3440   -0.0000 </r>
       <r>    9.7985   -0.0000 </r>
       <r>   10.8552   -0.0000 </r>
       <r>   11.2872   -0.0000 </r>
       <r>   14.9254    0.0000 </r>
       <r>   16.1345    0.0000 </r>
       <r>   16.7475    0.0000 </r>
      </set>
      <set comment="kpoint 116">
       <r>   -2.4825    1.0000 </r>
       <r>    2.1125    1.0000 </r>
       <r>    2.2816    1.0000 </r>
       <r>    2.8396    1.0000 </r>
       <r>    2.9575    1.0000 </r>
       <r>    3.2702    1.0000 </r>
       <r>    3.4339    1.0000 </r>
       <r>    4.0131    1.0000 </r>
       <r>    4.4513    1.0000 </r>
       <r>    4.5051    1.0000 </r>
       <r>    5.0333    1.0000 </r>
       <r>    5.1443    1.0000 </r>
       <r>    5.3277    1.0000 </r>
       <r>    5.4579    1.0001 </r>
       <r>    5.4774    1.0001 </r>
       <r>    6.0717    0.5024 </r>
       <r>    6.4697   -0.0083 </r>
       <r>    7.2952   -0.0000 </r>
       <r>    8.6059   -0.0000 </r>
       <r>   12.5236    0.0000 </r>
       <r>   14.2390    0.0000 </r>
       <r>   14.8694    0.0000 </r>
       <r>   15.0198    0.0000 </r>
       <r>   16.0662    0.0000 </r>
      </set>
      <set comment="kpoint 117">
       <r>   -2.1717    1.0000 </r>
       <r>    1.8582    1.0000 </r>
       <r>    2.3191    1.0000 </r>
       <r>    2.9272    1.0000 </r>
       <r>    2.9976    1.0000 </r>
       <r>    3.3098    1.0000 </r>
       <r>    3.5168    1.0000 </r>
       <r>    3.9492    1.0000 </r>
       <r>    4.2924    1.0000 </r>
       <r>    4.4549    1.0000 </r>
       <r>    5.0168    1.0000 </r>
       <r>    5.1086    1.0000 </r>
       <r>    5.2414    1.0000 </r>
       <r>    5.3724    1.0000 </r>
       <r>    5.4614    1.0001 </r>
       <r>    6.0246    0.6954 </r>
       <r>    6.2353    0.0061 </r>
       <r>    7.4101   -0.0000 </r>
       <r>    8.9411   -0.0000 </r>
       <r>   11.7605    0.0000 </r>
       <r>   13.9178    0.0000 </r>
       <r>   14.6156    0.0000 </r>
       <r>   15.2685    0.0000 </r>
       <r>   16.4458    0.0000 </r>
      </set>
      <set comment="kpoint 118">
       <r>   -1.8030    1.0000 </r>
       <r>    1.4177    1.0000 </r>
       <r>    2.4258    1.0000 </r>
       <r>    2.9842    1.0000 </r>
       <r>    3.0896    1.0000 </r>
       <r>    3.3770    1.0000 </r>
       <r>    3.5663    1.0000 </r>
       <r>    3.9413    1.0000 </r>
       <r>    4.1612    1.0000 </r>
       <r>    4.4068    1.0000 </r>
       <r>    4.9535    1.0000 </r>
       <r>    5.1100    1.0000 </r>
       <r>    5.1345    1.0000 </r>
       <r>    5.2987    1.0000 </r>
       <r>    5.4582    1.0001 </r>
       <r>    5.9273    0.9682 </r>
       <r>    6.0113    0.7449 </r>
       <r>    7.6894   -0.0000 </r>
       <r>    9.2709   -0.0000 </r>
       <r>   11.1046   -0.0000 </r>
       <r>   13.2148    0.0000 </r>
       <r>   14.7484    0.0000 </r>
       <r>   15.6206    0.0000 </r>
       <r>   16.6851    0.0000 </r>
      </set>
      <set comment="kpoint 119">
       <r>   -1.3890    1.0000 </r>
       <r>    0.9157    1.0000 </r>
       <r>    2.5166    1.0000 </r>
       <r>    3.0155    1.0000 </r>
       <r>    3.1729    1.0000 </r>
       <r>    3.4794    1.0000 </r>
       <r>    3.5823    1.0000 </r>
       <r>    3.9862    1.0000 </r>
       <r>    4.0708    1.0000 </r>
       <r>    4.3513    1.0000 </r>
       <r>    4.8945    1.0000 </r>
       <r>    5.0300    1.0000 </r>
       <r>    5.1135    1.0000 </r>
       <r>    5.2361    1.0000 </r>
       <r>    5.4583    1.0001 </r>
       <r>    5.7271    1.0175 </r>
       <r>    5.9563    0.9108 </r>
       <r>    8.0295   -0.0000 </r>
       <r>    9.4588   -0.0000 </r>
       <r>   10.7042   -0.0000 </r>
       <r>   12.5277    0.0000 </r>
       <r>   14.9270    0.0000 </r>
       <r>   16.0019    0.0000 </r>
       <r>   16.8923    0.0000 </r>
      </set>
      <set comment="kpoint 120">
       <r>   -0.9667    1.0000 </r>
       <r>    0.4263    1.0000 </r>
       <r>    2.5766    1.0000 </r>
       <r>    3.0297    1.0000 </r>
       <r>    3.2217    1.0000 </r>
       <r>    3.5283    1.0000 </r>
       <r>    3.6656    1.0000 </r>
       <r>    3.9327    1.0000 </r>
       <r>    4.1167    1.0000 </r>
       <r>    4.2860    1.0000 </r>
       <r>    4.8498    1.0000 </r>
       <r>    4.9522    1.0000 </r>
       <r>    5.1190    1.0000 </r>
       <r>    5.1935    1.0000 </r>
       <r>    5.4590    1.0001 </r>
       <r>    5.5887    1.0017 </r>
       <r>    5.9297    0.9643 </r>
       <r>    8.4027   -0.0000 </r>
       <r>    9.2817   -0.0000 </r>
       <r>   10.7775   -0.0000 </r>
       <r>   11.9179    0.0000 </r>
       <r>   15.0780    0.0000 </r>
       <r>   16.3694    0.0000 </r>
       <r>   17.0037    0.0000 </r>
      </set>
      <set comment="kpoint 121">
       <r>   -0.7191    1.0000 </r>
       <r>    0.1541    1.0000 </r>
       <r>    2.5977    1.0000 </r>
       <r>    3.0326    1.0000 </r>
       <r>    3.2383    1.0000 </r>
       <r>    3.5288    1.0000 </r>
       <r>    3.7670    1.0000 </r>
       <r>    3.8506    1.0000 </r>
       <r>    4.1851    1.0000 </r>
       <r>    4.2293    1.0000 </r>
       <r>    4.8313    1.0000 </r>
       <r>    4.9209    1.0000 </r>
       <r>    5.1294    1.0000 </r>
       <r>    5.1742    1.0000 </r>
       <r>    5.4593    1.0001 </r>
       <r>    5.5387    1.0005 </r>
       <r>    5.9208    0.9782 </r>
       <r>    8.6888   -0.0000 </r>
       <r>    9.0119   -0.0000 </r>
       <r>   11.0060   -0.0000 </r>
       <r>   11.5589    0.0000 </r>
       <r>   15.1396    0.0000 </r>
       <r>   16.5819    0.0000 </r>
       <r>   16.9456    0.0000 </r>
      </set>
      <set comment="kpoint 122">
       <r>   -1.8682    1.0000 </r>
       <r>    1.9773    1.0000 </r>
       <r>    2.0425    1.0000 </r>
       <r>    2.9900    1.0000 </r>
       <r>    3.0305    1.0000 </r>
       <r>    3.3348    1.0000 </r>
       <r>    3.6191    1.0000 </r>
       <r>    3.8690    1.0000 </r>
       <r>    4.1696    1.0000 </r>
       <r>    4.4311    1.0000 </r>
       <r>    5.0374    1.0000 </r>
       <r>    5.0773    1.0000 </r>
       <r>    5.1997    1.0000 </r>
       <r>    5.2718    1.0000 </r>
       <r>    5.4181    1.0000 </r>
       <r>    5.9689    0.8792 </r>
       <r>    6.2097    0.0447 </r>
       <r>    7.1975   -0.0000 </r>
       <r>    9.1889   -0.0000 </r>
       <r>   11.0581   -0.0000 </r>
       <r>   14.1768    0.0000 </r>
       <r>   14.3399    0.0000 </r>
       <r>   14.9713    0.0000 </r>
       <r>   17.4067    0.0000 </r>
      </set>
      <set comment="kpoint 123">
       <r>   -1.5093    1.0000 </r>
       <r>    1.5969    1.0000 </r>
       <r>    2.1509    1.0000 </r>
       <r>    3.0411    1.0000 </r>
       <r>    3.1046    1.0000 </r>
       <r>    3.3815    1.0000 </r>
       <r>    3.6748    1.0000 </r>
       <r>    3.8524    1.0000 </r>
       <r>    4.0764    1.0000 </r>
       <r>    4.4053    1.0000 </r>
       <r>    4.9725    1.0000 </r>
       <r>    5.0976    1.0000 </r>
       <r>    5.1365    1.0000 </r>
       <r>    5.1984    1.0000 </r>
       <r>    5.3959    1.0000 </r>
       <r>    5.9013    1.0027 </r>
       <r>    6.0284    0.6807 </r>
       <r>    7.2790   -0.0000 </r>
       <r>    9.2907   -0.0000 </r>
       <r>   10.6231   -0.0000 </r>
       <r>   13.5482    0.0000 </r>
       <r>   14.5913    0.0000 </r>
       <r>   15.1572    0.0000 </r>
       <r>   17.6881    0.0000 </r>
      </set>
      <set comment="kpoint 124">
       <r>   -1.1087    1.0000 </r>
       <r>    1.1280    1.0000 </r>
       <r>    2.2652    1.0000 </r>
       <r>    3.0773    1.0000 </r>
       <r>    3.1715    1.0000 </r>
       <r>    3.4620    1.0000 </r>
       <r>    3.6582    1.0000 </r>
       <r>    3.8960    1.0000 </r>
       <r>    4.0481    1.0000 </r>
       <r>    4.3605    1.0000 </r>
       <r>    4.9060    1.0000 </r>
       <r>    5.0433    1.0000 </r>
       <r>    5.1050    1.0000 </r>
       <r>    5.1816    1.0000 </r>
       <r>    5.3813    1.0000 </r>
       <r>    5.7799    1.0293 </r>
       <r>    5.8914    1.0121 </r>
       <r>    7.5104   -0.0000 </r>
       <r>    9.0489   -0.0000 </r>
       <r>   10.6587   -0.0000 </r>
       <r>   12.8621    0.0000 </r>
       <r>   14.9081    0.0000 </r>
       <r>   15.4347    0.0000 </r>
       <r>   17.4508    0.0000 </r>
      </set>
      <set comment="kpoint 125">
       <r>   -0.7049    1.0000 </r>
       <r>    0.6702    1.0000 </r>
       <r>    2.3392    1.0000 </r>
       <r>    3.0964    1.0000 </r>
       <r>    3.2135    1.0000 </r>
       <r>    3.5448    1.0000 </r>
       <r>    3.6530    1.0000 </r>
       <r>    3.8733    1.0000 </r>
       <r>    4.1230    1.0000 </r>
       <r>    4.2957    1.0000 </r>
       <r>    4.8550    1.0000 </r>
       <r>    4.9674    1.0000 </r>
       <r>    5.0963    1.0000 </r>
       <r>    5.1972    1.0000 </r>
       <r>    5.3680    1.0000 </r>
       <r>    5.6479    1.0053 </r>
       <r>    5.8444    1.0342 </r>
       <r>    7.8156   -0.0000 </r>
       <r>    8.6307   -0.0000 </r>
       <r>   10.9844   -0.0000 </r>
       <r>   12.2570    0.0000 </r>
       <r>   15.1418    0.0000 </r>
       <r>   15.7556    0.0000 </r>
       <r>   17.0518    0.0000 </r>
      </set>
      <set comment="kpoint 126">
       <r>   -0.4746    1.0000 </r>
       <r>    0.4197    1.0000 </r>
       <r>    2.3646    1.0000 </r>
       <r>    3.1009    1.0000 </r>
       <r>    3.2290    1.0000 </r>
       <r>    3.5687    1.0000 </r>
       <r>    3.6765    1.0000 </r>
       <r>    3.8440    1.0000 </r>
       <r>    4.2074    1.0000 </r>
       <r>    4.2258    1.0000 </r>
       <r>    4.8368    1.0000 </r>
       <r>    4.9297    1.0000 </r>
       <r>    5.1007    1.0000 </r>
       <r>    5.2050    1.0000 </r>
       <r>    5.3619    1.0000 </r>
       <r>    5.5976    1.0020 </r>
       <r>    5.8302    1.0354 </r>
       <r>    8.1031   -0.0000 </r>
       <r>    8.2931   -0.0000 </r>
       <r>   11.2483   -0.0000 </r>
       <r>   11.9124    0.0000 </r>
       <r>   15.2291    0.0000 </r>
       <r>   15.9490    0.0000 </r>
       <r>   16.8260    0.0000 </r>
      </set>
      <set comment="kpoint 127">
       <r>   -1.1637    1.0000 </r>
       <r>    1.7725    1.0000 </r>
       <r>    1.7875    1.0000 </r>
       <r>    3.0711    1.0000 </r>
       <r>    3.1561    1.0000 </r>
       <r>    3.4109    1.0000 </r>
       <r>    3.7761    1.0000 </r>
       <r>    3.7765    1.0000 </r>
       <r>    4.0311    1.0000 </r>
       <r>    4.3977    1.0000 </r>
       <r>    4.9728    1.0000 </r>
       <r>    5.0366    1.0000 </r>
       <r>    5.0988    1.0000 </r>
       <r>    5.1773    1.0000 </r>
       <r>    5.3527    1.0000 </r>
       <r>    5.8331    1.0353 </r>
       <r>    5.9640    0.8918 </r>
       <r>    7.1163   -0.0000 </r>
       <r>    8.9721   -0.0000 </r>
       <r>   10.6161   -0.0000 </r>
       <r>   13.8833    0.0000 </r>
       <r>   13.9566    0.0000 </r>
       <r>   15.2927    0.0000 </r>
       <r>   17.6064    0.0000 </r>
      </set>
      <set comment="kpoint 128">
       <r>   -0.7809    1.0000 </r>
       <r>    1.3554    1.0000 </r>
       <r>    1.9409    1.0000 </r>
       <r>    3.0867    1.0000 </r>
       <r>    3.1910    1.0000 </r>
       <r>    3.4789    1.0000 </r>
       <r>    3.7246    1.0000 </r>
       <r>    3.8271    1.0000 </r>
       <r>    4.0593    1.0000 </r>
       <r>    4.3685    1.0000 </r>
       <r>    4.9247    1.0000 </r>
       <r>    4.9844    1.0000 </r>
       <r>    5.0635    1.0000 </r>
       <r>    5.1941    1.0000 </r>
       <r>    5.3205    1.0000 </r>
       <r>    5.7548    1.0236 </r>
       <r>    5.8326    1.0353 </r>
       <r>    7.1784   -0.0000 </r>
       <r>    8.4966   -0.0000 </r>
       <r>   10.9078   -0.0000 </r>
       <r>   13.2363    0.0000 </r>
       <r>   14.3126    0.0000 </r>
       <r>   15.5183    0.0000 </r>
       <r>   17.0970    0.0000 </r>
      </set>
      <set comment="kpoint 129">
       <r>   -0.4013    1.0000 </r>
       <r>    0.9398    1.0000 </r>
       <r>    2.0526    1.0000 </r>
       <r>    3.0917    1.0000 </r>
       <r>    3.2085    1.0000 </r>
       <r>    3.5538    1.0000 </r>
       <r>    3.6975    1.0000 </r>
       <r>    3.8242    1.0000 </r>
       <r>    4.1499    1.0000 </r>
       <r>    4.3155    1.0000 </r>
       <r>    4.8731    1.0000 </r>
       <r>    4.9225    1.0000 </r>
       <r>    5.0727    1.0000 </r>
       <r>    5.2137    1.0000 </r>
       <r>    5.2885    1.0000 </r>
       <r>    5.6700    1.0077 </r>
       <r>    5.7482    1.0221 </r>
       <r>    7.3754   -0.0000 </r>
       <r>    8.0474   -0.0000 </r>
       <r>   11.2973   -0.0000 </r>
       <r>   12.6407    0.0000 </r>
       <r>   14.6551    0.0000 </r>
       <r>   15.7481    0.0000 </r>
       <r>   16.6005    0.0000 </r>
      </set>
      <set comment="kpoint 130">
       <r>   -0.1918    1.0000 </r>
       <r>    0.7165    1.0000 </r>
       <r>    2.0927    1.0000 </r>
       <r>    3.0914    1.0000 </r>
       <r>    3.2156    1.0000 </r>
       <r>    3.5870    1.0000 </r>
       <r>    3.6900    1.0000 </r>
       <r>    3.8163    1.0000 </r>
       <r>    4.2356    1.0000 </r>
       <r>    4.2496    1.0000 </r>
       <r>    4.8646    1.0000 </r>
       <r>    4.8797    1.0000 </r>
       <r>    5.0827    1.0000 </r>
       <r>    5.2284    1.0000 </r>
       <r>    5.2686    1.0000 </r>
       <r>    5.6312    1.0039 </r>
       <r>    5.7245    1.0169 </r>
       <r>    7.6278   -0.0000 </r>
       <r>    7.7107   -0.0000 </r>
       <r>   11.5594    0.0000 </r>
       <r>   12.3126    0.0000 </r>
       <r>   14.8092    0.0000 </r>
       <r>   15.8973    0.0000 </r>
       <r>   16.3327    0.0000 </r>
      </set>
      <set comment="kpoint 131">
       <r>   -0.4217    1.0000 </r>
       <r>    1.5650    1.0000 </r>
       <r>    1.5756    1.0000 </r>
       <r>    3.0513    1.0000 </r>
       <r>    3.1996    1.0000 </r>
       <r>    3.5467    1.0000 </r>
       <r>    3.7546    1.0000 </r>
       <r>    3.7911    1.0000 </r>
       <r>    4.1123    1.0000 </r>
       <r>    4.3610    1.0000 </r>
       <r>    4.8887    1.0000 </r>
       <r>    4.9621    1.0000 </r>
       <r>    5.0186    1.0000 </r>
       <r>    5.2183    1.0000 </r>
       <r>    5.2701    1.0000 </r>
       <r>    5.6816    1.0093 </r>
       <r>    5.7554    1.0238 </r>
       <r>    7.0583   -0.0000 </r>
       <r>    7.9918   -0.0000 </r>
       <r>   11.2700   -0.0000 </r>
       <r>   13.5448    0.0000 </r>
       <r>   13.7365    0.0000 </r>
       <r>   15.7283    0.0000 </r>
       <r>   16.5554    0.0000 </r>
      </set>
      <set comment="kpoint 132">
       <r>   -0.0726    1.0000 </r>
       <r>    1.2070    1.0000 </r>
       <r>    1.7327    1.0000 </r>
       <r>    3.0048    1.0000 </r>
       <r>    3.2012    1.0000 </r>
       <r>    3.6185    1.0000 </r>
       <r>    3.7489    1.0000 </r>
       <r>    3.7872    1.0000 </r>
       <r>    4.1937    1.0000 </r>
       <r>    4.3296    1.0000 </r>
       <r>    4.8290    1.0000 </r>
       <r>    4.9350    1.0000 </r>
       <r>    5.0310    1.0000 </r>
       <r>    5.2131    1.0000 </r>
       <r>    5.2397    1.0000 </r>
       <r>    5.6236    1.0034 </r>
       <r>    5.6743    1.0083 </r>
       <r>    7.1128   -0.0000 </r>
       <r>    7.5879   -0.0000 </r>
       <r>   11.6733    0.0000 </r>
       <r>   13.0420    0.0000 </r>
       <r>   14.0146    0.0000 </r>
       <r>   15.8400    0.0000 </r>
       <r>   16.1592    0.0000 </r>
      </set>
      <set comment="kpoint 133">
       <r>    0.1132    1.0000 </r>
       <r>    1.0153    1.0000 </r>
       <r>    1.7949    1.0000 </r>
       <r>    2.9829    1.0000 </r>
       <r>    3.2019    1.0000 </r>
       <r>    3.6476    1.0000 </r>
       <r>    3.7468    1.0000 </r>
       <r>    3.7859    1.0000 </r>
       <r>    4.2668    1.0000 </r>
       <r>    4.2787    1.0000 </r>
       <r>    4.8070    1.0000 </r>
       <r>    4.9133    1.0000 </r>
       <r>    5.0480    1.0000 </r>
       <r>    5.1895    1.0000 </r>
       <r>    5.2433    1.0000 </r>
       <r>    5.6109    1.0026 </r>
       <r>    5.6332    1.0041 </r>
       <r>    7.2837   -0.0000 </r>
       <r>    7.3058   -0.0000 </r>
       <r>   11.9291    0.0000 </r>
       <r>   12.7283    0.0000 </r>
       <r>   14.1813    0.0000 </r>
       <r>   15.7508    0.0000 </r>
       <r>   16.1181    0.0000 </r>
      </set>
      <set comment="kpoint 134">
       <r>    0.2406    1.0000 </r>
       <r>    1.4156    1.0000 </r>
       <r>    1.4287    1.0000 </r>
       <r>    2.8975    1.0000 </r>
       <r>    3.1944    1.0000 </r>
       <r>    3.6932    1.0000 </r>
       <r>    3.7651    1.0000 </r>
       <r>    3.7849    1.0000 </r>
       <r>    4.2477    1.0000 </r>
       <r>    4.3255    1.0000 </r>
       <r>    4.7690    1.0000 </r>
       <r>    4.9780    1.0000 </r>
       <r>    4.9904    1.0000 </r>
       <r>    5.1529    1.0000 </r>
       <r>    5.2465    1.0000 </r>
       <r>    5.5507    1.0007 </r>
       <r>    5.6331    1.0040 </r>
       <r>    7.0242   -0.0000 </r>
       <r>    7.2673   -0.0000 </r>
       <r>   12.0781    0.0000 </r>
       <r>   13.3370    0.0000 </r>
       <r>   13.5071    0.0000 </r>
       <r>   15.4686    0.0000 </r>
       <r>   16.2498    0.0000 </r>
      </set>
      <set comment="kpoint 135">
       <r>    0.4018    1.0000 </r>
       <r>    1.2611    1.0000 </r>
       <r>    1.5095    1.0000 </r>
       <r>    2.8470    1.0000 </r>
       <r>    3.1919    1.0000 </r>
       <r>    3.7225    1.0000 </r>
       <r>    3.7643    1.0000 </r>
       <r>    3.7941    1.0000 </r>
       <r>    4.2945    1.0000 </r>
       <r>    4.2992    1.0000 </r>
       <r>    4.7453    1.0000 </r>
       <r>    4.9661    1.0000 </r>
       <r>    5.0070    1.0000 </r>
       <r>    5.1192    1.0000 </r>
       <r>    5.2502    1.0000 </r>
       <r>    5.5256    1.0004 </r>
       <r>    5.6126    1.0027 </r>
       <r>    7.0797   -0.0000 </r>
       <r>    7.0822   -0.0000 </r>
       <r>   12.3353    0.0000 </r>
       <r>   13.0975    0.0000 </r>
       <r>   13.6013    0.0000 </r>
       <r>   15.2643    0.0000 </r>
       <r>   16.3270    0.0000 </r>
      </set>
      <set comment="kpoint 136">
       <r>    0.5490    1.0000 </r>
       <r>    1.3632    1.0000 </r>
       <r>    1.3632    1.0000 </r>
       <r>    2.7820    1.0000 </r>
       <r>    3.1882    1.0000 </r>
       <r>    3.7566    1.0000 </r>
       <r>    3.7566    1.0000 </r>
       <r>    3.8112    1.0000 </r>
       <r>    4.3064    1.0000 </r>
       <r>    4.3064    1.0000 </r>
       <r>    4.7207    1.0000 </r>
       <r>    4.9907    1.0000 </r>
       <r>    4.9907    1.0000 </r>
       <r>    5.0836    1.0000 </r>
       <r>    5.2516    1.0000 </r>
       <r>    5.4968    1.0002 </r>
       <r>    5.5990    1.0021 </r>
       <r>    7.0130   -0.0000 </r>
       <r>    7.0130   -0.0000 </r>
       <r>   12.6102    0.0000 </r>
       <r>   13.2669    0.0000 </r>
       <r>   13.2669    0.0000 </r>
       <r>   15.0541    0.0000 </r>
       <r>   16.4143    0.0000 </r>
      </set>
      <set comment="kpoint 137">
       <r>   -2.8004    1.0000 </r>
       <r>    2.1590    1.0000 </r>
       <r>    2.5847    1.0000 </r>
       <r>    2.5847    1.0000 </r>
       <r>    2.9216    1.0000 </r>
       <r>    3.2879    1.0000 </r>
       <r>    3.2879    1.0000 </r>
       <r>    4.0993    1.0000 </r>
       <r>    4.6295    1.0000 </r>
       <r>    4.6295    1.0000 </r>
       <r>    5.1165    1.0000 </r>
       <r>    5.1165    1.0000 </r>
       <r>    5.4638    1.0001 </r>
       <r>    5.4638    1.0001 </r>
       <r>    5.5355    1.0005 </r>
       <r>    6.1388    0.2349 </r>
       <r>    6.8601   -0.0000 </r>
       <r>    7.5895   -0.0000 </r>
       <r>    7.5895   -0.0000 </r>
       <r>   14.3013    0.0000 </r>
       <r>   14.3013    0.0000 </r>
       <r>   14.4788    0.0000 </r>
       <r>   15.2147    0.0000 </r>
       <r>   15.2147    0.0000 </r>
      </set>
      <set comment="kpoint 138">
       <r>   -2.5529    1.0000 </r>
       <r>    2.1087    1.0000 </r>
       <r>    2.4611    1.0000 </r>
       <r>    2.7338    1.0000 </r>
       <r>    2.9226    1.0000 </r>
       <r>    3.3147    1.0000 </r>
       <r>    3.3716    1.0000 </r>
       <r>    4.0227    1.0000 </r>
       <r>    4.5030    1.0000 </r>
       <r>    4.5279    1.0000 </r>
       <r>    5.0314    1.0000 </r>
       <r>    5.1248    1.0000 </r>
       <r>    5.3731    1.0000 </r>
       <r>    5.4450    1.0000 </r>
       <r>    5.4687    1.0001 </r>
       <r>    6.1197    0.3052 </r>
       <r>    6.6246   -0.0003 </r>
       <r>    7.6565   -0.0000 </r>
       <r>    7.8329   -0.0000 </r>
       <r>   13.5711    0.0000 </r>
       <r>   13.6618    0.0000 </r>
       <r>   14.7495    0.0000 </r>
       <r>   15.1868    0.0000 </r>
       <r>   15.4738    0.0000 </r>
      </set>
      <set comment="kpoint 139">
       <r>   -2.2407    1.0000 </r>
       <r>    1.8163    1.0000 </r>
       <r>    2.4715    1.0000 </r>
       <r>    2.9036    1.0000 </r>
       <r>    2.9444    1.0000 </r>
       <r>    3.3532    1.0000 </r>
       <r>    3.4433    1.0000 </r>
       <r>    3.9817    1.0000 </r>
       <r>    4.3745    1.0000 </r>
       <r>    4.4010    1.0000 </r>
       <r>    4.9930    1.0000 </r>
       <r>    5.1111    1.0000 </r>
       <r>    5.2646    1.0000 </r>
       <r>    5.3746    1.0000 </r>
       <r>    5.4719    1.0001 </r>
       <r>    6.0862    0.4412 </r>
       <r>    6.2553   -0.0139 </r>
       <r>    7.9862   -0.0000 </r>
       <r>    8.1077   -0.0000 </r>
       <r>   12.7962    0.0000 </r>
       <r>   12.8595    0.0000 </r>
       <r>   15.1206    0.0000 </r>
       <r>   15.3107    0.0000 </r>
       <r>   15.6805    0.0000 </r>
      </set>
      <set comment="kpoint 140">
       <r>   -1.8701    1.0000 </r>
       <r>    1.3717    1.0000 </r>
       <r>    2.5356    1.0000 </r>
       <r>    2.9771    1.0000 </r>
       <r>    3.0686    1.0000 </r>
       <r>    3.4139    1.0000 </r>
       <r>    3.4878    1.0000 </r>
       <r>    3.9885    1.0000 </r>
       <r>    4.2458    1.0000 </r>
       <r>    4.3039    1.0000 </r>
       <r>    4.9647    1.0000 </r>
       <r>    5.0884    1.0000 </r>
       <r>    5.1511    1.0000 </r>
       <r>    5.3164    1.0000 </r>
       <r>    5.4735    1.0001 </r>
       <r>    5.9394    0.9467 </r>
       <r>    6.0472    0.6052 </r>
       <r>    8.3935   -0.0000 </r>
       <r>    8.4000   -0.0000 </r>
       <r>   12.0899    0.0000 </r>
       <r>   12.1008    0.0000 </r>
       <r>   15.4788    0.0000 </r>
       <r>   15.5073    0.0000 </r>
       <r>   15.9108    0.0000 </r>
      </set>
      <set comment="kpoint 141">
       <r>   -1.4538    1.0000 </r>
       <r>    0.8642    1.0000 </r>
       <r>    2.5972    1.0000 </r>
       <r>    3.0058    1.0000 </r>
       <r>    3.1903    1.0000 </r>
       <r>    3.5083    1.0000 </r>
       <r>    3.5173    1.0000 </r>
       <r>    4.0396    1.0000 </r>
       <r>    4.1163    1.0000 </r>
       <r>    4.2446    1.0000 </r>
       <r>    4.9304    1.0000 </r>
       <r>    5.0534    1.0000 </r>
       <r>    5.0757    1.0000 </r>
       <r>    5.2580    1.0000 </r>
       <r>    5.4742    1.0001 </r>
       <r>    5.7038    1.0129 </r>
       <r>    6.0121    0.7420 </r>
       <r>    8.6903   -0.0000 </r>
       <r>    8.8394   -0.0000 </r>
       <r>   11.4063   -0.0000 </r>
       <r>   11.4938   -0.0000 </r>
       <r>   15.6509    0.0000 </r>
       <r>   15.8939    0.0000 </r>
       <r>   16.1773    0.0000 </r>
      </set>
      <set comment="kpoint 142">
       <r>   -1.0281    1.0000 </r>
       <r>    0.3692    1.0000 </r>
       <r>    2.6401    1.0000 </r>
       <r>    3.0196    1.0000 </r>
       <r>    3.2509    1.0000 </r>
       <r>    3.5216    1.0000 </r>
       <r>    3.6600    1.0000 </r>
       <r>    3.9839    1.0000 </r>
       <r>    4.1069    1.0000 </r>
       <r>    4.2062    1.0000 </r>
       <r>    4.8923    1.0000 </r>
       <r>    4.9923    1.0000 </r>
       <r>    5.0850    1.0000 </r>
       <r>    5.1976    1.0000 </r>
       <r>    5.4746    1.0001 </r>
       <r>    5.5563    1.0008 </r>
       <r>    5.9886    0.8221 </r>
       <r>    8.9348   -0.0000 </r>
       <r>    9.2865   -0.0000 </r>
       <r>   10.8103   -0.0000 </r>
       <r>   11.0621   -0.0000 </r>
       <r>   15.7853    0.0000 </r>
       <r>   16.2033    0.0000 </r>
       <r>   16.4911    0.0000 </r>
      </set>
      <set comment="kpoint 143">
       <r>   -0.7775    1.0000 </r>
       <r>    0.0932    1.0000 </r>
       <r>    2.6557    1.0000 </r>
       <r>    3.0223    1.0000 </r>
       <r>    3.2680    1.0000 </r>
       <r>    3.5280    1.0000 </r>
       <r>    3.7718    1.0000 </r>
       <r>    3.8814    1.0000 </r>
       <r>    4.1544    1.0000 </r>
       <r>    4.1751    1.0000 </r>
       <r>    4.8746    1.0000 </r>
       <r>    4.9721    1.0000 </r>
       <r>    5.1038    1.0000 </r>
       <r>    5.1599    1.0000 </r>
       <r>    5.4748    1.0001 </r>
       <r>    5.5056    1.0002 </r>
       <r>    5.9804    0.8470 </r>
       <r>    9.0399   -0.0000 </r>
       <r>    9.5477   -0.0000 </r>
       <r>   10.4995   -0.0000 </r>
       <r>   10.8939   -0.0000 </r>
       <r>   15.8372    0.0000 </r>
       <r>   16.3218    0.0000 </r>
       <r>   16.7293    0.0000 </r>
      </set>
      <set comment="kpoint 144">
       <r>   -2.3096    1.0000 </r>
       <r>    2.1312    1.0000 </r>
       <r>    2.4021    1.0000 </r>
       <r>    2.7422    1.0000 </r>
       <r>    2.9380    1.0000 </r>
       <r>    3.3554    1.0000 </r>
       <r>    3.4389    1.0000 </r>
       <r>    3.9558    1.0000 </r>
       <r>    4.3957    1.0000 </r>
       <r>    4.4310    1.0000 </r>
       <r>    5.0453    1.0000 </r>
       <r>    5.0866    1.0000 </r>
       <r>    5.3329    1.0000 </r>
       <r>    5.3474    1.0000 </r>
       <r>    5.4285    1.0000 </r>
       <r>    6.1069    0.3557 </r>
       <r>    6.6565   -0.0001 </r>
       <r>    7.4045   -0.0000 </r>
       <r>    7.9876   -0.0000 </r>
       <r>   12.7872    0.0000 </r>
       <r>   13.9069    0.0000 </r>
       <r>   13.9496    0.0000 </r>
       <r>   15.4256    0.0000 </r>
       <r>   16.1866    0.0000 </r>
      </set>
      <set comment="kpoint 145">
       <r>   -2.0033    1.0000 </r>
       <r>    1.9210    1.0000 </r>
       <r>    2.3690    1.0000 </r>
       <r>    2.8727    1.0000 </r>
       <r>    2.9805    1.0000 </r>
       <r>    3.3832    1.0000 </r>
       <r>    3.5137    1.0000 </r>
       <r>    3.9204    1.0000 </r>
       <r>    4.2686    1.0000 </r>
       <r>    4.3477    1.0000 </r>
       <r>    5.0292    1.0000 </r>
       <r>    5.0841    1.0000 </r>
       <r>    5.2463    1.0000 </r>
       <r>    5.2696    1.0000 </r>
       <r>    5.4213    1.0000 </r>
       <r>    6.0736    0.4943 </r>
       <r>    6.3844   -0.0249 </r>
       <r>    7.5013   -0.0000 </r>
       <r>    8.2495   -0.0000 </r>
       <r>   12.0082    0.0000 </r>
       <r>   13.1217    0.0000 </r>
       <r>   14.2743    0.0000 </r>
       <r>   15.6108    0.0000 </r>
       <r>   16.5996    0.0000 </r>
      </set>
      <set comment="kpoint 146">
       <r>   -1.6406    1.0000 </r>
       <r>    1.5119    1.0000 </r>
       <r>    2.4127    1.0000 </r>
       <r>    3.0257    1.0000 </r>
       <r>    3.0417    1.0000 </r>
       <r>    3.4195    1.0000 </r>
       <r>    3.5585    1.0000 </r>
       <r>    3.9354    1.0000 </r>
       <r>    4.1627    1.0000 </r>
       <r>    4.2725    1.0000 </r>
       <r>    4.9941    1.0000 </r>
       <r>    5.0782    1.0000 </r>
       <r>    5.1727    1.0000 </r>
       <r>    5.2069    1.0000 </r>
       <r>    5.4183    1.0000 </r>
       <r>    6.0158    0.7284 </r>
       <r>    6.0699    0.5100 </r>
       <r>    7.7677   -0.0000 </r>
       <r>    8.5329   -0.0000 </r>
       <r>   11.3265   -0.0000 </r>
       <r>   12.3803    0.0000 </r>
       <r>   14.6571    0.0000 </r>
       <r>   15.8198    0.0000 </r>
       <r>   16.8570    0.0000 </r>
      </set>
      <set comment="kpoint 147">
       <r>   -1.2350    1.0000 </r>
       <r>    1.0325    1.0000 </r>
       <r>    2.4547    1.0000 </r>
       <r>    3.0800    1.0000 </r>
       <r>    3.1751    1.0000 </r>
       <r>    3.4777    1.0000 </r>
       <r>    3.5785    1.0000 </r>
       <r>    3.9844    1.0000 </r>
       <r>    4.0806    1.0000 </r>
       <r>    4.2153    1.0000 </r>
       <r>    4.9480    1.0000 </r>
       <r>    5.0534    1.0000 </r>
       <r>    5.1122    1.0000 </r>
       <r>    5.1898    1.0000 </r>
       <r>    5.4096    1.0000 </r>
       <r>    5.7851    1.0304 </r>
       <r>    5.9921    0.8109 </r>
       <r>    8.0757   -0.0000 </r>
       <r>    8.7953   -0.0000 </r>
       <r>   10.7929   -0.0000 </r>
       <r>   11.7250    0.0000 </r>
       <r>   15.0604    0.0000 </r>
       <r>   16.0349    0.0000 </r>
       <r>   17.0677    0.0000 </r>
      </set>
      <set comment="kpoint 148">
       <r>   -0.8246    1.0000 </r>
       <r>    0.5635    1.0000 </r>
       <r>    2.4816    1.0000 </r>
       <r>    3.1039    1.0000 </r>
       <r>    3.2614    1.0000 </r>
       <r>    3.5534    1.0000 </r>
       <r>    3.6037    1.0000 </r>
       <r>    3.9562    1.0000 </r>
       <r>    4.0871    1.0000 </r>
       <r>    4.1780    1.0000 </r>
       <r>    4.9068    1.0000 </r>
       <r>    5.0211    1.0000 </r>
       <r>    5.0887    1.0000 </r>
       <r>    5.1888    1.0000 </r>
       <r>    5.3982    1.0000 </r>
       <r>    5.6117    1.0027 </r>
       <r>    5.9596    0.9029 </r>
       <r>    8.3736   -0.0000 </r>
       <r>    8.9446   -0.0000 </r>
       <r>   10.5025   -0.0000 </r>
       <r>   11.1949   -0.0000 </r>
       <r>   15.4313    0.0000 </r>
       <r>   16.2236    0.0000 </r>
       <r>   17.0459    0.0000 </r>
      </set>
      <set comment="kpoint 149">
       <r>   -0.5889    1.0000 </r>
       <r>    0.3058    1.0000 </r>
       <r>    2.4909    1.0000 </r>
       <r>    3.1099    1.0000 </r>
       <r>    3.2878    1.0000 </r>
       <r>    3.5805    1.0000 </r>
       <r>    3.6372    1.0000 </r>
       <r>    3.9137    1.0000 </r>
       <r>    4.1140    1.0000 </r>
       <r>    4.1614    1.0000 </r>
       <r>    4.8918    1.0000 </r>
       <r>    5.0039    1.0000 </r>
       <r>    5.0868    1.0000 </r>
       <r>    5.1895    1.0000 </r>
       <r>    5.3926    1.0000 </r>
       <r>    5.5495    1.0007 </r>
       <r>    5.9480    0.9293 </r>
       <r>    8.5342   -0.0000 </r>
       <r>    8.9461   -0.0000 </r>
       <r>   10.4705   -0.0000 </r>
       <r>   10.9398   -0.0000 </r>
       <r>   15.6094    0.0000 </r>
       <r>   16.3225    0.0000 </r>
       <r>   16.8637    0.0000 </r>
      </set>
      <set comment="kpoint 150">
       <r>   -1.7051    1.0000 </r>
       <r>    1.9643    1.0000 </r>
       <r>    2.1682    1.0000 </r>
       <r>    2.9225    1.0000 </r>
       <r>    3.0481    1.0000 </r>
       <r>    3.3955    1.0000 </r>
       <r>    3.5999    1.0000 </r>
       <r>    3.8738    1.0000 </r>
       <r>    4.1648    1.0000 </r>
       <r>    4.3078    1.0000 </r>
       <r>    5.0546    1.0000 </r>
       <r>    5.0668    1.0000 </r>
       <r>    5.1364    1.0000 </r>
       <r>    5.2398    1.0000 </r>
       <r>    5.3886    1.0000 </r>
       <r>    6.0387    0.6399 </r>
       <r>    6.3626   -0.0297 </r>
       <r>    7.2319   -0.0000 </r>
       <r>    8.4538   -0.0000 </r>
       <r>   11.2838   -0.0000 </r>
       <r>   13.4519    0.0000 </r>
       <r>   13.4708    0.0000 </r>
       <r>   15.8201    0.0000 </r>
       <r>   17.5510    0.0000 </r>
      </set>
      <set comment="kpoint 151">
       <r>   -1.3533    1.0000 </r>
       <r>    1.6636    1.0000 </r>
       <r>    2.1821    1.0000 </r>
       <r>    3.0134    1.0000 </r>
       <r>    3.1304    1.0000 </r>
       <r>    3.4124    1.0000 </r>
       <r>    3.6512    1.0000 </r>
       <r>    3.8731    1.0000 </r>
       <r>    4.0950    1.0000 </r>
       <r>    4.2679    1.0000 </r>
       <r>    5.0060    1.0000 </r>
       <r>    5.0564    1.0000 </r>
       <r>    5.0971    1.0000 </r>
       <r>    5.1985    1.0000 </r>
       <r>    5.3750    1.0000 </r>
       <r>    5.9838    0.8367 </r>
       <r>    6.1328    0.2562 </r>
       <r>    7.2987   -0.0000 </r>
       <r>    8.6179   -0.0000 </r>
       <r>   10.7258   -0.0000 </r>
       <r>   12.7144    0.0000 </r>
       <r>   13.8439    0.0000 </r>
       <r>   16.0432    0.0000 </r>
       <r>   17.5515    0.0000 </r>
      </set>
      <set comment="kpoint 152">
       <r>   -0.9627    1.0000 </r>
       <r>    1.2286    1.0000 </r>
       <r>    2.2437    1.0000 </r>
       <r>    3.1052    1.0000 </r>
       <r>    3.2046    1.0000 </r>
       <r>    3.4468    1.0000 </r>
       <r>    3.6619    1.0000 </r>
       <r>    3.9005    1.0000 </r>
       <r>    4.0764    1.0000 </r>
       <r>    4.2284    1.0000 </r>
       <r>    4.9397    1.0000 </r>
       <r>    5.0014    1.0000 </r>
       <r>    5.1229    1.0000 </r>
       <r>    5.1834    1.0000 </r>
       <r>    5.3591    1.0000 </r>
       <r>    5.8395    1.0348 </r>
       <r>    5.9619    0.8971 </r>
       <r>    7.5185   -0.0000 </r>
       <r>    8.6397   -0.0000 </r>
       <r>   10.4432   -0.0000 </r>
       <r>   12.0493    0.0000 </r>
       <r>   14.2513    0.0000 </r>
       <r>   16.2544    0.0000 </r>
       <r>   16.9962    0.0000 </r>
      </set>
      <set comment="kpoint 153">
       <r>   -0.5734    1.0000 </r>
       <r>    0.7972    1.0000 </r>
       <r>    2.2825    1.0000 </r>
       <r>    3.1533    1.0000 </r>
       <r>    3.2689    1.0000 </r>
       <r>    3.4904    1.0000 </r>
       <r>    3.6702    1.0000 </r>
       <r>    3.8929    1.0000 </r>
       <r>    4.1100    1.0000 </r>
       <r>    4.1953    1.0000 </r>
       <r>    4.9006    1.0000 </r>
       <r>    4.9474    1.0000 </r>
       <r>    5.1439    1.0000 </r>
       <r>    5.2001    1.0000 </r>
       <r>    5.3328    1.0000 </r>
       <r>    5.6576    1.0063 </r>
       <r>    5.9148    0.9867 </r>
       <r>    7.7908   -0.0000 </r>
       <r>    8.4627   -0.0000 </r>
       <r>   10.4859   -0.0000 </r>
       <r>   11.4944   -0.0000 </r>
       <r>   14.6338    0.0000 </r>
       <r>   16.3084    0.0000 </r>
       <r>   16.6198    0.0000 </r>
      </set>
      <set comment="kpoint 154">
       <r>   -0.3570    1.0000 </r>
       <r>    0.5644    1.0000 </r>
       <r>    2.2952    1.0000 </r>
       <r>    3.1634    1.0000 </r>
       <r>    3.2979    1.0000 </r>
       <r>    3.5110    1.0000 </r>
       <r>    3.6770    1.0000 </r>
       <r>    3.8812    1.0000 </r>
       <r>    4.1316    1.0000 </r>
       <r>    4.1816    1.0000 </r>
       <r>    4.9056    1.0000 </r>
       <r>    4.9073    1.0000 </r>
       <r>    5.1536    1.0000 </r>
       <r>    5.2167    1.0000 </r>
       <r>    5.3146    1.0000 </r>
       <r>    5.5877    1.0016 </r>
       <r>    5.8994    1.0047 </r>
       <r>    7.9995   -0.0000 </r>
       <r>    8.2667   -0.0000 </r>
       <r>   10.6256   -0.0000 </r>
       <r>   11.2034   -0.0000 </r>
       <r>   14.8245    0.0000 </r>
       <r>   16.1575    0.0000 </r>
       <r>   16.6111    0.0000 </r>
      </set>
      <set comment="kpoint 155">
       <r>   -1.0166    1.0000 </r>
       <r>    1.7503    1.0000 </r>
       <r>    1.9159    1.0000 </r>
       <r>    3.0270    1.0000 </r>
       <r>    3.2156    1.0000 </r>
       <r>    3.4240    1.0000 </r>
       <r>    3.7181    1.0000 </r>
       <r>    3.8372    1.0000 </r>
       <r>    4.0701    1.0000 </r>
       <r>    4.2625    1.0000 </r>
       <r>    4.9477    1.0000 </r>
       <r>    5.0349    1.0000 </r>
       <r>    5.0625    1.0000 </r>
       <r>    5.2031    1.0000 </r>
       <r>    5.3533    1.0000 </r>
       <r>    5.9293    0.9649 </r>
       <r>    6.0653    0.5293 </r>
       <r>    7.0912   -0.0000 </r>
       <r>    8.5466   -0.0000 </r>
       <r>   10.4170   -0.0000 </r>
       <r>   13.0446    0.0000 </r>
       <r>   13.1443    0.0000 </r>
       <r>   16.2452    0.0000 </r>
       <r>   16.9724    0.0000 </r>
      </set>
      <set comment="kpoint 156">
       <r>   -0.6464    1.0000 </r>
       <r>    1.4323    1.0000 </r>
       <r>    1.9688    1.0000 </r>
       <r>    3.0563    1.0000 </r>
       <r>    3.2623    1.0000 </r>
       <r>    3.4710    1.0000 </r>
       <r>    3.7297    1.0000 </r>
       <r>    3.8454    1.0000 </r>
       <r>    4.0948    1.0000 </r>
       <r>    4.2498    1.0000 </r>
       <r>    4.8669    1.0000 </r>
       <r>    4.9958    1.0000 </r>
       <r>    5.0841    1.0000 </r>
       <r>    5.2103    1.0000 </r>
       <r>    5.3368    1.0000 </r>
       <r>    5.8360    1.0351 </r>
       <r>    5.9082    0.9951 </r>
       <r>    7.1411   -0.0000 </r>
       <r>    8.2820   -0.0000 </r>
       <r>   10.4459   -0.0000 </r>
       <r>   12.4199    0.0000 </r>
       <r>   13.5059    0.0000 </r>
       <r>   16.1279    0.0000 </r>
       <r>   16.6989    0.0000 </r>
      </set>
      <set comment="kpoint 157">
       <r>   -0.2852    1.0000 </r>
       <r>    1.0541    1.0000 </r>
       <r>    2.0438    1.0000 </r>
       <r>    3.0809    1.0000 </r>
       <r>    3.2871    1.0000 </r>
       <r>    3.5126    1.0000 </r>
       <r>    3.7488    1.0000 </r>
       <r>    3.8382    1.0000 </r>
       <r>    4.1511    1.0000 </r>
       <r>    4.2296    1.0000 </r>
       <r>    4.8162    1.0000 </r>
       <r>    4.9519    1.0000 </r>
       <r>    5.1274    1.0000 </r>
       <r>    5.2226    1.0000 </r>
       <r>    5.3067    1.0000 </r>
       <r>    5.6767    1.0086 </r>
       <r>    5.8447    1.0341 </r>
       <r>    7.3281   -0.0000 </r>
       <r>    7.9398   -0.0000 </r>
       <r>   10.6852   -0.0000 </r>
       <r>   11.8563    0.0000 </r>
       <r>   13.8908    0.0000 </r>
       <r>   15.6670    0.0000 </r>
       <r>   16.8315    0.0000 </r>
      </set>
      <set comment="kpoint 158">
       <r>   -0.0927    1.0000 </r>
       <r>    0.8532    1.0000 </r>
       <r>    2.0702    1.0000 </r>
       <r>    3.0892    1.0000 </r>
       <r>    3.2986    1.0000 </r>
       <r>    3.5235    1.0000 </r>
       <r>    3.7732    1.0000 </r>
       <r>    3.8222    1.0000 </r>
       <r>    4.1880    1.0000 </r>
       <r>    4.2104    1.0000 </r>
       <r>    4.8003    1.0000 </r>
       <r>    4.9346    1.0000 </r>
       <r>    5.1505    1.0000 </r>
       <r>    5.2350    1.0000 </r>
       <r>    5.2807    1.0000 </r>
       <r>    5.6088    1.0025 </r>
       <r>    5.8258    1.0354 </r>
       <r>    7.5381   -0.0000 </r>
       <r>    7.6727   -0.0000 </r>
       <r>   10.8839   -0.0000 </r>
       <r>   11.5579    0.0000 </r>
       <r>   14.0852    0.0000 </r>
       <r>   15.4333    0.0000 </r>
       <r>   16.9038    0.0000 </r>
      </set>
      <set comment="kpoint 159">
       <r>   -0.3038    1.0000 </r>
       <r>    1.5717    1.0000 </r>
       <r>    1.6939    1.0000 </r>
       <r>    2.9954    1.0000 </r>
       <r>    3.2820    1.0000 </r>
       <r>    3.5481    1.0000 </r>
       <r>    3.7408    1.0000 </r>
       <r>    3.8546    1.0000 </r>
       <r>    4.1382    1.0000 </r>
       <r>    4.2648    1.0000 </r>
       <r>    4.7825    1.0000 </r>
       <r>    5.0276    1.0000 </r>
       <r>    5.0305    1.0000 </r>
       <r>    5.2274    1.0000 </r>
       <r>    5.3260    1.0000 </r>
       <r>    5.7913    1.0316 </r>
       <r>    5.7925    1.0318 </r>
       <r>    6.9930   -0.0000 </r>
       <r>    7.8641   -0.0000 </r>
       <r>   10.6710   -0.0000 </r>
       <r>   12.7490    0.0000 </r>
       <r>   12.9076    0.0000 </r>
       <r>   15.5400    0.0000 </r>
       <r>   16.9000    0.0000 </r>
      </set>
      <set comment="kpoint 160">
       <r>    0.0207    1.0000 </r>
       <r>    1.3069    1.0000 </r>
       <r>    1.7768    1.0000 </r>
       <r>    2.9451    1.0000 </r>
       <r>    3.2899    1.0000 </r>
       <r>    3.6023    1.0000 </r>
       <r>    3.7530    1.0000 </r>
       <r>    3.8731    1.0000 </r>
       <r>    4.1973    1.0000 </r>
       <r>    4.2646    1.0000 </r>
       <r>    4.7250    1.0000 </r>
       <r>    4.9890    1.0000 </r>
       <r>    5.0706    1.0000 </r>
       <r>    5.2374    1.0000 </r>
       <r>    5.2979    1.0000 </r>
       <r>    5.6592    1.0064 </r>
       <r>    5.7467    1.0218 </r>
       <r>    7.0395   -0.0000 </r>
       <r>    7.4967   -0.0000 </r>
       <r>   10.9942   -0.0000 </r>
       <r>   12.2511    0.0000 </r>
       <r>   13.2205    0.0000 </r>
       <r>   15.0147    0.0000 </r>
       <r>   17.1041    0.0000 </r>
      </set>
      <set comment="kpoint 161">
       <r>    0.1850    1.0000 </r>
       <r>    1.1450    1.0000 </r>
       <r>    1.8262    1.0000 </r>
       <r>    2.9251    1.0000 </r>
       <r>    3.2930    1.0000 </r>
       <r>    3.6129    1.0000 </r>
       <r>    3.7726    1.0000 </r>
       <r>    3.8755    1.0000 </r>
       <r>    4.2424    1.0000 </r>
       <r>    4.2447    1.0000 </r>
       <r>    4.7051    1.0000 </r>
       <r>    4.9777    1.0000 </r>
       <r>    5.0912    1.0000 </r>
       <r>    5.2428    1.0000 </r>
       <r>    5.2723    1.0000 </r>
       <r>    5.6049    1.0023 </r>
       <r>    5.7280    1.0176 </r>
       <r>    7.1944   -0.0000 </r>
       <r>    7.2398   -0.0000 </r>
       <r>   11.2153   -0.0000 </r>
       <r>   11.9529    0.0000 </r>
       <r>   13.4130    0.0000 </r>
       <r>   14.7715    0.0000 </r>
       <r>   17.1892    0.0000 </r>
      </set>
      <set comment="kpoint 162">
       <r>    0.3000    1.0000 </r>
       <r>    1.4869    1.0000 </r>
       <r>    1.5441    1.0000 </r>
       <r>    2.8173    1.0000 </r>
       <r>    3.2876    1.0000 </r>
       <r>    3.6800    1.0000 </r>
       <r>    3.7336    1.0000 </r>
       <r>    3.9347    1.0000 </r>
       <r>    4.2447    1.0000 </r>
       <r>    4.2846    1.0000 </r>
       <r>    4.6596    1.0000 </r>
       <r>    5.0306    1.0000 </r>
       <r>    5.0338    1.0000 </r>
       <r>    5.2417    1.0000 </r>
       <r>    5.2578    1.0000 </r>
       <r>    5.6107    1.0026 </r>
       <r>    5.6680    1.0075 </r>
       <r>    6.9374   -0.0000 </r>
       <r>    7.1783   -0.0000 </r>
       <r>   11.3549   -0.0000 </r>
       <r>   12.5703    0.0000 </r>
       <r>   12.7060    0.0000 </r>
       <r>   14.4799    0.0000 </r>
       <r>   17.3270    0.0000 </r>
      </set>
      <set comment="kpoint 163">
       <r>    0.4337    1.0000 </r>
       <r>    1.3883    1.0000 </r>
       <r>    1.5996    1.0000 </r>
       <r>    2.7615    1.0000 </r>
       <r>    3.2864    1.0000 </r>
       <r>    3.6969    1.0000 </r>
       <r>    3.7416    1.0000 </r>
       <r>    3.9584    1.0000 </r>
       <r>    4.2775    1.0000 </r>
       <r>    4.2795    1.0000 </r>
       <r>    4.6358    1.0000 </r>
       <r>    5.0264    1.0000 </r>
       <r>    5.0523    1.0000 </r>
       <r>    5.2216    1.0000 </r>
       <r>    5.2414    1.0000 </r>
       <r>    5.5824    1.0014 </r>
       <r>    5.6445    1.0050 </r>
       <r>    6.9876   -0.0000 </r>
       <r>    6.9952   -0.0000 </r>
       <r>   11.5910    0.0000 </r>
       <r>   12.3264    0.0000 </r>
       <r>   12.8330    0.0000 </r>
       <r>   14.2379    0.0000 </r>
       <r>   17.4173    0.0000 </r>
      </set>
      <set comment="kpoint 164">
       <r>    0.5492    1.0000 </r>
       <r>    1.4915    1.0000 </r>
       <r>    1.4915    1.0000 </r>
       <r>    2.6866    1.0000 </r>
       <r>    3.2835    1.0000 </r>
       <r>    3.7312    1.0000 </r>
       <r>    3.7312    1.0000 </r>
       <r>    3.9908    1.0000 </r>
       <r>    4.2925    1.0000 </r>
       <r>    4.2925    1.0000 </r>
       <r>    4.6096    1.0000 </r>
       <r>    5.0507    1.0000 </r>
       <r>    5.0507    1.0000 </r>
       <r>    5.1738    1.0000 </r>
       <r>    5.2379    1.0000 </r>
       <r>    5.5685    1.0011 </r>
       <r>    5.6159    1.0029 </r>
       <r>    6.9196   -0.0000 </r>
       <r>    6.9196   -0.0000 </r>
       <r>   11.8455    0.0000 </r>
       <r>   12.5105    0.0000 </r>
       <r>   12.5105    0.0000 </r>
       <r>   14.0005    0.0000 </r>
       <r>   17.5090    0.0000 </r>
      </set>
      <set comment="kpoint 165">
       <r>   -2.0712    1.0000 </r>
       <r>    2.1164    1.0000 </r>
       <r>    2.5606    1.0000 </r>
       <r>    2.5606    1.0000 </r>
       <r>    2.9778    1.0000 </r>
       <r>    3.4465    1.0000 </r>
       <r>    3.4465    1.0000 </r>
       <r>    3.9099    1.0000 </r>
       <r>    4.3252    1.0000 </r>
       <r>    4.3252    1.0000 </r>
       <r>    5.0603    1.0000 </r>
       <r>    5.0603    1.0000 </r>
       <r>    5.2218    1.0000 </r>
       <r>    5.3596    1.0000 </r>
       <r>    5.3596    1.0000 </r>
       <r>    6.1137    0.3287 </r>
       <r>    6.7582   -0.0000 </r>
       <r>    7.5468   -0.0000 </r>
       <r>    7.5468   -0.0000 </r>
       <r>   13.0821    0.0000 </r>
       <r>   13.0821    0.0000 </r>
       <r>   13.0880    0.0000 </r>
       <r>   16.3555    0.0000 </r>
       <r>   16.3555    0.0000 </r>
      </set>
      <set comment="kpoint 166">
       <r>   -1.7715    1.0000 </r>
       <r>    1.9673    1.0000 </r>
       <r>    2.4090    1.0000 </r>
       <r>    2.7459    1.0000 </r>
       <r>    3.0456    1.0000 </r>
       <r>    3.4562    1.0000 </r>
       <r>    3.5237    1.0000 </r>
       <r>    3.8920    1.0000 </r>
       <r>    4.2302    1.0000 </r>
       <r>    4.2449    1.0000 </r>
       <r>    5.0453    1.0000 </r>
       <r>    5.0702    1.0000 </r>
       <r>    5.1309    1.0000 </r>
       <r>    5.2819    1.0000 </r>
       <r>    5.3719    1.0000 </r>
       <r>    6.0934    0.4108 </r>
       <r>    6.5307   -0.0028 </r>
       <r>    7.5609   -0.0000 </r>
       <r>    7.7105   -0.0000 </r>
       <r>   12.2907    0.0000 </r>
       <r>   12.3019    0.0000 </r>
       <r>   13.4260    0.0000 </r>
       <r>   16.5601    0.0000 </r>
       <r>   16.9050    0.0000 </r>
      </set>
      <set comment="kpoint 167">
       <r>   -1.4179    1.0000 </r>
       <r>    1.6220    1.0000 </r>
       <r>    2.3643    1.0000 </r>
       <r>    2.9420    1.0000 </r>
       <r>    3.1196    1.0000 </r>
       <r>    3.4666    1.0000 </r>
       <r>    3.5705    1.0000 </r>
       <r>    3.9192    1.0000 </r>
       <r>    4.1607    1.0000 </r>
       <r>    4.1705    1.0000 </r>
       <r>    5.0199    1.0000 </r>
       <r>    5.0217    1.0000 </r>
       <r>    5.1238    1.0000 </r>
       <r>    5.2159    1.0000 </r>
       <r>    5.3750    1.0000 </r>
       <r>    6.0543    0.5755 </r>
       <r>    6.1716    0.1317 </r>
       <r>    7.8362   -0.0000 </r>
       <r>    7.8826   -0.0000 </r>
       <r>   11.5599    0.0000 </r>
       <r>   11.6342    0.0000 </r>
       <r>   13.8105    0.0000 </r>
       <r>   16.7832    0.0000 </r>
       <r>   17.1149    0.0000 </r>
      </set>
      <set comment="kpoint 168">
       <r>   -1.0248    1.0000 </r>
       <r>    1.1828    1.0000 </r>
       <r>    2.3590    1.0000 </r>
       <r>    3.1274    1.0000 </r>
       <r>    3.1742    1.0000 </r>
       <r>    3.4744    1.0000 </r>
       <r>    3.6058    1.0000 </r>
       <r>    3.9706    1.0000 </r>
       <r>    4.0799    1.0000 </r>
       <r>    4.1470    1.0000 </r>
       <r>    4.9639    1.0000 </r>
       <r>    4.9779    1.0000 </r>
       <r>    5.1554    1.0000 </r>
       <r>    5.1831    1.0000 </r>
       <r>    5.3640    1.0000 </r>
       <r>    5.8631    1.0292 </r>
       <r>    6.0092    0.7527 </r>
       <r>    8.0452   -0.0000 </r>
       <r>    8.1748   -0.0000 </r>
       <r>   10.9193   -0.0000 </r>
       <r>   11.1071   -0.0000 </r>
       <r>   14.2229    0.0000 </r>
       <r>   16.8191    0.0000 </r>
       <r>   16.9971    0.0000 </r>
      </set>
      <set comment="kpoint 169">
       <r>   -0.6323    1.0000 </r>
       <r>    0.7464    1.0000 </r>
       <r>    2.3607    1.0000 </r>
       <r>    3.1983    1.0000 </r>
       <r>    3.2729    1.0000 </r>
       <r>    3.4742    1.0000 </r>
       <r>    3.6476    1.0000 </r>
       <r>    3.9999    1.0000 </r>
       <r>    4.0152    1.0000 </r>
       <r>    4.1528    1.0000 </r>
       <r>    4.9275    1.0000 </r>
       <r>    4.9418    1.0000 </r>
       <r>    5.1815    1.0000 </r>
       <r>    5.1934    1.0000 </r>
       <r>    5.3397    1.0000 </r>
       <r>    5.6465    1.0052 </r>
       <r>    5.9734    0.8668 </r>
       <r>    8.1700   -0.0000 </r>
       <r>    8.4939   -0.0000 </r>
       <r>   10.4220   -0.0000 </r>
       <r>   10.7588   -0.0000 </r>
       <r>   14.6160    0.0000 </r>
       <r>   16.3360    0.0000 </r>
       <r>   17.1594    0.0000 </r>
      </set>
      <set comment="kpoint 170">
       <r>   -0.4136    1.0000 </r>
       <r>    0.5104    1.0000 </r>
       <r>    2.3617    1.0000 </r>
       <r>    3.2035    1.0000 </r>
       <r>    3.3347    1.0000 </r>
       <r>    3.4685    1.0000 </r>
       <r>    3.6694    1.0000 </r>
       <r>    3.9886    1.0000 </r>
       <r>    4.0040    1.0000 </r>
       <r>    4.1613    1.0000 </r>
       <r>    4.9152    1.0000 </r>
       <r>    4.9296    1.0000 </r>
       <r>    5.1882    1.0000 </r>
       <r>    5.2153    1.0000 </r>
       <r>    5.3223    1.0000 </r>
       <r>    5.5626    1.0009 </r>
       <r>    5.9599    0.9020 </r>
       <r>    8.2186   -0.0000 </r>
       <r>    8.6460   -0.0000 </r>
       <r>   10.2107   -0.0000 </r>
       <r>   10.6348   -0.0000 </r>
       <r>   14.8176    0.0000 </r>
       <r>   16.0964    0.0000 </r>
       <r>   17.2213    0.0000 </r>
      </set>
      <set comment="kpoint 171">
       <r>   -1.4811    1.0000 </r>
       <r>    1.9355    1.0000 </r>
       <r>    2.3339    1.0000 </r>
       <r>    2.7483    1.0000 </r>
       <r>    3.1331    1.0000 </r>
       <r>    3.4769    1.0000 </r>
       <r>    3.5770    1.0000 </r>
       <r>    3.8769    1.0000 </r>
       <r>    4.1559    1.0000 </r>
       <r>    4.2025    1.0000 </r>
       <r>    5.0150    1.0000 </r>
       <r>    5.0620    1.0000 </r>
       <r>    5.0667    1.0000 </r>
       <r>    5.2695    1.0000 </r>
       <r>    5.3439    1.0000 </r>
       <r>    6.0822    0.4578 </r>
       <r>    6.5323   -0.0027 </r>
       <r>    7.2789   -0.0000 </r>
       <r>    7.7918   -0.0000 </r>
       <r>   11.5548    0.0000 </r>
       <r>   12.6223    0.0000 </r>
       <r>   12.6431    0.0000 </r>
       <r>   16.9022    0.0000 </r>
       <r>   17.4673    0.0000 </r>
      </set>
      <set comment="kpoint 172">
       <r>   -1.1403    1.0000 </r>
       <r>    1.7178    1.0000 </r>
       <r>    2.2446    1.0000 </r>
       <r>    2.8835    1.0000 </r>
       <r>    3.2191    1.0000 </r>
       <r>    3.4756    1.0000 </r>
       <r>    3.6242    1.0000 </r>
       <r>    3.8961    1.0000 </r>
       <r>    4.1125    1.0000 </r>
       <r>    4.1685    1.0000 </r>
       <r>    4.9251    1.0000 </r>
       <r>    5.0361    1.0000 </r>
       <r>    5.0913    1.0000 </r>
       <r>    5.2373    1.0000 </r>
       <r>    5.3432    1.0000 </r>
       <r>    6.0457    0.6112 </r>
       <r>    6.2596   -0.0173 </r>
       <r>    7.3234   -0.0000 </r>
       <r>    7.9400   -0.0000 </r>
       <r>   10.9374   -0.0000 </r>
       <r>   11.9226    0.0000 </r>
       <r>   13.0144    0.0000 </r>
       <r>   16.7067    0.0000 </r>
       <r>   17.2490    0.0000 </r>
      </set>
      <set comment="kpoint 173">
       <r>   -0.7649    1.0000 </r>
       <r>    1.3503    1.0000 </r>
       <r>    2.2201    1.0000 </r>
       <r>    3.0460    1.0000 </r>
       <r>    3.2755    1.0000 </r>
       <r>    3.4675    1.0000 </r>
       <r>    3.6696    1.0000 </r>
       <r>    3.9246    1.0000 </r>
       <r>    4.0950    1.0000 </r>
       <r>    4.1518    1.0000 </r>
       <r>    4.8569    1.0000 </r>
       <r>    4.9949    1.0000 </r>
       <r>    5.1315    1.0000 </r>
       <r>    5.2300    1.0000 </r>
       <r>    5.3344    1.0000 </r>
       <r>    5.9263    0.9699 </r>
       <r>    6.0108    0.7467 </r>
       <r>    7.5123   -0.0000 </r>
       <r>    8.0657   -0.0000 </r>
       <r>   10.4883   -0.0000 </r>
       <r>   11.3202   -0.0000 </r>
       <r>   13.4269    0.0000 </r>
       <r>   16.0832    0.0000 </r>
       <r>   17.4605    0.0000 </r>
      </set>
      <set comment="kpoint 174">
       <r>   -0.3977    1.0000 </r>
       <r>    0.9643    1.0000 </r>
       <r>    2.2145    1.0000 </r>
       <r>    3.1787    1.0000 </r>
       <r>    3.3108    1.0000 </r>
       <r>    3.4362    1.0000 </r>
       <r>    3.7367    1.0000 </r>
       <r>    3.9188    1.0000 </r>
       <r>    4.0814    1.0000 </r>
       <r>    4.1653    1.0000 </r>
       <r>    4.8149    1.0000 </r>
       <r>    4.9644    1.0000 </r>
       <r>    5.1843    1.0000 </r>
       <r>    5.2491    1.0000 </r>
       <r>    5.3093    1.0000 </r>
       <r>    5.6820    1.0093 </r>
       <r>    5.9661    0.8864 </r>
       <r>    7.7031   -0.0000 </r>
       <r>    8.1252   -0.0000 </r>
       <r>   10.2533   -0.0000 </r>
       <r>   10.8692   -0.0000 </r>
       <r>   13.8253    0.0000 </r>
       <r>   15.5416    0.0000 </r>
       <r>   17.6419    0.0000 </r>
      </set>
      <set comment="kpoint 175">
       <r>   -0.2013    1.0000 </r>
       <r>    0.7584    1.0000 </r>
       <r>    2.2134    1.0000 </r>
       <r>    3.2242    1.0000 </r>
       <r>    3.3727    1.0000 </r>
       <r>    3.3752    1.0000 </r>
       <r>    3.7789    1.0000 </r>
       <r>    3.9016    1.0000 </r>
       <r>    4.0734    1.0000 </r>
       <r>    4.1765    1.0000 </r>
       <r>    4.8009    1.0000 </r>
       <r>    4.9555    1.0000 </r>
       <r>    5.2363    1.0000 </r>
       <r>    5.2402    1.0000 </r>
       <r>    5.3009    1.0000 </r>
       <r>    5.5742    1.0012 </r>
       <r>    5.9504    0.9240 </r>
       <r>    7.7958   -0.0000 </r>
       <r>    8.1255   -0.0000 </r>
       <r>   10.2045   -0.0000 </r>
       <r>   10.6797   -0.0000 </r>
       <r>   14.0336    0.0000 </r>
       <r>   15.2845    0.0000 </r>
       <r>   17.7137    0.0000 </r>
      </set>
      <set comment="kpoint 176">
       <r>   -0.8172    1.0000 </r>
       <r>    1.7219    1.0000 </r>
       <r>    2.0842    1.0000 </r>
       <r>    2.8965    1.0000 </r>
       <r>    3.3052    1.0000 </r>
       <r>    3.4849    1.0000 </r>
       <r>    3.6651    1.0000 </r>
       <r>    3.9024    1.0000 </r>
       <r>    4.1034    1.0000 </r>
       <r>    4.1729    1.0000 </r>
       <r>    4.8295    1.0000 </r>
       <r>    5.0513    1.0000 </r>
       <r>    5.0628    1.0000 </r>
       <r>    5.2387    1.0000 </r>
       <r>    5.3391    1.0000 </r>
       <r>    6.0096    0.7513 </r>
       <r>    6.2014    0.0606 </r>
       <r>    7.0540   -0.0000 </r>
       <r>    7.9637   -0.0000 </r>
       <r>   10.4712   -0.0000 </r>
       <r>   12.2632    0.0000 </r>
       <r>   12.3251    0.0000 </r>
       <r>   16.0076    0.0000 </r>
       <r>   17.5075    0.0000 </r>
      </set>
      <set comment="kpoint 177">
       <r>   -0.4665    1.0000 </r>
       <r>    1.5069    1.0000 </r>
       <r>    2.0341    1.0000 </r>
       <r>    2.9598    1.0000 </r>
       <r>    3.3494    1.0000 </r>
       <r>    3.5048    1.0000 </r>
       <r>    3.7017    1.0000 </r>
       <r>    3.9280    1.0000 </r>
       <r>    4.1246    1.0000 </r>
       <r>    4.1782    1.0000 </r>
       <r>    4.7542    1.0000 </r>
       <r>    5.0143    1.0000 </r>
       <r>    5.0927    1.0000 </r>
       <r>    5.2442    1.0000 </r>
       <r>    5.3420    1.0000 </r>
       <r>    5.9292    0.9651 </r>
       <r>    5.9923    0.8101 </r>
       <r>    7.0836   -0.0000 </r>
       <r>    7.8880   -0.0000 </r>
       <r>   10.2529   -0.0000 </r>
       <r>   11.6663    0.0000 </r>
       <r>   12.7021    0.0000 </r>
       <r>   15.3422    0.0000 </r>
       <r>   17.7633    0.0000 </r>
      </set>
      <set comment="kpoint 178">
       <r>   -0.1338    1.0000 </r>
       <r>    1.2002    1.0000 </r>
       <r>    2.0429    1.0000 </r>
       <r>    3.0242    1.0000 </r>
       <r>    3.3774    1.0000 </r>
       <r>    3.4919    1.0000 </r>
       <r>    3.7725    1.0000 </r>
       <r>    3.9275    1.0000 </r>
       <r>    4.1484    1.0000 </r>
       <r>    4.1909    1.0000 </r>
       <r>    4.7068    1.0000 </r>
       <r>    4.9895    1.0000 </r>
       <r>    5.1364    1.0000 </r>
       <r>    5.2553    1.0000 </r>
       <r>    5.3484    1.0000 </r>
       <r>    5.6996    1.0121 </r>
       <r>    5.9294    0.9647 </r>
       <r>    7.2419   -0.0000 </r>
       <r>    7.7190   -0.0000 </r>
       <r>   10.2722   -0.0000 </r>
       <r>   11.1660   -0.0000 </r>
       <r>   13.0989    0.0000 </r>
       <r>   14.7865    0.0000 </r>
       <r>   17.9663    0.0000 </r>
      </set>
      <set comment="kpoint 179">
       <r>    0.0345    1.0000 </r>
       <r>    1.0349    1.0000 </r>
       <r>    2.0484    1.0000 </r>
       <r>    3.0500    1.0000 </r>
       <r>    3.3978    1.0000 </r>
       <r>    3.4716    1.0000 </r>
       <r>    3.8197    1.0000 </r>
       <r>    3.9119    1.0000 </r>
       <r>    4.1526    1.0000 </r>
       <r>    4.2018    1.0000 </r>
       <r>    4.6909    1.0000 </r>
       <r>    4.9850    1.0000 </r>
       <r>    5.1621    1.0000 </r>
       <r>    5.2534    1.0000 </r>
       <r>    5.3727    1.0000 </r>
       <r>    5.5770    1.0013 </r>
       <r>    5.9115    0.9910 </r>
       <r>    7.3810   -0.0000 </r>
       <r>    7.5723   -0.0000 </r>
       <r>   10.3616   -0.0000 </r>
       <r>   10.9236   -0.0000 </r>
       <r>   13.3098    0.0000 </r>
       <r>   14.5224    0.0000 </r>
       <r>   18.0471    0.0000 </r>
      </set>
      <set comment="kpoint 180">
       <r>   -0.1502    1.0000 </r>
       <r>    1.5742    1.0000 </r>
       <r>    1.8618    1.0000 </r>
       <r>    2.8959    1.0000 </r>
       <r>    3.3816    1.0000 </r>
       <r>    3.5754    1.0000 </r>
       <r>    3.6970    1.0000 </r>
       <r>    3.9882    1.0000 </r>
       <r>    4.1623    1.0000 </r>
       <r>    4.2066    1.0000 </r>
       <r>    4.6701    1.0000 </r>
       <r>    5.0393    1.0000 </r>
       <r>    5.0531    1.0000 </r>
       <r>    5.2486    1.0000 </r>
       <r>    5.3609    1.0000 </r>
       <r>    5.8683    1.0271 </r>
       <r>    5.8971    1.0070 </r>
       <r>    6.8958   -0.0000 </r>
       <r>    7.6151   -0.0000 </r>
       <r>   10.2742   -0.0000 </r>
       <r>   12.0104    0.0000 </r>
       <r>   12.1087    0.0000 </r>
       <r>   14.6661    0.0000 </r>
       <r>   18.0395    0.0000 </r>
      </set>
      <set comment="kpoint 181">
       <r>    0.1365    1.0000 </r>
       <r>    1.4264    1.0000 </r>
       <r>    1.8549    1.0000 </r>
       <r>    2.8612    1.0000 </r>
       <r>    3.4011    1.0000 </r>
       <r>    3.5922    1.0000 </r>
       <r>    3.7328    1.0000 </r>
       <r>    4.0358    1.0000 </r>
       <r>    4.2029    1.0000 </r>
       <r>    4.2262    1.0000 </r>
       <r>    4.6152    1.0000 </r>
       <r>    5.0253    1.0000 </r>
       <r>    5.0823    1.0000 </r>
       <r>    5.2521    1.0000 </r>
       <r>    5.3782    1.0000 </r>
       <r>    5.6762    1.0085 </r>
       <r>    5.8544    1.0321 </r>
       <r>    6.9278   -0.0000 </r>
       <r>    7.3310   -0.0000 </r>
       <r>   10.4624   -0.0000 </r>
       <r>   11.5293   -0.0000 </r>
       <r>   12.4516    0.0000 </r>
       <r>   14.1061    0.0000 </r>
       <r>   18.2557    0.0000 </r>
      </set>
      <set comment="kpoint 182">
       <r>    0.2714    1.0000 </r>
       <r>    1.3152    1.0000 </r>
       <r>    1.8756    1.0000 </r>
       <r>    2.8508    1.0000 </r>
       <r>    3.4097    1.0000 </r>
       <r>    3.5856    1.0000 </r>
       <r>    3.7604    1.0000 </r>
       <r>    4.0509    1.0000 </r>
       <r>    4.2197    1.0000 </r>
       <r>    4.2337    1.0000 </r>
       <r>    4.5962    1.0000 </r>
       <r>    5.0271    1.0000 </r>
       <r>    5.0998    1.0000 </r>
       <r>    5.2516    1.0000 </r>
       <r>    5.4014    1.0000 </r>
       <r>    5.5631    1.0009 </r>
       <r>    5.8379    1.0350 </r>
       <r>    7.0527   -0.0000 </r>
       <r>    7.1275   -0.0000 </r>
       <r>   10.6225   -0.0000 </r>
       <r>   11.2623   -0.0000 </r>
       <r>   12.6601    0.0000 </r>
       <r>   13.8397    0.0000 </r>
       <r>   18.3416    0.0000 </r>
      </set>
      <set comment="kpoint 183">
       <r>    0.3670    1.0000 </r>
       <r>    1.5746    1.0000 </r>
       <r>    1.7111    1.0000 </r>
       <r>    2.7279    1.0000 </r>
       <r>    3.4101    1.0000 </r>
       <r>    3.6701    1.0000 </r>
       <r>    3.7091    1.0000 </r>
       <r>    4.1277    1.0000 </r>
       <r>    4.2437    1.0000 </r>
       <r>    4.2575    1.0000 </r>
       <r>    4.5514    1.0000 </r>
       <r>    5.0610    1.0000 </r>
       <r>    5.0693    1.0000 </r>
       <r>    5.2434    1.0000 </r>
       <r>    5.3741    1.0000 </r>
       <r>    5.5932    1.0018 </r>
       <r>    5.7830    1.0300 </r>
       <r>    6.8087   -0.0000 </r>
       <r>    7.0349   -0.0000 </r>
       <r>   10.7450   -0.0000 </r>
       <r>   11.8608    0.0000 </r>
       <r>   11.9493    0.0000 </r>
       <r>   13.5473    0.0000 </r>
       <r>   18.4794    0.0000 </r>
      </set>
      <set comment="kpoint 184">
       <r>    0.4672    1.0000 </r>
       <r>    1.5535    1.0000 </r>
       <r>    1.7243    1.0000 </r>
       <r>    2.6722    1.0000 </r>
       <r>    3.4125    1.0000 </r>
       <r>    3.6774    1.0000 </r>
       <r>    3.7255    1.0000 </r>
       <r>    4.1606    1.0000 </r>
       <r>    4.2653    1.0000 </r>
       <r>    4.2659    1.0000 </r>
       <r>    4.5281    1.0000 </r>
       <r>    5.0781    1.0000 </r>
       <r>    5.0841    1.0000 </r>
       <r>    5.2358    1.0000 </r>
       <r>    5.3556    1.0000 </r>
       <r>    5.5367    1.0005 </r>
       <r>    5.7611    1.0251 </r>
       <r>    6.8494   -0.0000 </r>
       <r>    6.8638   -0.0000 </r>
       <r>   10.9441   -0.0000 </r>
       <r>   11.6186    0.0000 </r>
       <r>   12.1090    0.0000 </r>
       <r>   13.2840    0.0000 </r>
       <r>   18.5677    0.0000 </r>
      </set>
      <set comment="kpoint 185">
       <r>    0.5492    1.0000 </r>
       <r>    1.6581    1.0000 </r>
       <r>    1.6581    1.0000 </r>
       <r>    2.5899    1.0000 </r>
       <r>    3.4124    1.0000 </r>
       <r>    3.7141    1.0000 </r>
       <r>    3.7141    1.0000 </r>
       <r>    4.2016    1.0000 </r>
       <r>    4.2816    1.0000 </r>
       <r>    4.2816    1.0000 </r>
       <r>    4.5020    1.0000 </r>
       <r>    5.1079    1.0000 </r>
       <r>    5.1079    1.0000 </r>
       <r>    5.2212    1.0000 </r>
       <r>    5.2919    1.0000 </r>
       <r>    5.5222    1.0004 </r>
       <r>    5.7335    1.0188 </r>
       <r>    6.7818   -0.0000 </r>
       <r>    6.7818   -0.0000 </r>
       <r>   11.1659   -0.0000 </r>
       <r>   11.8112    0.0000 </r>
       <r>   11.8112    0.0000 </r>
       <r>   13.0258    0.0000 </r>
       <r>   18.6566    0.0000 </r>
      </set>
      <set comment="kpoint 186">
       <r>   -1.2019    1.0000 </r>
       <r>    1.8732    1.0000 </r>
       <r>    2.5278    1.0000 </r>
       <r>    2.5278    1.0000 </r>
       <r>    3.2339    1.0000 </r>
       <r>    3.5522    1.0000 </r>
       <r>    3.5522    1.0000 </r>
       <r>    3.8881    1.0000 </r>
       <r>    4.1427    1.0000 </r>
       <r>    4.1427    1.0000 </r>
       <r>    4.9058    1.0000 </r>
       <r>    5.0645    1.0000 </r>
       <r>    5.0645    1.0000 </r>
       <r>    5.2971    1.0000 </r>
       <r>    5.2971    1.0000 </r>
       <r>    6.0924    0.4153 </r>
       <r>    6.6125   -0.0004 </r>
       <r>    7.3344   -0.0000 </r>
       <r>    7.3344   -0.0000 </r>
       <r>   11.8529    0.0000 </r>
       <r>   11.8912    0.0000 </r>
       <r>   11.8912    0.0000 </r>
       <r>   16.6880    0.0000 </r>
       <r>   17.9688    0.0000 </r>
      </set>
      <set comment="kpoint 187">
       <r>   -0.8767    1.0000 </r>
       <r>    1.7322    1.0000 </r>
       <r>    2.3185    1.0000 </r>
       <r>    2.7327    1.0000 </r>
       <r>    3.3242    1.0000 </r>
       <r>    3.5255    1.0000 </r>
       <r>    3.6120    1.0000 </r>
       <r>    3.9250    1.0000 </r>
       <r>    4.1265    1.0000 </r>
       <r>    4.1284    1.0000 </r>
       <r>    4.8146    1.0000 </r>
       <r>    5.0408    1.0000 </r>
       <r>    5.0807    1.0000 </r>
       <r>    5.2695    1.0000 </r>
       <r>    5.3141    1.0000 </r>
       <r>    6.0714    0.5036 </r>
       <r>    6.3746   -0.0271 </r>
       <r>    7.3149   -0.0000 </r>
       <r>    7.3919   -0.0000 </r>
       <r>   11.1706   -0.0000 </r>
       <r>   11.2864   -0.0000 </r>
       <r>   12.2507    0.0000 </r>
       <r>   15.9540    0.0000 </r>
       <r>   18.2117    0.0000 </r>
      </set>
      <set comment="kpoint 188">
       <r>   -0.5234    1.0000 </r>
       <r>    1.4705    1.0000 </r>
       <r>    2.1920    1.0000 </r>
       <r>    2.9253    1.0000 </r>
       <r>    3.3707    1.0000 </r>
       <r>    3.4952    1.0000 </r>
       <r>    3.6903    1.0000 </r>
       <r>    3.9611    1.0000 </r>
       <r>    4.1104    1.0000 </r>
       <r>    4.1464    1.0000 </r>
       <r>    4.7458    1.0000 </r>
       <r>    5.0071    1.0000 </r>
       <r>    5.1132    1.0000 </r>
       <r>    5.2771    1.0000 </r>
       <r>    5.3130    1.0000 </r>
       <r>    6.0184    0.7188 </r>
       <r>    6.0314    0.6690 </r>
       <r>    7.4427   -0.0000 </r>
       <r>    7.5164   -0.0000 </r>
       <r>   10.5895   -0.0000 </r>
       <r>   10.8324   -0.0000 </r>
       <r>   12.6583    0.0000 </r>
       <r>   15.2788    0.0000 </r>
       <r>   18.4407    0.0000 </r>
      </set>
      <set comment="kpoint 189">
       <r>   -0.1879    1.0000 </r>
       <r>    1.1591    1.0000 </r>
       <r>    2.1387    1.0000 </r>
       <r>    3.0749    1.0000 </r>
       <r>    3.3798    1.0000 </r>
       <r>    3.4617    1.0000 </r>
       <r>    3.7921    1.0000 </r>
       <r>    3.9554    1.0000 </r>
       <r>    4.0984    1.0000 </r>
       <r>    4.1748    1.0000 </r>
       <r>    4.7027    1.0000 </r>
       <r>    4.9883    1.0000 </r>
       <r>    5.1590    1.0000 </r>
       <r>    5.2901    1.0000 </r>
       <r>    5.3293    1.0000 </r>
       <r>    5.7193    1.0158 </r>
       <r>    5.9928    0.8085 </r>
       <r>    7.4780   -0.0000 </r>
       <r>    7.7185   -0.0000 </r>
       <r>   10.1760   -0.0000 </r>
       <r>   10.5500   -0.0000 </r>
       <r>   13.0600    0.0000 </r>
       <r>   14.7152    0.0000 </r>
       <r>   18.6116    0.0000 </r>
      </set>
      <set comment="kpoint 190">
       <r>   -0.0180    1.0000 </r>
       <r>    0.9922    1.0000 </r>
       <r>    2.1244    1.0000 </r>
       <r>    3.1363    1.0000 </r>
       <r>    3.3795    1.0000 </r>
       <r>    3.4428    1.0000 </r>
       <r>    3.8644    1.0000 </r>
       <r>    3.9201    1.0000 </r>
       <r>    4.0940    1.0000 </r>
       <r>    4.1867    1.0000 </r>
       <r>    4.6880    1.0000 </r>
       <r>    4.9854    1.0000 </r>
       <r>    5.1914    1.0000 </r>
       <r>    5.2661    1.0000 </r>
       <r>    5.4017    1.0000 </r>
       <r>    5.5574    1.0008 </r>
       <r>    5.9769    0.8569 </r>
       <r>    7.4907   -0.0000 </r>
       <r>    7.8061   -0.0000 </r>
       <r>   10.0189   -0.0000 </r>
       <r>   10.4541   -0.0000 </r>
       <r>   13.2769    0.0000 </r>
       <r>   14.4442    0.0000 </r>
       <r>   18.6763    0.0000 </r>
      </set>
      <set comment="kpoint 191">
       <r>   -0.5735    1.0000 </r>
       <r>    1.6885    1.0000 </r>
       <r>    2.2787    1.0000 </r>
       <r>    2.7048    1.0000 </r>
       <r>    3.4111    1.0000 </r>
       <r>    3.5475    1.0000 </r>
       <r>    3.6226    1.0000 </r>
       <r>    3.9823    1.0000 </r>
       <r>    4.1308    1.0000 </r>
       <r>    4.1412    1.0000 </r>
       <r>    4.7194    1.0000 </r>
       <r>    5.0430    1.0000 </r>
       <r>    5.0625    1.0000 </r>
       <r>    5.2748    1.0000 </r>
       <r>    5.3168    1.0000 </r>
       <r>    6.0606    0.5492 </r>
       <r>    6.3455   -0.0329 </r>
       <r>    7.0065   -0.0000 </r>
       <r>    7.3806   -0.0000 </r>
       <r>   10.6709   -0.0000 </r>
       <r>   11.5762    0.0000 </r>
       <r>   11.5864    0.0000 </r>
       <r>   15.2029    0.0000 </r>
       <r>   18.6584    0.0000 </r>
      </set>
      <set comment="kpoint 192">
       <r>   -0.2517    1.0000 </r>
       <r>    1.5604    1.0000 </r>
       <r>    2.1419    1.0000 </r>
       <r>    2.8117    1.0000 </r>
       <r>    3.4474    1.0000 </r>
       <r>    3.5453    1.0000 </r>
       <r>    3.6842    1.0000 </r>
       <r>    4.0466    1.0000 </r>
       <r>    4.1456    1.0000 </r>
       <r>    4.1647    1.0000 </r>
       <r>    4.6462    1.0000 </r>
       <r>    5.0197    1.0000 </r>
       <r>    5.0789    1.0000 </r>
       <r>    5.2818    1.0000 </r>
       <r>    5.3304    1.0000 </r>
       <r>    6.0181    0.7202 </r>
       <r>    6.0722    0.5002 </r>
       <r>    7.0050   -0.0000 </r>
       <r>    7.3894   -0.0000 </r>
       <r>   10.2879   -0.0000 </r>
       <r>   11.0340   -0.0000 </r>
       <r>   11.9715    0.0000 </r>
       <r>   14.5201    0.0000 </r>
       <r>   18.9314    0.0000 </r>
      </set>
      <set comment="kpoint 193">
       <r>    0.0400    1.0000 </r>
       <r>    1.3635    1.0000 </r>
       <r>    2.0566    1.0000 </r>
       <r>    2.9144    1.0000 </r>
       <r>    3.4643    1.0000 </r>
       <r>    3.5207    1.0000 </r>
       <r>    3.7682    1.0000 </r>
       <r>    4.0784    1.0000 </r>
       <r>    4.1523    1.0000 </r>
       <r>    4.1969    1.0000 </r>
       <r>    4.5996    1.0000 </r>
       <r>    5.0102    1.0000 </r>
       <r>    5.1106    1.0000 </r>
       <r>    5.2869    1.0000 </r>
       <r>    5.3748    1.0000 </r>
       <r>    5.7514    1.0229 </r>
       <r>    5.9898    0.8181 </r>
       <r>    7.1000   -0.0000 </r>
       <r>    7.3801   -0.0000 </r>
       <r>   10.0850   -0.0000 </r>
       <r>   10.6503   -0.0000 </r>
       <r>   12.3663    0.0000 </r>
       <r>   13.9500    0.0000 </r>
       <r>   19.1283    0.0000 </r>
      </set>
      <set comment="kpoint 194">
       <r>    0.1770    1.0000 </r>
       <r>    1.2511    1.0000 </r>
       <r>    2.0324    1.0000 </r>
       <r>    2.9540    1.0000 </r>
       <r>    3.4795    1.0000 </r>
       <r>    3.5003    1.0000 </r>
       <r>    3.8064    1.0000 </r>
       <r>    4.0848    1.0000 </r>
       <r>    4.1538    1.0000 </r>
       <r>    4.2091    1.0000 </r>
       <r>    4.5836    1.0000 </r>
       <r>    5.0128    1.0000 </r>
       <r>    5.1293    1.0000 </r>
       <r>    5.2792    1.0000 </r>
       <r>    5.4911    1.0002 </r>
       <r>    5.5358    1.0005 </r>
       <r>    5.9728    0.8684 </r>
       <r>    7.1494   -0.0000 </r>
       <r>    7.3681   -0.0000 </r>
       <r>   10.0314   -0.0000 </r>
       <r>   10.5032   -0.0000 </r>
       <r>   12.5862    0.0000 </r>
       <r>   13.6717    0.0000 </r>
       <r>   19.2032    0.0000 </r>
      </set>
      <set comment="kpoint 195">
       <r>    0.0257    1.0000 </r>
       <r>    1.5912    1.0000 </r>
       <r>    2.0538    1.0000 </r>
       <r>    2.7581    1.0000 </r>
       <r>    3.4882    1.0000 </r>
       <r>    3.6169    1.0000 </r>
       <r>    3.6710    1.0000 </r>
       <r>    4.1577    1.0000 </r>
       <r>    4.1842    1.0000 </r>
       <r>    4.1879    1.0000 </r>
       <r>    4.5665    1.0000 </r>
       <r>    5.0359    1.0000 </r>
       <r>    5.0507    1.0000 </r>
       <r>    5.2767    1.0000 </r>
       <r>    5.3573    1.0000 </r>
       <r>    5.9792    0.8504 </r>
       <r>    5.9839    0.8365 </r>
       <r>    6.7675   -0.0000 </r>
       <r>    7.2435   -0.0000 </r>
       <r>   10.1144   -0.0000 </r>
       <r>   11.3800   -0.0000 </r>
       <r>   11.3916   -0.0000 </r>
       <r>   13.8361    0.0000 </r>
       <r>   19.2350    0.0000 </r>
      </set>
      <set comment="kpoint 196">
       <r>    0.2598    1.0000 </r>
       <r>    1.5526    1.0000 </r>
       <r>    1.9717    1.0000 </r>
       <r>    2.7565    1.0000 </r>
       <r>    3.5208    1.0000 </r>
       <r>    3.6075    1.0000 </r>
       <r>    3.7279    1.0000 </r>
       <r>    4.2047    1.0000 </r>
       <r>    4.2098    1.0000 </r>
       <r>    4.2448    1.0000 </r>
       <r>    4.5141    1.0000 </r>
       <r>    5.0399    1.0000 </r>
       <r>    5.0697    1.0000 </r>
       <r>    5.2745    1.0000 </r>
       <r>    5.3995    1.0000 </r>
       <r>    5.7427    1.0209 </r>
       <r>    5.9461    0.9333 </r>
       <r>    6.7760   -0.0000 </r>
       <r>    7.0747   -0.0000 </r>
       <r>   10.1218   -0.0000 </r>
       <r>   10.9334   -0.0000 </r>
       <r>   11.7607    0.0000 </r>
       <r>   13.2660    0.0000 </r>
       <r>   19.4511    0.0000 </r>
      </set>
      <set comment="kpoint 197">
       <r>    0.3599    1.0000 </r>
       <r>    1.5135    1.0000 </r>
       <r>    1.9441    1.0000 </r>
       <r>    2.7625    1.0000 </r>
       <r>    3.5403    1.0000 </r>
       <r>    3.5900    1.0000 </r>
       <r>    3.7591    1.0000 </r>
       <r>    4.2143    1.0000 </r>
       <r>    4.2188    1.0000 </r>
       <r>    4.2707    1.0000 </r>
       <r>    4.4957    1.0000 </r>
       <r>    5.0506    1.0000 </r>
       <r>    5.0833    1.0000 </r>
       <r>    5.2703    1.0000 </r>
       <r>    5.5060    1.0002 </r>
       <r>    5.5371    1.0005 </r>
       <r>    5.9299    0.9638 </r>
       <r>    6.8555   -0.0000 </r>
       <r>    6.9536   -0.0000 </r>
       <r>   10.1828   -0.0000 </r>
       <r>   10.7271   -0.0000 </r>
       <r>   11.9769    0.0000 </r>
       <r>   12.9851    0.0000 </r>
       <r>   19.5338    0.0000 </r>
      </set>
      <set comment="kpoint 198">
       <r>    0.4301    1.0000 </r>
       <r>    1.6917    1.0000 </r>
       <r>    1.9007    1.0000 </r>
       <r>    2.6351    1.0000 </r>
       <r>    3.5515    1.0000 </r>
       <r>    3.6827    1.0000 </r>
       <r>    3.7068    1.0000 </r>
       <r>    4.2445    1.0000 </r>
       <r>    4.2448    1.0000 </r>
       <r>    4.3470    1.0000 </r>
       <r>    4.4544    1.0000 </r>
       <r>    5.0704    1.0000 </r>
       <r>    5.0811    1.0000 </r>
       <r>    5.2534    1.0000 </r>
       <r>    5.4171    1.0000 </r>
       <r>    5.6401    1.0046 </r>
       <r>    5.8858    1.0166 </r>
       <r>    6.6392   -0.0002 </r>
       <r>    6.8293   -0.0000 </r>
       <r>   10.2830   -0.0000 </r>
       <r>   11.2611   -0.0000 </r>
       <r>   11.2823   -0.0000 </r>
       <r>   12.6997    0.0000 </r>
       <r>   19.6773    0.0000 </r>
      </set>
      <set comment="kpoint 199">
       <r>    0.4967    1.0000 </r>
       <r>    1.7413    1.0000 </r>
       <r>    1.8745    1.0000 </r>
       <r>    2.5874    1.0000 </r>
       <r>    3.5620    1.0000 </r>
       <r>    3.6832    1.0000 </r>
       <r>    3.7307    1.0000 </r>
       <r>    4.2579    1.0000 </r>
       <r>    4.2580    1.0000 </r>
       <r>    4.3835    1.0000 </r>
       <r>    4.4319    1.0000 </r>
       <r>    5.0967    1.0000 </r>
       <r>    5.1029    1.0000 </r>
       <r>    5.2383    1.0000 </r>
       <r>    5.4731    1.0001 </r>
       <r>    5.5028    1.0002 </r>
       <r>    5.8657    1.0282 </r>
       <r>    6.6658   -0.0001 </r>
       <r>    6.6859   -0.0001 </r>
       <r>   10.4170   -0.0000 </r>
       <r>   11.0309   -0.0000 </r>
       <r>   11.4762   -0.0000 </r>
       <r>   12.4207    0.0000 </r>
       <r>   19.7634    0.0000 </r>
      </set>
      <set comment="kpoint 200">
       <r>    0.5488    1.0000 </r>
       <r>    1.8468    1.0000 </r>
       <r>    1.8468    1.0000 </r>
       <r>    2.5015    1.0000 </r>
       <r>    3.5685    1.0000 </r>
       <r>    3.7215    1.0000 </r>
       <r>    3.7215    1.0000 </r>
       <r>    4.2739    1.0000 </r>
       <r>    4.2739    1.0000 </r>
       <r>    4.4065    1.0000 </r>
       <r>    4.4224    1.0000 </r>
       <r>    5.1455    1.0000 </r>
       <r>    5.1455    1.0000 </r>
       <r>    5.2034    1.0000 </r>
       <r>    5.4348    1.0000 </r>
       <r>    5.4576    1.0001 </r>
       <r>    5.8396    1.0348 </r>
       <r>    6.6018   -0.0006 </r>
       <r>    6.6018   -0.0006 </r>
       <r>   10.5832   -0.0000 </r>
       <r>   11.2223   -0.0000 </r>
       <r>   11.2223   -0.0000 </r>
       <r>   12.1448    0.0000 </r>
       <r>   19.8504    0.0000 </r>
      </set>
      <set comment="kpoint 201">
       <r>   -0.2992    1.0000 </r>
       <r>    1.6488    1.0000 </r>
       <r>    2.4784    1.0000 </r>
       <r>    2.4784    1.0000 </r>
       <r>    3.5074    1.0000 </r>
       <r>    3.5951    1.0000 </r>
       <r>    3.5951    1.0000 </r>
       <r>    4.0897    1.0000 </r>
       <r>    4.1528    1.0000 </r>
       <r>    4.1528    1.0000 </r>
       <r>    4.6253    1.0000 </r>
       <r>    5.0416    1.0000 </r>
       <r>    5.0416    1.0000 </r>
       <r>    5.3017    1.0000 </r>
       <r>    5.3017    1.0000 </r>
       <r>    6.0743    0.4911 </r>
       <r>    6.3988   -0.0216 </r>
       <r>    6.9554   -0.0000 </r>
       <r>    6.9554   -0.0000 </r>
       <r>   10.8430   -0.0000 </r>
       <r>   11.0426   -0.0000 </r>
       <r>   11.0426   -0.0000 </r>
       <r>   14.4444    0.0000 </r>
       <r>   19.7135    0.0000 </r>
      </set>
      <set comment="kpoint 202">
       <r>   -0.0190    1.0000 </r>
       <r>    1.5965    1.0000 </r>
       <r>    2.2530    1.0000 </r>
       <r>    2.6545    1.0000 </r>
       <r>    3.5423    1.0000 </r>
       <r>    3.5853    1.0000 </r>
       <r>    3.6746    1.0000 </r>
       <r>    4.1695    1.0000 </r>
       <r>    4.1751    1.0000 </r>
       <r>    4.2066    1.0000 </r>
       <r>    4.5523    1.0000 </r>
       <r>    5.0206    1.0000 </r>
       <r>    5.0511    1.0000 </r>
       <r>    5.3115    1.0000 </r>
       <r>    5.3117    1.0000 </r>
       <r>    6.0536    0.5784 </r>
       <r>    6.1469    0.2073 </r>
       <r>    6.9117   -0.0000 </r>
       <r>    6.9129   -0.0000 </r>
       <r>   10.3703   -0.0000 </r>
       <r>   10.6495   -0.0000 </r>
       <r>   11.3441   -0.0000 </r>
       <r>   13.7600    0.0000 </r>
       <r>   19.9498    0.0000 </r>
      </set>
      <set comment="kpoint 203">
       <r>    0.2173    1.0000 </r>
       <r>    1.5281    1.0000 </r>
       <r>    2.0850    1.0000 </r>
       <r>    2.7750    1.0000 </r>
       <r>    3.5440    1.0000 </r>
       <r>    3.5892    1.0000 </r>
       <r>    3.7560    1.0000 </r>
       <r>    4.1803    1.0000 </r>
       <r>    4.1968    1.0000 </r>
       <r>    4.2802    1.0000 </r>
       <r>    4.5049    1.0000 </r>
       <r>    5.0223    1.0000 </r>
       <r>    5.0695    1.0000 </r>
       <r>    5.3038    1.0000 </r>
       <r>    5.3733    1.0000 </r>
       <r>    5.8123    1.0347 </r>
       <r>    6.0198    0.7135 </r>
       <r>    6.8843   -0.0000 </r>
       <r>    7.0109   -0.0000 </r>
       <r>   10.0185   -0.0000 </r>
       <r>   10.4140   -0.0000 </r>
       <r>   11.7188    0.0000 </r>
       <r>   13.1871    0.0000 </r>
       <r>   20.1236    0.0000 </r>
      </set>
      <set comment="kpoint 204">
       <r>    0.3182    1.0000 </r>
       <r>    1.4868    1.0000 </r>
       <r>    2.0251    1.0000 </r>
       <r>    2.8174    1.0000 </r>
       <r>    3.5428    1.0000 </r>
       <r>    3.5936    1.0000 </r>
       <r>    3.7897    1.0000 </r>
       <r>    4.1841    1.0000 </r>
       <r>    4.2040    1.0000 </r>
       <r>    4.3021    1.0000 </r>
       <r>    4.4883    1.0000 </r>
       <r>    5.0306    1.0000 </r>
       <r>    5.0806    1.0000 </r>
       <r>    5.2956    1.0000 </r>
       <r>    5.4862    1.0001 </r>
       <r>    5.5936    1.0018 </r>
       <r>    6.0037    0.7718 </r>
       <r>    6.8753   -0.0000 </r>
       <r>    7.0577   -0.0000 </r>
       <r>    9.8915   -0.0000 </r>
       <r>   10.3359   -0.0000 </r>
       <r>   11.9397    0.0000 </r>
       <r>   12.9008    0.0000 </r>
       <r>   20.1887    0.0000 </r>
      </set>
      <set comment="kpoint 205">
       <r>    0.2037    1.0000 </r>
       <r>    1.6331    1.0000 </r>
       <r>    2.2467    1.0000 </r>
       <r>    2.5929    1.0000 </r>
       <r>    3.5946    1.0000 </r>
       <r>    3.6609    1.0000 </r>
       <r>    3.6729    1.0000 </r>
       <r>    4.1987    1.0000 </r>
       <r>    4.2042    1.0000 </r>
       <r>    4.3536    1.0000 </r>
       <r>    4.4777    1.0000 </r>
       <r>    5.0246    1.0000 </r>
       <r>    5.0298    1.0000 </r>
       <r>    5.2986    1.0000 </r>
       <r>    5.3299    1.0000 </r>
       <r>    6.0422    0.6254 </r>
       <r>    6.0899    0.4256 </r>
       <r>    6.6223   -0.0004 </r>
       <r>    6.8225   -0.0000 </r>
       <r>   10.1333   -0.0000 </r>
       <r>   10.8026   -0.0000 </r>
       <r>   10.8846   -0.0000 </r>
       <r>   13.0800    0.0000 </r>
       <r>   20.4200    0.0000 </r>
      </set>
      <set comment="kpoint 206">
       <r>    0.3733    1.0000 </r>
       <r>    1.6843    1.0000 </r>
       <r>    2.1098    1.0000 </r>
       <r>    2.6378    1.0000 </r>
       <r>    3.6267    1.0000 </r>
       <r>    3.6656    1.0000 </r>
       <r>    3.7460    1.0000 </r>
       <r>    4.2173    1.0000 </r>
       <r>    4.2244    1.0000 </r>
       <r>    4.4278    1.0000 </r>
       <r>    4.4566    1.0000 </r>
       <r>    5.0356    1.0000 </r>
       <r>    5.0397    1.0000 </r>
       <r>    5.2918    1.0000 </r>
       <r>    5.3650    1.0000 </r>
       <r>    5.8354    1.0352 </r>
       <r>    6.0119    0.7429 </r>
       <r>    6.5976   -0.0006 </r>
       <r>    6.7519   -0.0000 </r>
       <r>    9.9588   -0.0000 </r>
       <r>   10.5096   -0.0000 </r>
       <r>   11.1768   -0.0000 </r>
       <r>   12.5123    0.0000 </r>
       <r>   20.6427    0.0000 </r>
      </set>
      <set comment="kpoint 207">
       <r>    0.4385    1.0000 </r>
       <r>    1.7227    1.0000 </r>
       <r>    2.0261    1.0000 </r>
       <r>    2.6631    1.0000 </r>
       <r>    3.6377    1.0000 </r>
       <r>    3.6688    1.0000 </r>
       <r>    3.7786    1.0000 </r>
       <r>    4.2248    1.0000 </r>
       <r>    4.2299    1.0000 </r>
       <r>    4.4097    1.0000 </r>
       <r>    4.4877    1.0000 </r>
       <r>    5.0436    1.0000 </r>
       <r>    5.0548    1.0000 </r>
       <r>    5.2856    1.0000 </r>
       <r>    5.4327    1.0000 </r>
       <r>    5.6586    1.0064 </r>
       <r>    5.9960    0.7980 </r>
       <r>    6.6239   -0.0003 </r>
       <r>    6.7170   -0.0000 </r>
       <r>    9.9059   -0.0000 </r>
       <r>   10.3905   -0.0000 </r>
       <r>   11.3879   -0.0000 </r>
       <r>   12.2238    0.0000 </r>
       <r>   20.7211    0.0000 </r>
      </set>
      <set comment="kpoint 208">
       <r>    0.4810    1.0000 </r>
       <r>    1.8309    1.0000 </r>
       <r>    2.0893    1.0000 </r>
       <r>    2.5418    1.0000 </r>
       <r>    3.6913    1.0000 </r>
       <r>    3.7359    1.0000 </r>
       <r>    3.7416    1.0000 </r>
       <r>    4.2439    1.0000 </r>
       <r>    4.2473    1.0000 </r>
       <r>    4.3736    1.0000 </r>
       <r>    4.5744    1.0000 </r>
       <r>    5.0543    1.0000 </r>
       <r>    5.0675    1.0000 </r>
       <r>    5.2590    1.0000 </r>
       <r>    5.3677    1.0000 </r>
       <r>    5.7548    1.0236 </r>
       <r>    5.9699    0.8764 </r>
       <r>    6.4445   -0.0122 </r>
       <r>    6.5750   -0.0011 </r>
       <r>    9.9764   -0.0000 </r>
       <r>   10.7423   -0.0000 </r>
       <r>   10.7963   -0.0000 </r>
       <r>   11.9541    0.0000 </r>
       <r>   20.8996    0.0000 </r>
      </set>
      <set comment="kpoint 209">
       <r>    0.5195    1.0000 </r>
       <r>    1.9302    1.0000 </r>
       <r>    2.0312    1.0000 </r>
       <r>    2.5113    1.0000 </r>
       <r>    3.7203    1.0000 </r>
       <r>    3.7301    1.0000 </r>
       <r>    3.7734    1.0000 </r>
       <r>    4.2541    1.0000 </r>
       <r>    4.2566    1.0000 </r>
       <r>    4.3525    1.0000 </r>
       <r>    4.6039    1.0000 </r>
       <r>    5.0790    1.0000 </r>
       <r>    5.0971    1.0000 </r>
       <r>    5.2399    1.0000 </r>
       <r>    5.3903    1.0000 </r>
       <r>    5.6510    1.0056 </r>
       <r>    5.9517    0.9212 </r>
       <r>    6.4554   -0.0104 </r>
       <r>    6.4739   -0.0078 </r>
       <r>   10.0202   -0.0000 </r>
       <r>   10.5943   -0.0000 </r>
       <r>   10.9609   -0.0000 </r>
       <r>   11.6677    0.0000 </r>
       <r>   20.9885    0.0000 </r>
      </set>
      <set comment="kpoint 210">
       <r>    0.5480    1.0000 </r>
       <r>    2.0340    1.0000 </r>
       <r>    2.0340    1.0000 </r>
       <r>    2.4276    1.0000 </r>
       <r>    3.7405    1.0000 </r>
       <r>    3.7707    1.0000 </r>
       <r>    3.7707    1.0000 </r>
       <r>    4.2681    1.0000 </r>
       <r>    4.2681    1.0000 </r>
       <r>    4.3282    1.0000 </r>
       <r>    4.6267    1.0000 </r>
       <r>    5.1443    1.0000 </r>
       <r>    5.1443    1.0000 </r>
       <r>    5.1869    1.0000 </r>
       <r>    5.3748    1.0000 </r>
       <r>    5.5997    1.0021 </r>
       <r>    5.9278    0.9673 </r>
       <r>    6.3979   -0.0218 </r>
       <r>    6.3979   -0.0218 </r>
       <r>   10.1104   -0.0000 </r>
       <r>   10.7679   -0.0000 </r>
       <r>   10.7679   -0.0000 </r>
       <r>   11.3801   -0.0000 </r>
       <r>   21.0804    0.0000 </r>
      </set>
      <set comment="kpoint 211">
       <r>    0.3578    1.0000 </r>
       <r>    1.7108    1.0000 </r>
       <r>    2.4109    1.0000 </r>
       <r>    2.4109    1.0000 </r>
       <r>    3.6877    1.0000 </r>
       <r>    3.7063    1.0000 </r>
       <r>    3.7063    1.0000 </r>
       <r>    4.2225    1.0000 </r>
       <r>    4.2225    1.0000 </r>
       <r>    4.4073    1.0000 </r>
       <r>    4.5432    1.0000 </r>
       <r>    5.0109    1.0000 </r>
       <r>    5.0109    1.0000 </r>
       <r>    5.3027    1.0000 </r>
       <r>    5.3027    1.0000 </r>
       <r>    6.0604    0.5499 </r>
       <r>    6.1093    0.3462 </r>
       <r>    6.4963   -0.0053 </r>
       <r>    6.4963   -0.0053 </r>
       <r>   10.1063   -0.0000 </r>
       <r>   10.5353   -0.0000 </r>
       <r>   10.5353   -0.0000 </r>
       <r>   12.4121    0.0000 </r>
       <r>   21.4881    0.0000 </r>
      </set>
      <set comment="kpoint 212">
       <r>    0.4618    1.0000 </r>
       <r>    1.8269    1.0000 </r>
       <r>    2.2270    1.0000 </r>
       <r>    2.5188    1.0000 </r>
       <r>    3.7175    1.0000 </r>
       <r>    3.7552    1.0000 </r>
       <r>    3.7842    1.0000 </r>
       <r>    4.2372    1.0000 </r>
       <r>    4.2377    1.0000 </r>
       <r>    4.3593    1.0000 </r>
       <r>    4.6667    1.0000 </r>
       <r>    4.9991    1.0000 </r>
       <r>    5.0300    1.0000 </r>
       <r>    5.2897    1.0000 </r>
       <r>    5.3094    1.0000 </r>
       <r>    5.8993    1.0048 </r>
       <r>    6.0423    0.6251 </r>
       <r>    6.4262   -0.0156 </r>
       <r>    6.4418   -0.0127 </r>
       <r>    9.8751   -0.0000 </r>
       <r>   10.3305   -0.0000 </r>
       <r>   10.7273   -0.0000 </r>
       <r>   11.8586    0.0000 </r>
       <r>   21.6681    0.0000 </r>
      </set>
      <set comment="kpoint 213">
       <r>    0.4983    1.0000 </r>
       <r>    1.9233    1.0000 </r>
       <r>    2.1076    1.0000 </r>
       <r>    2.5558    1.0000 </r>
       <r>    3.7256    1.0000 </r>
       <r>    3.7800    1.0000 </r>
       <r>    3.8198    1.0000 </r>
       <r>    4.2390    1.0000 </r>
       <r>    4.2444    1.0000 </r>
       <r>    4.3412    1.0000 </r>
       <r>    4.6988    1.0000 </r>
       <r>    4.9941    1.0000 </r>
       <r>    5.0547    1.0000 </r>
       <r>    5.2801    1.0000 </r>
       <r>    5.3476    1.0000 </r>
       <r>    5.7498    1.0225 </r>
       <r>    6.0276    0.6838 </r>
       <r>    6.4076   -0.0196 </r>
       <r>    6.4557   -0.0103 </r>
       <r>    9.7752   -0.0000 </r>
       <r>   10.2634   -0.0000 </r>
       <r>   10.9129   -0.0000 </r>
       <r>   11.5712    0.0000 </r>
       <r>   21.7349    0.0000 </r>
      </set>
      <set comment="kpoint 214">
       <r>    0.5166    1.0000 </r>
       <r>    1.9776    1.0000 </r>
       <r>    2.2476    1.0000 </r>
       <r>    2.4478    1.0000 </r>
       <r>    3.8021    1.0000 </r>
       <r>    3.8207    1.0000 </r>
       <r>    3.8385    1.0000 </r>
       <r>    4.2504    1.0000 </r>
       <r>    4.2509    1.0000 </r>
       <r>    4.3116    1.0000 </r>
       <r>    4.7861    1.0000 </r>
       <r>    5.0122    1.0000 </r>
       <r>    5.0305    1.0000 </r>
       <r>    5.2456    1.0000 </r>
       <r>    5.2899    1.0000 </r>
       <r>    5.8612    1.0300 </r>
       <r>    6.0293    0.6772 </r>
       <r>    6.2639   -0.0203 </r>
       <r>    6.3205   -0.0354 </r>
       <r>    9.7877   -0.0000 </r>
       <r>   10.3873   -0.0000 </r>
       <r>   10.4730   -0.0000 </r>
       <r>   11.3279   -0.0000 </r>
       <r>   22.1066    0.0000 </r>
      </set>
      <set comment="kpoint 215">
       <r>    0.5349    1.0000 </r>
       <r>    2.0960    1.0000 </r>
       <r>    2.1681    1.0000 </r>
       <r>    2.4451    1.0000 </r>
       <r>    3.8249    1.0000 </r>
       <r>    3.8543    1.0000 </r>
       <r>    3.8733    1.0000 </r>
       <r>    4.2511    1.0000 </r>
       <r>    4.2585    1.0000 </r>
       <r>    4.2924    1.0000 </r>
       <r>    4.7966    1.0000 </r>
       <r>    5.0209    1.0000 </r>
       <r>    5.0659    1.0000 </r>
       <r>    5.2256    1.0000 </r>
       <r>    5.2928    1.0000 </r>
       <r>    5.7864    1.0307 </r>
       <r>    6.0138    0.7359 </r>
       <r>    6.2613   -0.0185 </r>
       <r>    6.2647   -0.0208 </r>
       <r>    9.7505   -0.0000 </r>
       <r>   10.3235   -0.0000 </r>
       <r>   10.5811   -0.0000 </r>
       <r>   11.0494   -0.0000 </r>
       <r>   22.2087    0.0000 </r>
      </set>
      <set comment="kpoint 216">
       <r>    0.5471    1.0000 </r>
       <r>    2.1905    1.0000 </r>
       <r>    2.1905    1.0000 </r>
       <r>    2.3722    1.0000 </r>
       <r>    3.8725    1.0000 </r>
       <r>    3.8725    1.0000 </r>
       <r>    3.9095    1.0000 </r>
       <r>    4.2606    1.0000 </r>
       <r>    4.2606    1.0000 </r>
       <r>    4.2703    1.0000 </r>
       <r>    4.7872    1.0000 </r>
       <r>    5.0855    1.0000 </r>
       <r>    5.0855    1.0000 </r>
       <r>    5.1735    1.0000 </r>
       <r>    5.2809    1.0000 </r>
       <r>    5.7735    1.0279 </r>
       <r>    5.9939    0.8049 </r>
       <r>    6.2115    0.0415 </r>
       <r>    6.2115    0.0415 </r>
       <r>    9.7609   -0.0000 </r>
       <r>   10.4533   -0.0000 </r>
       <r>   10.4533   -0.0000 </r>
       <r>   10.7671   -0.0000 </r>
       <r>   22.3268    0.0000 </r>
      </set>
      <set comment="kpoint 217">
       <r>    0.5370    1.0000 </r>
       <r>    2.1161    1.0000 </r>
       <r>    2.3503    1.0000 </r>
       <r>    2.3503    1.0000 </r>
       <r>    3.9080    1.0000 </r>
       <r>    3.9228    1.0000 </r>
       <r>    3.9228    1.0000 </r>
       <r>    4.2534    1.0000 </r>
       <r>    4.2534    1.0000 </r>
       <r>    4.2697    1.0000 </r>
       <r>    4.9328    1.0000 </r>
       <r>    4.9732    1.0000 </r>
       <r>    4.9732    1.0000 </r>
       <r>    5.2216    1.0000 </r>
       <r>    5.2216    1.0000 </r>
       <r>    5.9028    1.0011 </r>
       <r>    6.0516    0.5867 </r>
       <r>    6.1539    0.1843 </r>
       <r>    6.1539    0.1843 </r>
       <r>    9.6541   -0.0000 </r>
       <r>   10.2855   -0.0000 </r>
       <r>   10.2855   -0.0000 </r>
       <r>   10.8437   -0.0000 </r>
       <r>   23.1763    0.0000 </r>
      </set>
      <set comment="kpoint 218">
       <r>    0.5436    1.0000 </r>
       <r>    2.2217    1.0000 </r>
       <r>    2.2599    1.0000 </r>
       <r>    2.3853    1.0000 </r>
       <r>    3.9449    1.0000 </r>
       <r>    3.9717    1.0000 </r>
       <r>    3.9762    1.0000 </r>
       <r>    4.2471    1.0000 </r>
       <r>    4.2524    1.0000 </r>
       <r>    4.2553    1.0000 </r>
       <r>    4.9275    1.0000 </r>
       <r>    4.9388    1.0000 </r>
       <r>    5.0132    1.0000 </r>
       <r>    5.1977    1.0000 </r>
       <r>    5.2106    1.0000 </r>
       <r>    5.8847    1.0174 </r>
       <r>    6.0432    0.6214 </r>
       <r>    6.1199    0.3046 </r>
       <r>    6.1322    0.2586 </r>
       <r>    9.5962   -0.0000 </r>
       <r>   10.2244   -0.0000 </r>
       <r>   10.3492   -0.0000 </r>
       <r>   10.5943   -0.0000 </r>
       <r>   23.2515    0.0000 </r>
      </set>
      <set comment="kpoint 219">
       <r>    0.5464    1.0000 </r>
       <r>    2.2918    1.0000 </r>
       <r>    2.2918    1.0000 </r>
       <r>    2.3379    1.0000 </r>
       <r>    4.0099    1.0000 </r>
       <r>    4.0099    1.0000 </r>
       <r>    4.0430    1.0000 </r>
       <r>    4.2347    1.0000 </r>
       <r>    4.2446    1.0000 </r>
       <r>    4.2446    1.0000 </r>
       <r>    4.8865    1.0000 </r>
       <r>    4.9810    1.0000 </r>
       <r>    4.9810    1.0000 </r>
       <r>    5.1647    1.0000 </r>
       <r>    5.1973    1.0000 </r>
       <r>    5.9175    0.9830 </r>
       <r>    6.0348    0.6555 </r>
       <r>    6.0890    0.4292 </r>
       <r>    6.0890    0.4292 </r>
       <r>    9.5460   -0.0000 </r>
       <r>   10.2714   -0.0000 </r>
       <r>   10.2714   -0.0000 </r>
       <r>   10.3581   -0.0000 </r>
       <r>   23.5237    0.0000 </r>
      </set>
      <set comment="kpoint 220">
       <r>    0.5462    1.0000 </r>
       <r>    2.3263    1.0000 </r>
       <r>    2.3263    1.0000 </r>
       <r>    2.3263    1.0000 </r>
       <r>    4.0961    1.0000 </r>
       <r>    4.0961    1.0000 </r>
       <r>    4.0961    1.0000 </r>
       <r>    4.2227    1.0000 </r>
       <r>    4.2227    1.0000 </r>
       <r>    4.2227    1.0000 </r>
       <r>    4.9197    1.0000 </r>
       <r>    4.9197    1.0000 </r>
       <r>    4.9197    1.0000 </r>
       <r>    5.1617    1.0000 </r>
       <r>    5.1617    1.0000 </r>
       <r>    5.9753    0.8617 </r>
       <r>    6.0486    0.5993 </r>
       <r>    6.0486    0.5993 </r>
       <r>    6.0486    0.5993 </r>
       <r>    9.4735   -0.0000 </r>
       <r>   10.2122   -0.0000 </r>
       <r>   10.2122   -0.0000 </r>
       <r>   10.2122   -0.0000 </r>
       <r>   24.2394    0.0000 </r>
      </set>
     </set>
     <set comment="spin 2">
      <set comment="kpoint 1">
       <r>   -3.7888    1.0000 </r>
       <r>    1.9071    1.0000 </r>
       <r>    2.6041    1.0000 </r>
       <r>    2.6041    1.0000 </r>
       <r>    3.0127    1.0000 </r>
       <r>    3.0127    1.0000 </r>
       <r>    3.0127    1.0000 </r>
       <r>    4.8689    1.0000 </r>
       <r>    4.8689    1.0000 </r>
       <r>    4.8689    1.0000 </r>
       <r>    5.6496    1.0055 </r>
       <r>    5.6496    1.0055 </r>
       <r>    5.9978    0.7921 </r>
       <r>    6.2474   -0.0070 </r>
       <r>    6.2474   -0.0070 </r>
       <r>    6.2474   -0.0070 </r>
       <r>    6.9812   -0.0000 </r>
       <r>    6.9812   -0.0000 </r>
       <r>    6.9812   -0.0000 </r>
       <r>   12.6825    0.0000 </r>
       <r>   12.6825    0.0000 </r>
       <r>   13.3394    0.0000 </r>
       <r>   18.3183    0.0000 </r>
       <r>   18.3183    0.0000 </r>
      </set>
      <set comment="kpoint 2">
       <r>   -3.7513    1.0000 </r>
       <r>    1.9193    1.0000 </r>
       <r>    2.5800    1.0000 </r>
       <r>    2.6280    1.0000 </r>
       <r>    3.0181    1.0000 </r>
       <r>    3.0181    1.0000 </r>
       <r>    3.0219    1.0000 </r>
       <r>    4.8471    1.0000 </r>
       <r>    4.8471    1.0000 </r>
       <r>    4.8590    1.0000 </r>
       <r>    5.6284    1.0037 </r>
       <r>    5.6500    1.0055 </r>
       <r>    5.9841    0.8357 </r>
       <r>    6.1269    0.2780 </r>
       <r>    6.1269    0.2780 </r>
       <r>    6.2475   -0.0070 </r>
       <r>    6.8177   -0.0000 </r>
       <r>    7.1513   -0.0000 </r>
       <r>    7.1513   -0.0000 </r>
       <r>   12.6799    0.0000 </r>
       <r>   12.8256    0.0000 </r>
       <r>   13.4582    0.0000 </r>
       <r>   18.1519    0.0000 </r>
       <r>   18.1519    0.0000 </r>
      </set>
      <set comment="kpoint 3">
       <r>   -3.6392    1.0000 </r>
       <r>    1.9479    1.0000 </r>
       <r>    2.5071    1.0000 </r>
       <r>    2.6986    1.0000 </r>
       <r>    3.0338    1.0000 </r>
       <r>    3.0338    1.0000 </r>
       <r>    3.0488    1.0000 </r>
       <r>    4.7851    1.0000 </r>
       <r>    4.7851    1.0000 </r>
       <r>    4.8299    1.0000 </r>
       <r>    5.5611    1.0009 </r>
       <r>    5.6509    1.0056 </r>
       <r>    5.9098    0.9931 </r>
       <r>    5.9098    0.9931 </r>
       <r>    5.9437    0.9383 </r>
       <r>    6.2476   -0.0071 </r>
       <r>    6.4190   -0.0171 </r>
       <r>    7.5154   -0.0000 </r>
       <r>    7.5154   -0.0000 </r>
       <r>   12.6721    0.0000 </r>
       <r>   13.0213    0.0000 </r>
       <r>   13.9643    0.0000 </r>
       <r>   17.5607    0.0000 </r>
       <r>   17.5607    0.0000 </r>
      </set>
      <set comment="kpoint 4">
       <r>   -3.4536    1.0000 </r>
       <r>    1.9507    1.0000 </r>
       <r>    2.4030    1.0000 </r>
       <r>    2.8122    1.0000 </r>
       <r>    3.0588    1.0000 </r>
       <r>    3.0588    1.0000 </r>
       <r>    3.0919    1.0000 </r>
       <r>    4.6924    1.0000 </r>
       <r>    4.6924    1.0000 </r>
       <r>    4.7835    1.0000 </r>
       <r>    5.4274    1.0000 </r>
       <r>    5.6500    1.0055 </r>
       <r>    5.7004    1.0123 </r>
       <r>    5.7004    1.0123 </r>
       <r>    5.8787    1.0214 </r>
       <r>    5.9718    0.8714 </r>
       <r>    6.2477   -0.0073 </r>
       <r>    7.9637   -0.0000 </r>
       <r>    7.9637   -0.0000 </r>
       <r>   12.6594    0.0000 </r>
       <r>   13.1316    0.0000 </r>
       <r>   14.8306    0.0000 </r>
       <r>   16.7120    0.0000 </r>
       <r>   16.7120    0.0000 </r>
      </set>
      <set comment="kpoint 5">
       <r>   -3.1965    1.0000 </r>
       <r>    1.7995    1.0000 </r>
       <r>    2.3647    1.0000 </r>
       <r>    2.9625    1.0000 </r>
       <r>    3.0909    1.0000 </r>
       <r>    3.0909    1.0000 </r>
       <r>    3.1482    1.0000 </r>
       <r>    4.5832    1.0000 </r>
       <r>    4.5832    1.0000 </r>
       <r>    4.7231    1.0000 </r>
       <r>    5.1922    1.0000 </r>
       <r>    5.5184    1.0003 </r>
       <r>    5.5184    1.0003 </r>
       <r>    5.6393    1.0045 </r>
       <r>    5.6462    1.0051 </r>
       <r>    5.7981    1.0328 </r>
       <r>    6.2479   -0.0075 </r>
       <r>    8.4687   -0.0000 </r>
       <r>    8.4687   -0.0000 </r>
       <r>   12.6422    0.0000 </r>
       <r>   13.2272    0.0000 </r>
       <r>   15.7500    0.0000 </r>
       <r>   15.8079    0.0000 </r>
       <r>   15.8079    0.0000 </r>
      </set>
      <set comment="kpoint 6">
       <r>   -2.8712    1.0000 </r>
       <r>    1.4345    1.0000 </r>
       <r>    2.4333    1.0000 </r>
       <r>    3.1272    1.0000 </r>
       <r>    3.1272    1.0000 </r>
       <r>    3.1396    1.0000 </r>
       <r>    3.2133    1.0000 </r>
       <r>    4.4734    1.0000 </r>
       <r>    4.4734    1.0000 </r>
       <r>    4.6536    1.0000 </r>
       <r>    4.9252    1.0000 </r>
       <r>    5.3653    1.0000 </r>
       <r>    5.3653    1.0000 </r>
       <r>    5.4483    1.0000 </r>
       <r>    5.5887    1.0017 </r>
       <r>    5.7350    1.0191 </r>
       <r>    6.2481   -0.0077 </r>
       <r>    9.0215   -0.0000 </r>
       <r>    9.0215   -0.0000 </r>
       <r>   12.6218    0.0000 </r>
       <r>   13.3367    0.0000 </r>
       <r>   14.9124    0.0000 </r>
       <r>   14.9124    0.0000 </r>
       <r>   15.9689    0.0000 </r>
      </set>
      <set comment="kpoint 7">
       <r>   -2.4834    1.0000 </r>
       <r>    0.9350    1.0000 </r>
       <r>    2.5406    1.0000 </r>
       <r>    3.1637    1.0000 </r>
       <r>    3.1637    1.0000 </r>
       <r>    3.2810    1.0000 </r>
       <r>    3.3285    1.0000 </r>
       <r>    4.3762    1.0000 </r>
       <r>    4.3762    1.0000 </r>
       <r>    4.5818    1.0000 </r>
       <r>    4.7293    1.0000 </r>
       <r>    5.2408    1.0000 </r>
       <r>    5.2408    1.0000 </r>
       <r>    5.2962    1.0000 </r>
       <r>    5.4800    1.0001 </r>
       <r>    5.7148    1.0149 </r>
       <r>    6.2483   -0.0078 </r>
       <r>    9.6180   -0.0000 </r>
       <r>    9.6180   -0.0000 </r>
       <r>   12.6002    0.0000 </r>
       <r>   13.4677    0.0000 </r>
       <r>   14.0445    0.0000 </r>
       <r>   14.0445    0.0000 </r>
       <r>   15.6163    0.0000 </r>
      </set>
      <set comment="kpoint 8">
       <r>   -2.0437    1.0000 </r>
       <r>    0.3743    1.0000 </r>
       <r>    2.6453    1.0000 </r>
       <r>    3.1953    1.0000 </r>
       <r>    3.1953    1.0000 </r>
       <r>    3.3423    1.0000 </r>
       <r>    3.5068    1.0000 </r>
       <r>    4.3012    1.0000 </r>
       <r>    4.3012    1.0000 </r>
       <r>    4.5171    1.0000 </r>
       <r>    4.6156    1.0000 </r>
       <r>    5.1470    1.0000 </r>
       <r>    5.1470    1.0000 </r>
       <r>    5.1699    1.0000 </r>
       <r>    5.3543    1.0000 </r>
       <r>    5.7114    1.0143 </r>
       <r>    6.2484   -0.0080 </r>
       <r>   10.2562   -0.0000 </r>
       <r>   10.2562   -0.0000 </r>
       <r>   12.5806    0.0000 </r>
       <r>   13.2112    0.0000 </r>
       <r>   13.2112    0.0000 </r>
       <r>   13.6177    0.0000 </r>
       <r>   15.2303    0.0000 </r>
      </set>
      <set comment="kpoint 9">
       <r>   -1.5844    1.0000 </r>
       <r>   -0.1734    1.0000 </r>
       <r>    2.7210    1.0000 </r>
       <r>    3.2170    1.0000 </r>
       <r>    3.2170    1.0000 </r>
       <r>    3.3862    1.0000 </r>
       <r>    3.6414    1.0000 </r>
       <r>    4.2543    1.0000 </r>
       <r>    4.2543    1.0000 </r>
       <r>    4.4709    1.0000 </r>
       <r>    4.5621    1.0000 </r>
       <r>    5.0809    1.0000 </r>
       <r>    5.0881    1.0000 </r>
       <r>    5.0881    1.0000 </r>
       <r>    5.2519    1.0000 </r>
       <r>    5.7116    1.0143 </r>
       <r>    6.2485   -0.0081 </r>
       <r>   10.9341   -0.0000 </r>
       <r>   10.9341   -0.0000 </r>
       <r>   12.4159    0.0000 </r>
       <r>   12.4159    0.0000 </r>
       <r>   12.5666    0.0000 </r>
       <r>   13.7633    0.0000 </r>
       <r>   14.9279    0.0000 </r>
      </set>
      <set comment="kpoint 10">
       <r>   -1.2982    1.0000 </r>
       <r>   -0.4917    1.0000 </r>
       <r>    2.7488    1.0000 </r>
       <r>    3.2248    1.0000 </r>
       <r>    3.2248    1.0000 </r>
       <r>    3.4024    1.0000 </r>
       <r>    3.6930    1.0000 </r>
       <r>    4.2383    1.0000 </r>
       <r>    4.2383    1.0000 </r>
       <r>    4.4540    1.0000 </r>
       <r>    4.5474    1.0000 </r>
       <r>    5.0481    1.0000 </r>
       <r>    5.0679    1.0000 </r>
       <r>    5.0679    1.0000 </r>
       <r>    5.2112    1.0000 </r>
       <r>    5.7119    1.0144 </r>
       <r>    6.2486   -0.0081 </r>
       <r>   11.5954    0.0000 </r>
       <r>   11.5954    0.0000 </r>
       <r>   11.7156    0.0000 </r>
       <r>   11.7156    0.0000 </r>
       <r>   12.5616    0.0000 </r>
       <r>   13.8337    0.0000 </r>
       <r>   14.8035    0.0000 </r>
      </set>
      <set comment="kpoint 11">
       <r>   -3.7139    1.0000 </r>
       <r>    1.9317    1.0000 </r>
       <r>    2.5801    1.0000 </r>
       <r>    2.6277    1.0000 </r>
       <r>    3.0139    1.0000 </r>
       <r>    3.0231    1.0000 </r>
       <r>    3.0407    1.0000 </r>
       <r>    4.7961    1.0000 </r>
       <r>    4.8261    1.0000 </r>
       <r>    4.8797    1.0000 </r>
       <r>    5.6175    1.0030 </r>
       <r>    5.6399    1.0046 </r>
       <r>    5.9637    0.8927 </r>
       <r>    6.0091    0.7530 </r>
       <r>    6.0520    0.5852 </r>
       <r>    6.2310    0.0116 </r>
       <r>    6.8951   -0.0000 </r>
       <r>    7.0800   -0.0000 </r>
       <r>    7.2907   -0.0000 </r>
       <r>   12.7444    0.0000 </r>
       <r>   12.9323    0.0000 </r>
       <r>   13.5509    0.0000 </r>
       <r>   17.6966    0.0000 </r>
       <r>   18.0649    0.0000 </r>
      </set>
      <set comment="kpoint 12">
       <r>   -3.6020    1.0000 </r>
       <r>    1.9616    1.0000 </r>
       <r>    2.5164    1.0000 </r>
       <r>    2.6883    1.0000 </r>
       <r>    3.0218    1.0000 </r>
       <r>    3.0378    1.0000 </r>
       <r>    3.0758    1.0000 </r>
       <r>    4.7124    1.0000 </r>
       <r>    4.7664    1.0000 </r>
       <r>    4.8763    1.0000 </r>
       <r>    5.5489    1.0007 </r>
       <r>    5.6365    1.0043 </r>
       <r>    5.7716    1.0275 </r>
       <r>    5.8737    1.0244 </r>
       <r>    5.9354    0.9542 </r>
       <r>    6.2219    0.0243 </r>
       <r>    6.5675   -0.0013 </r>
       <r>    7.3737   -0.0000 </r>
       <r>    7.6206   -0.0000 </r>
       <r>   12.7605    0.0000 </r>
       <r>   13.1700    0.0000 </r>
       <r>   14.0025    0.0000 </r>
       <r>   16.9639    0.0000 </r>
       <r>   17.5833    0.0000 </r>
      </set>
      <set comment="kpoint 13">
       <r>   -3.4167    1.0000 </r>
       <r>    1.9680    1.0000 </r>
       <r>    2.4121    1.0000 </r>
       <r>    2.7993    1.0000 </r>
       <r>    3.0418    1.0000 </r>
       <r>    3.0617    1.0000 </r>
       <r>    3.1243    1.0000 </r>
       <r>    4.6089    1.0000 </r>
       <r>    4.6781    1.0000 </r>
       <r>    4.8466    1.0000 </r>
       <r>    5.3826    1.0000 </r>
       <r>    5.5720    1.0012 </r>
       <r>    5.6396    1.0046 </r>
       <r>    5.6801    1.0091 </r>
       <r>    5.8687    1.0269 </r>
       <r>    6.1450    0.2137 </r>
       <r>    6.2197    0.0278 </r>
       <r>    7.7987   -0.0000 </r>
       <r>    8.0484   -0.0000 </r>
       <r>   12.7566    0.0000 </r>
       <r>   13.3005    0.0000 </r>
       <r>   14.8545    0.0000 </r>
       <r>   16.1282    0.0000 </r>
       <r>   16.7516    0.0000 </r>
      </set>
      <set comment="kpoint 14">
       <r>   -3.1601    1.0000 </r>
       <r>    1.8213    1.0000 </r>
       <r>    2.3720    1.0000 </r>
       <r>    2.9446    1.0000 </r>
       <r>    3.0717    1.0000 </r>
       <r>    3.0953    1.0000 </r>
       <r>    3.1835    1.0000 </r>
       <r>    4.4981    1.0000 </r>
       <r>    4.5748    1.0000 </r>
       <r>    4.7942    1.0000 </r>
       <r>    5.1214    1.0000 </r>
       <r>    5.4275    1.0000 </r>
       <r>    5.5040    1.0002 </r>
       <r>    5.6278    1.0037 </r>
       <r>    5.7697    1.0271 </r>
       <r>    5.8286    1.0355 </r>
       <r>    6.2192    0.0285 </r>
       <r>    8.2776   -0.0000 </r>
       <r>    8.5406   -0.0000 </r>
       <r>   12.7439    0.0000 </r>
       <r>   13.4064    0.0000 </r>
       <r>   15.2459    0.0000 </r>
       <r>   15.8478    0.0000 </r>
       <r>   15.8480    0.0000 </r>
      </set>
      <set comment="kpoint 15">
       <r>   -2.8355    1.0000 </r>
       <r>    1.4589    1.0000 </r>
       <r>    2.4414    1.0000 </r>
       <r>    3.0839    1.0000 </r>
       <r>    3.1084    1.0000 </r>
       <r>    3.1656    1.0000 </r>
       <r>    3.2483    1.0000 </r>
       <r>    4.3943    1.0000 </r>
       <r>    4.4684    1.0000 </r>
       <r>    4.7231    1.0000 </r>
       <r>    4.8729    1.0000 </r>
       <r>    5.2892    1.0000 </r>
       <r>    5.3543    1.0000 </r>
       <r>    5.5486    1.0007 </r>
       <r>    5.6080    1.0025 </r>
       <r>    5.7281    1.0177 </r>
       <r>    6.2193    0.0283 </r>
       <r>    8.7984   -0.0000 </r>
       <r>    9.0845   -0.0000 </r>
       <r>   12.7166    0.0000 </r>
       <r>   13.5247    0.0000 </r>
       <r>   14.4437    0.0000 </r>
       <r>   14.9523    0.0000 </r>
       <r>   16.2117    0.0000 </r>
      </set>
      <set comment="kpoint 16">
       <r>   -2.4485    1.0000 </r>
       <r>    0.9618    1.0000 </r>
       <r>    2.5502    1.0000 </r>
       <r>    3.1378    1.0000 </r>
       <r>    3.1479    1.0000 </r>
       <r>    3.3114    1.0000 </r>
       <r>    3.3331    1.0000 </r>
       <r>    4.3111    1.0000 </r>
       <r>    4.3662    1.0000 </r>
       <r>    4.6390    1.0000 </r>
       <r>    4.7054    1.0000 </r>
       <r>    5.1587    1.0000 </r>
       <r>    5.2346    1.0000 </r>
       <r>    5.3953    1.0000 </r>
       <r>    5.4933    1.0002 </r>
       <r>    5.7039    1.0129 </r>
       <r>    6.2196    0.0279 </r>
       <r>    9.3554   -0.0000 </r>
       <r>    9.6747   -0.0000 </r>
       <r>   12.6470    0.0000 </r>
       <r>   13.6114    0.0000 </r>
       <r>   13.7615    0.0000 </r>
       <r>   14.0851    0.0000 </r>
       <r>   15.8825    0.0000 </r>
      </set>
      <set comment="kpoint 17">
       <r>   -2.0099    1.0000 </r>
       <r>    0.4034    1.0000 </r>
       <r>    2.6572    1.0000 </r>
       <r>    3.1665    1.0000 </r>
       <r>    3.1846    1.0000 </r>
       <r>    3.3637    1.0000 </r>
       <r>    3.5111    1.0000 </r>
       <r>    4.2593    1.0000 </r>
       <r>    4.2782    1.0000 </r>
       <r>    4.5516    1.0000 </r>
       <r>    4.6202    1.0000 </r>
       <r>    5.0474    1.0000 </r>
       <r>    5.1475    1.0000 </r>
       <r>    5.2755    1.0000 </r>
       <r>    5.3675    1.0000 </r>
       <r>    5.7003    1.0122 </r>
       <r>    6.2198    0.0275 </r>
       <r>    9.9440   -0.0000 </r>
       <r>   10.3079   -0.0000 </r>
       <r>   12.4102    0.0000 </r>
       <r>   13.1554    0.0000 </r>
       <r>   13.2532    0.0000 </r>
       <r>   13.8521    0.0000 </r>
       <r>   15.4840    0.0000 </r>
      </set>
      <set comment="kpoint 18">
       <r>   -1.5523    1.0000 </r>
       <r>   -0.1417    1.0000 </r>
       <r>    2.7355    1.0000 </r>
       <r>    3.1831    1.0000 </r>
       <r>    3.2116    1.0000 </r>
       <r>    3.3970    1.0000 </r>
       <r>    3.6501    1.0000 </r>
       <r>    4.2174    1.0000 </r>
       <r>    4.2407    1.0000 </r>
       <r>    4.4781    1.0000 </r>
       <r>    4.5875    1.0000 </r>
       <r>    4.9686    1.0000 </r>
       <r>    5.0947    1.0000 </r>
       <r>    5.2031    1.0000 </r>
       <r>    5.2613    1.0000 </r>
       <r>    5.7006    1.0123 </r>
       <r>    6.2200    0.0273 </r>
       <r>   10.5559   -0.0000 </r>
       <r>   10.9815   -0.0000 </r>
       <r>   11.8812    0.0000 </r>
       <r>   12.4602    0.0000 </r>
       <r>   12.9671    0.0000 </r>
       <r>   14.0155    0.0000 </r>
       <r>   15.1626    0.0000 </r>
      </set>
      <set comment="kpoint 19">
       <r>   -1.2680    1.0000 </r>
       <r>   -0.4579    1.0000 </r>
       <r>    2.7645    1.0000 </r>
       <r>    3.1883    1.0000 </r>
       <r>    3.2216    1.0000 </r>
       <r>    3.4082    1.0000 </r>
       <r>    3.7051    1.0000 </r>
       <r>    4.1947    1.0000 </r>
       <r>    4.2399    1.0000 </r>
       <r>    4.4467    1.0000 </r>
       <r>    4.5802    1.0000 </r>
       <r>    4.9394    1.0000 </r>
       <r>    5.0770    1.0000 </r>
       <r>    5.1844    1.0000 </r>
       <r>    5.2132    1.0000 </r>
       <r>    5.7010    1.0124 </r>
       <r>    6.2201    0.0272 </r>
       <r>   11.0602   -0.0000 </r>
       <r>   11.3771   -0.0000 </r>
       <r>   11.6289    0.0000 </r>
       <r>   11.7730    0.0000 </r>
       <r>   12.9313    0.0000 </r>
       <r>   14.0979    0.0000 </r>
       <r>   15.0261    0.0000 </r>
      </set>
      <set comment="kpoint 20">
       <r>   -3.4906    1.0000 </r>
       <r>    1.9965    1.0000 </r>
       <r>    2.5056    1.0000 </r>
       <r>    2.6928    1.0000 </r>
       <r>    3.0187    1.0000 </r>
       <r>    3.0499    1.0000 </r>
       <r>    3.1230    1.0000 </r>
       <r>    4.6018    1.0000 </r>
       <r>    4.7144    1.0000 </r>
       <r>    4.9111    1.0000 </r>
       <r>    5.4380    1.0000 </r>
       <r>    5.6012    1.0022 </r>
       <r>    5.6117    1.0027 </r>
       <r>    5.7670    1.0265 </r>
       <r>    5.8975    1.0065 </r>
       <r>    6.1820    0.1043 </r>
       <r>    6.6943   -0.0000 </r>
       <r>    7.1866   -0.0000 </r>
       <r>    7.8961   -0.0000 </r>
       <r>   12.8219    0.0000 </r>
       <r>   13.6260    0.0000 </r>
       <r>   14.2165    0.0000 </r>
       <r>   16.1074    0.0000 </r>
       <r>   17.5362    0.0000 </r>
      </set>
      <set comment="kpoint 21">
       <r>   -3.3064    1.0000 </r>
       <r>    2.0157    1.0000 </r>
       <r>    2.4212    1.0000 </r>
       <r>    2.7718    1.0000 </r>
       <r>    3.0289    1.0000 </r>
       <r>    3.0714    1.0000 </r>
       <r>    3.1830    1.0000 </r>
       <r>    4.4802    1.0000 </r>
       <r>    4.6402    1.0000 </r>
       <r>    4.9166    1.0000 </r>
       <r>    5.1920    1.0000 </r>
       <r>    5.5005    1.0002 </r>
       <r>    5.6034    1.0023 </r>
       <r>    5.6162    1.0029 </r>
       <r>    5.8333    1.0353 </r>
       <r>    6.1586    0.1697 </r>
       <r>    6.3913   -0.0233 </r>
       <r>    7.4372   -0.0000 </r>
       <r>    8.2822   -0.0000 </r>
       <r>   12.8332    0.0000 </r>
       <r>   13.8979    0.0000 </r>
       <r>   14.9384    0.0000 </r>
       <r>   15.2380    0.0000 </r>
       <r>   16.8668    0.0000 </r>
      </set>
      <set comment="kpoint 22">
       <r>   -3.0512    1.0000 </r>
       <r>    1.8852    1.0000 </r>
       <r>    2.3809    1.0000 </r>
       <r>    2.8965    1.0000 </r>
       <r>    3.0513    1.0000 </r>
       <r>    3.1083    1.0000 </r>
       <r>    3.2515    1.0000 </r>
       <r>    4.3611    1.0000 </r>
       <r>    4.5548    1.0000 </r>
       <r>    4.8906    1.0000 </r>
       <r>    4.9374    1.0000 </r>
       <r>    5.3829    1.0000 </r>
       <r>    5.4583    1.0001 </r>
       <r>    5.5947    1.0019 </r>
       <r>    5.7467    1.0218 </r>
       <r>    6.0463    0.6088 </r>
       <r>    6.1477    0.2046 </r>
       <r>    7.8418   -0.0000 </r>
       <r>    8.7444   -0.0000 </r>
       <r>   12.8087    0.0000 </r>
       <r>   14.0143    0.0000 </r>
       <r>   14.4403    0.0000 </r>
       <r>   15.9120    0.0000 </r>
       <r>   15.9664    0.0000 </r>
      </set>
      <set comment="kpoint 23">
       <r>   -2.7286    1.0000 </r>
       <r>    1.5305    1.0000 </r>
       <r>    2.4554    1.0000 </r>
       <r>    3.0117    1.0000 </r>
       <r>    3.0837    1.0000 </r>
       <r>    3.1892    1.0000 </r>
       <r>    3.3209    1.0000 </r>
       <r>    4.2595    1.0000 </r>
       <r>    4.4543    1.0000 </r>
       <r>    4.7412    1.0000 </r>
       <r>    4.8300    1.0000 </r>
       <r>    5.2457    1.0000 </r>
       <r>    5.3196    1.0000 </r>
       <r>    5.5438    1.0006 </r>
       <r>    5.6697    1.0077 </r>
       <r>    5.7984    1.0328 </r>
       <r>    6.1428    0.2211 </r>
       <r>    8.2940   -0.0000 </r>
       <r>    9.2662   -0.0000 </r>
       <r>   12.6820    0.0000 </r>
       <r>   13.6936    0.0000 </r>
       <r>   14.2345    0.0000 </r>
       <r>   15.0703    0.0000 </r>
       <r>   16.4573    0.0000 </r>
      </set>
      <set comment="kpoint 24">
       <r>   -2.3442    1.0000 </r>
       <r>    1.0406    1.0000 </r>
       <r>    2.5706    1.0000 </r>
       <r>    3.0674    1.0000 </r>
       <r>    3.1229    1.0000 </r>
       <r>    3.3426    1.0000 </r>
       <r>    3.3798    1.0000 </r>
       <r>    4.1925    1.0000 </r>
       <r>    4.3314    1.0000 </r>
       <r>    4.6471    1.0000 </r>
       <r>    4.7339    1.0000 </r>
       <r>    5.1036    1.0000 </r>
       <r>    5.2158    1.0000 </r>
       <r>    5.4271    1.0000 </r>
       <r>    5.5922    1.0018 </r>
       <r>    5.6786    1.0088 </r>
       <r>    6.1406    0.2286 </r>
       <r>    8.7790   -0.0000 </r>
       <r>    9.8393   -0.0000 </r>
       <r>   12.2913    0.0000 </r>
       <r>   13.3549    0.0000 </r>
       <r>   14.2050    0.0000 </r>
       <r>   14.3888    0.0000 </r>
       <r>   16.2146    0.0000 </r>
      </set>
      <set comment="kpoint 25">
       <r>   -1.9092    1.0000 </r>
       <r>    0.4898    1.0000 </r>
       <r>    2.6860    1.0000 </r>
       <r>    3.0867    1.0000 </r>
       <r>    3.1640    1.0000 </r>
       <r>    3.4155    1.0000 </r>
       <r>    3.5195    1.0000 </r>
       <r>    4.1754    1.0000 </r>
       <r>    4.2173    1.0000 </r>
       <r>    4.6133    1.0000 </r>
       <r>    4.6260    1.0000 </r>
       <r>    4.9742    1.0000 </r>
       <r>    5.1491    1.0000 </r>
       <r>    5.3129    1.0000 </r>
       <r>    5.4598    1.0001 </r>
       <r>    5.6678    1.0074 </r>
       <r>    6.1397    0.2317 </r>
       <r>    9.2920   -0.0000 </r>
       <r>   10.4587   -0.0000 </r>
       <r>   11.6974    0.0000 </r>
       <r>   13.2621    0.0000 </r>
       <r>   13.3773    0.0000 </r>
       <r>   14.5796    0.0000 </r>
       <r>   15.8490    0.0000 </r>
      </set>
      <set comment="kpoint 26">
       <r>   -1.4566    1.0000 </r>
       <r>   -0.0477    1.0000 </r>
       <r>    2.7750    1.0000 </r>
       <r>    3.0876    1.0000 </r>
       <r>    3.1983    1.0000 </r>
       <r>    3.4256    1.0000 </r>
       <r>    3.6694    1.0000 </r>
       <r>    4.1340    1.0000 </r>
       <r>    4.2084    1.0000 </r>
       <r>    4.4930    1.0000 </r>
       <r>    4.6358    1.0000 </r>
       <r>    4.8767    1.0000 </r>
       <r>    5.1128    1.0000 </r>
       <r>    5.2395    1.0000 </r>
       <r>    5.3539    1.0000 </r>
       <r>    5.6680    1.0075 </r>
       <r>    6.1394    0.2329 </r>
       <r>    9.8255   -0.0000 </r>
       <r>   11.0803   -0.0000 </r>
       <r>   11.1198   -0.0000 </r>
       <r>   12.5915    0.0000 </r>
       <r>   13.2459    0.0000 </r>
       <r>   14.7801    0.0000 </r>
       <r>   15.5357    0.0000 </r>
      </set>
      <set comment="kpoint 27">
       <r>   -1.1778    1.0000 </r>
       <r>   -0.3574    1.0000 </r>
       <r>    2.8102    1.0000 </r>
       <r>    3.0843    1.0000 </r>
       <r>    3.2125    1.0000 </r>
       <r>    3.4251    1.0000 </r>
       <r>    3.7344    1.0000 </r>
       <r>    4.0983    1.0000 </r>
       <r>    4.2446    1.0000 </r>
       <r>    4.4277    1.0000 </r>
       <r>    4.6451    1.0000 </r>
       <r>    4.8377    1.0000 </r>
       <r>    5.1012    1.0000 </r>
       <r>    5.2172    1.0000 </r>
       <r>    5.3100    1.0000 </r>
       <r>    5.6685    1.0075 </r>
       <r>    6.1393    0.2332 </r>
       <r>   10.2420   -0.0000 </r>
       <r>   10.6326   -0.0000 </r>
       <r>   11.7293    0.0000 </r>
       <r>   11.9406    0.0000 </r>
       <r>   13.2449    0.0000 </r>
       <r>   14.8982    0.0000 </r>
       <r>   15.3806    0.0000 </r>
      </set>
      <set comment="kpoint 28">
       <r>   -3.1238    1.0000 </r>
       <r>    2.0693    1.0000 </r>
       <r>    2.3741    1.0000 </r>
       <r>    2.7786    1.0000 </r>
       <r>    3.0297    1.0000 </r>
       <r>    3.0917    1.0000 </r>
       <r>    3.2554    1.0000 </r>
       <r>    4.3455    1.0000 </r>
       <r>    4.5912    1.0000 </r>
       <r>    4.9460    1.0000 </r>
       <r>    4.9604    1.0000 </r>
       <r>    5.4528    1.0001 </r>
       <r>    5.5089    1.0003 </r>
       <r>    5.5666    1.0010 </r>
       <r>    5.7727    1.0277 </r>
       <r>    6.1016    0.3773 </r>
       <r>    6.4706   -0.0082 </r>
       <r>    7.2192   -0.0000 </r>
       <r>    8.6274   -0.0000 </r>
       <r>   12.8235    0.0000 </r>
       <r>   14.3742    0.0000 </r>
       <r>   14.6478    0.0000 </r>
       <r>   15.2121    0.0000 </r>
       <r>   16.9749    0.0000 </r>
      </set>
      <set comment="kpoint 29">
       <r>   -2.8712    1.0000 </r>
       <r>    1.9851    1.0000 </r>
       <r>    2.3376    1.0000 </r>
       <r>    2.8496    1.0000 </r>
       <r>    3.0438    1.0000 </r>
       <r>    3.1318    1.0000 </r>
       <r>    3.3358    1.0000 </r>
       <r>    4.2190    1.0000 </r>
       <r>    4.5359    1.0000 </r>
       <r>    4.7176    1.0000 </r>
       <r>    4.9700    1.0000 </r>
       <r>    5.3607    1.0000 </r>
       <r>    5.3766    1.0000 </r>
       <r>    5.5478    1.0007 </r>
       <r>    5.6899    1.0105 </r>
       <r>    6.0637    0.5363 </r>
       <r>    6.2364    0.0048 </r>
       <r>    7.4029   -0.0000 </r>
       <r>    9.0554   -0.0000 </r>
       <r>   12.6636    0.0000 </r>
       <r>   13.6967    0.0000 </r>
       <r>   14.9811    0.0000 </r>
       <r>   16.0193    0.0000 </r>
       <r>   16.1572    0.0000 </r>
      </set>
      <set comment="kpoint 30">
       <r>   -2.5520    1.0000 </r>
       <r>    1.6445    1.0000 </r>
       <r>    2.4306    1.0000 </r>
       <r>    2.9338    1.0000 </r>
       <r>    3.0697    1.0000 </r>
       <r>    3.2142    1.0000 </r>
       <r>    3.4135    1.0000 </r>
       <r>    4.1178    1.0000 </r>
       <r>    4.4183    1.0000 </r>
       <r>    4.6021    1.0000 </r>
       <r>    4.9284    1.0000 </r>
       <r>    5.2327    1.0000 </r>
       <r>    5.2567    1.0000 </r>
       <r>    5.5064    1.0002 </r>
       <r>    5.6172    1.0030 </r>
       <r>    5.9675    0.8829 </r>
       <r>    6.0416    0.6280 </r>
       <r>    7.7506   -0.0000 </r>
       <r>    9.5492   -0.0000 </r>
       <r>   12.1767    0.0000 </r>
       <r>   13.4070    0.0000 </r>
       <r>   15.1675    0.0000 </r>
       <r>   15.2597    0.0000 </r>
       <r>   16.6403    0.0000 </r>
      </set>
      <set comment="kpoint 31">
       <r>   -2.1720    1.0000 </r>
       <r>    1.1674    1.0000 </r>
       <r>    2.5606    1.0000 </r>
       <r>    2.9822    1.0000 </r>
       <r>    3.1050    1.0000 </r>
       <r>    3.3541    1.0000 </r>
       <r>    3.4689    1.0000 </r>
       <r>    4.0662    1.0000 </r>
       <r>    4.2609    1.0000 </r>
       <r>    4.5976    1.0000 </r>
       <r>    4.8190    1.0000 </r>
       <r>    5.0883    1.0000 </r>
       <r>    5.1850    1.0000 </r>
       <r>    5.4034    1.0000 </r>
       <r>    5.5979    1.0020 </r>
       <r>    5.7597    1.0248 </r>
       <r>    6.0293    0.6772 </r>
       <r>    8.1545   -0.0000 </r>
       <r>   10.0990   -0.0000 </r>
       <r>   11.5100   -0.0000 </r>
       <r>   13.3665    0.0000 </r>
       <r>   14.3982    0.0000 </r>
       <r>   15.3467    0.0000 </r>
       <r>   16.4951    0.0000 </r>
      </set>
      <set comment="kpoint 32">
       <r>   -1.7430    1.0000 </r>
       <r>    0.6299    1.0000 </r>
       <r>    2.6913    1.0000 </r>
       <r>    2.9904    1.0000 </r>
       <r>    3.1454    1.0000 </r>
       <r>    3.4826    1.0000 </r>
       <r>    3.5251    1.0000 </r>
       <r>    4.0871    1.0000 </r>
       <r>    4.1344    1.0000 </r>
       <r>    4.6276    1.0000 </r>
       <r>    4.6658    1.0000 </r>
       <r>    4.9469    1.0000 </r>
       <r>    5.1527    1.0000 </r>
       <r>    5.2996    1.0000 </r>
       <r>    5.5698    1.0011 </r>
       <r>    5.6287    1.0037 </r>
       <r>    6.0226    0.7029 </r>
       <r>    8.5959   -0.0000 </r>
       <r>   10.6983   -0.0000 </r>
       <r>   10.8421   -0.0000 </r>
       <r>   13.3938    0.0000 </r>
       <r>   13.5782    0.0000 </r>
       <r>   15.5119    0.0000 </r>
       <r>   16.2078    0.0000 </r>
      </set>
      <set comment="kpoint 33">
       <r>   -1.2991    1.0000 </r>
       <r>    0.1057    1.0000 </r>
       <r>    2.8064    1.0000 </r>
       <r>    2.9643    1.0000 </r>
       <r>    3.1819    1.0000 </r>
       <r>    3.4650    1.0000 </r>
       <r>    3.6854    1.0000 </r>
       <r>    4.0379    1.0000 </r>
       <r>    4.1723    1.0000 </r>
       <r>    4.5061    1.0000 </r>
       <r>    4.6707    1.0000 </r>
       <r>    4.8282    1.0000 </r>
       <r>    5.1385    1.0000 </r>
       <r>    5.2350    1.0000 </r>
       <r>    5.4718    1.0001 </r>
       <r>    5.6151    1.0029 </r>
       <r>    6.0194    0.7153 </r>
       <r>    9.0687   -0.0000 </r>
       <r>   10.2249   -0.0000 </r>
       <r>   11.3396   -0.0000 </r>
       <r>   12.8054    0.0000 </r>
       <r>   13.4290    0.0000 </r>
       <r>   15.6193    0.0000 </r>
       <r>   16.0230    0.0000 </r>
      </set>
      <set comment="kpoint 34">
       <r>   -1.0295    1.0000 </r>
       <r>   -0.1930    1.0000 </r>
       <r>    2.8808    1.0000 </r>
       <r>    2.9206    1.0000 </r>
       <r>    3.1981    1.0000 </r>
       <r>    3.4522    1.0000 </r>
       <r>    3.7678    1.0000 </r>
       <r>    3.9855    1.0000 </r>
       <r>    4.2524    1.0000 </r>
       <r>    4.4030    1.0000 </r>
       <r>    4.7087    1.0000 </r>
       <r>    4.7620    1.0000 </r>
       <r>    5.1343    1.0000 </r>
       <r>    5.2165    1.0000 </r>
       <r>    5.4276    1.0000 </r>
       <r>    5.6151    1.0029 </r>
       <r>    6.0184    0.7190 </r>
       <r>    9.4554   -0.0000 </r>
       <r>    9.7889   -0.0000 </r>
       <r>   11.8961    0.0000 </r>
       <r>   12.2052    0.0000 </r>
       <r>   13.4441    0.0000 </r>
       <r>   15.6442    0.0000 </r>
       <r>   15.9754    0.0000 </r>
      </set>
      <set comment="kpoint 35">
       <r>   -2.6222    1.0000 </r>
       <r>    2.0854    1.0000 </r>
       <r>    2.1811    1.0000 </r>
       <r>    2.8585    1.0000 </r>
       <r>    3.0499    1.0000 </r>
       <r>    3.1741    1.0000 </r>
       <r>    3.4304    1.0000 </r>
       <r>    4.0861    1.0000 </r>
       <r>    4.4995    1.0000 </r>
       <r>    4.5341    1.0000 </r>
       <r>    5.0228    1.0000 </r>
       <r>    5.2622    1.0000 </r>
       <r>    5.3133    1.0000 </r>
       <r>    5.5062    1.0002 </r>
       <r>    5.6093    1.0025 </r>
       <r>    5.9918    0.8118 </r>
       <r>    6.2629   -0.0195 </r>
       <r>    7.2041   -0.0000 </r>
       <r>    9.4510   -0.0000 </r>
       <r>   12.1318    0.0000 </r>
       <r>   13.4202    0.0000 </r>
       <r>   15.8923    0.0000 </r>
       <r>   16.2391    0.0000 </r>
       <r>   16.3541    0.0000 </r>
      </set>
      <set comment="kpoint 36">
       <r>   -2.3079    1.0000 </r>
       <r>    1.7922    1.0000 </r>
       <r>    2.2761    1.0000 </r>
       <r>    2.9108    1.0000 </r>
       <r>    3.0684    1.0000 </r>
       <r>    3.2500    1.0000 </r>
       <r>    3.5217    1.0000 </r>
       <r>    3.9812    1.0000 </r>
       <r>    4.3109    1.0000 </r>
       <r>    4.5511    1.0000 </r>
       <r>    5.0104    1.0000 </r>
       <r>    5.1616    1.0000 </r>
       <r>    5.2182    1.0000 </r>
       <r>    5.4616    1.0001 </r>
       <r>    5.5334    1.0005 </r>
       <r>    5.9405    0.9446 </r>
       <r>    6.0853    0.4448 </r>
       <r>    7.3333   -0.0000 </r>
       <r>    9.9158   -0.0000 </r>
       <r>   11.4030   -0.0000 </r>
       <r>   13.4064    0.0000 </r>
       <r>   15.5046    0.0000 </r>
       <r>   16.1892    0.0000 </r>
       <r>   16.7277    0.0000 </r>
      </set>
      <set comment="kpoint 37">
       <r>   -1.9346    1.0000 </r>
       <r>    1.3341    1.0000 </r>
       <r>    2.4248    1.0000 </r>
       <r>    2.9567    1.0000 </r>
       <r>    3.0972    1.0000 </r>
       <r>    3.3711    1.0000 </r>
       <r>    3.5733    1.0000 </r>
       <r>    3.9451    1.0000 </r>
       <r>    4.1596    1.0000 </r>
       <r>    4.5896    1.0000 </r>
       <r>    4.8732    1.0000 </r>
       <r>    5.0893    1.0000 </r>
       <r>    5.1499    1.0000 </r>
       <r>    5.3613    1.0000 </r>
       <r>    5.5202    1.0003 </r>
       <r>    5.8763    1.0229 </r>
       <r>    5.9074    0.9960 </r>
       <r>    7.6198   -0.0000 </r>
       <r>   10.4396   -0.0000 </r>
       <r>   10.6782   -0.0000 </r>
       <r>   13.4672    0.0000 </r>
       <r>   14.6530    0.0000 </r>
       <r>   16.2369    0.0000 </r>
       <r>   16.9463    0.0000 </r>
      </set>
      <set comment="kpoint 38">
       <r>   -1.5144    1.0000 </r>
       <r>    0.8170    1.0000 </r>
       <r>    2.5605    1.0000 </r>
       <r>    2.9759    1.0000 </r>
       <r>    3.1324    1.0000 </r>
       <r>    3.5259    1.0000 </r>
       <r>    3.5541    1.0000 </r>
       <r>    4.0129    1.0000 </r>
       <r>    4.0455    1.0000 </r>
       <r>    4.6374    1.0000 </r>
       <r>    4.6938    1.0000 </r>
       <r>    4.9513    1.0000 </r>
       <r>    5.1599    1.0000 </r>
       <r>    5.2663    1.0000 </r>
       <r>    5.5253    1.0004 </r>
       <r>    5.7050    1.0131 </r>
       <r>    5.8874    1.0154 </r>
       <r>    7.9762   -0.0000 </r>
       <r>   10.0096   -0.0000 </r>
       <r>   11.0148   -0.0000 </r>
       <r>   13.5471    0.0000 </r>
       <r>   13.8462    0.0000 </r>
       <r>   16.1059    0.0000 </r>
       <r>   16.9962    0.0000 </r>
      </set>
      <set comment="kpoint 39">
       <r>   -1.0829    1.0000 </r>
       <r>    0.3130    1.0000 </r>
       <r>    2.6617    1.0000 </r>
       <r>    2.9724    1.0000 </r>
       <r>    3.1652    1.0000 </r>
       <r>    3.5088    1.0000 </r>
       <r>    3.6855    1.0000 </r>
       <r>    3.9508    1.0000 </r>
       <r>    4.1450    1.0000 </r>
       <r>    4.5114    1.0000 </r>
       <r>    4.6834    1.0000 </r>
       <r>    4.8306    1.0000 </r>
       <r>    5.1671    1.0000 </r>
       <r>    5.2137    1.0000 </r>
       <r>    5.5305    1.0004 </r>
       <r>    5.5842    1.0015 </r>
       <r>    5.8767    1.0226 </r>
       <r>    8.3832   -0.0000 </r>
       <r>    9.4132   -0.0000 </r>
       <r>   11.6300    0.0000 </r>
       <r>   13.0930    0.0000 </r>
       <r>   13.6146    0.0000 </r>
       <r>   15.9372    0.0000 </r>
       <r>   17.1022    0.0000 </r>
      </set>
      <set comment="kpoint 40">
       <r>   -0.8260    1.0000 </r>
       <r>    0.0295    1.0000 </r>
       <r>    2.7017    1.0000 </r>
       <r>    2.9657    1.0000 </r>
       <r>    3.1799    1.0000 </r>
       <r>    3.4873    1.0000 </r>
       <r>    3.7944    1.0000 </r>
       <r>    3.8730    1.0000 </r>
       <r>    4.2631    1.0000 </r>
       <r>    4.3785    1.0000 </r>
       <r>    4.7219    1.0000 </r>
       <r>    4.7607    1.0000 </r>
       <r>    5.1694    1.0000 </r>
       <r>    5.2014    1.0000 </r>
       <r>    5.5290    1.0004 </r>
       <r>    5.5407    1.0006 </r>
       <r>    5.8734    1.0245 </r>
       <r>    8.7526   -0.0000 </r>
       <r>    8.9800   -0.0000 </r>
       <r>   12.1285    0.0000 </r>
       <r>   12.5486    0.0000 </r>
       <r>   13.6416    0.0000 </r>
       <r>   15.8677    0.0000 </r>
       <r>   17.1536    0.0000 </r>
      </set>
      <set comment="kpoint 41">
       <r>   -2.0005    1.0000 </r>
       <r>    1.9377    1.0000 </r>
       <r>    1.9831    1.0000 </r>
       <r>    2.9502    1.0000 </r>
       <r>    3.0788    1.0000 </r>
       <r>    3.3091    1.0000 </r>
       <r>    3.6371    1.0000 </r>
       <r>    3.8628    1.0000 </r>
       <r>    4.1723    1.0000 </r>
       <r>    4.5723    1.0000 </r>
       <r>    5.0163    1.0000 </r>
       <r>    5.0919    1.0000 </r>
       <r>    5.1729    1.0000 </r>
       <r>    5.4234    1.0000 </r>
       <r>    5.4316    1.0000 </r>
       <r>    5.8562    1.0316 </r>
       <r>    6.0691    0.5135 </r>
       <r>    7.1703   -0.0000 </r>
       <r>   10.3525   -0.0000 </r>
       <r>   10.6206   -0.0000 </r>
       <r>   13.4901    0.0000 </r>
       <r>   15.6348    0.0000 </r>
       <r>   16.0267    0.0000 </r>
       <r>   16.7524    0.0000 </r>
      </set>
      <set comment="kpoint 42">
       <r>   -1.6362    1.0000 </r>
       <r>    1.5274    1.0000 </r>
       <r>    2.1352    1.0000 </r>
       <r>    3.0000    1.0000 </r>
       <r>    3.0991    1.0000 </r>
       <r>    3.4032    1.0000 </r>
       <r>    3.6835    1.0000 </r>
       <r>    3.8430    1.0000 </r>
       <r>    4.0543    1.0000 </r>
       <r>    4.6194    1.0000 </r>
       <r>    4.8632    1.0000 </r>
       <r>    5.0831    1.0000 </r>
       <r>    5.1371    1.0000 </r>
       <r>    5.3082    1.0000 </r>
       <r>    5.4219    1.0000 </r>
       <r>    5.7941    1.0321 </r>
       <r>    5.9301    0.9635 </r>
       <r>    7.2626   -0.0000 </r>
       <r>    9.8966   -0.0000 </r>
       <r>   10.8491   -0.0000 </r>
       <r>   13.6047    0.0000 </r>
       <r>   14.9406    0.0000 </r>
       <r>   16.2315    0.0000 </r>
       <r>   16.6614    0.0000 </r>
      </set>
      <set comment="kpoint 43">
       <r>   -1.2281    1.0000 </r>
       <r>    1.0400    1.0000 </r>
       <r>    2.2865    1.0000 </r>
       <r>    3.0311    1.0000 </r>
       <r>    3.1251    1.0000 </r>
       <r>    3.5296    1.0000 </r>
       <r>    3.6128    1.0000 </r>
       <r>    3.9641    1.0000 </r>
       <r>    3.9741    1.0000 </r>
       <r>    4.6691    1.0000 </r>
       <r>    4.6873    1.0000 </r>
       <r>    4.9651    1.0000 </r>
       <r>    5.1730    1.0000 </r>
       <r>    5.2146    1.0000 </r>
       <r>    5.4278    1.0000 </r>
       <r>    5.7526    1.0232 </r>
       <r>    5.7730    1.0278 </r>
       <r>    7.4978   -0.0000 </r>
       <r>    9.2519   -0.0000 </r>
       <r>   11.3974   -0.0000 </r>
       <r>   13.7253    0.0000 </r>
       <r>   14.1643    0.0000 </r>
       <r>   16.4071    0.0000 </r>
       <r>   16.5711    0.0000 </r>
      </set>
      <set comment="kpoint 44">
       <r>   -0.8133    1.0000 </r>
       <r>    0.5642    1.0000 </r>
       <r>    2.3926    1.0000 </r>
       <r>    3.0426    1.0000 </r>
       <r>    3.1494    1.0000 </r>
       <r>    3.5510    1.0000 </r>
       <r>    3.6673    1.0000 </r>
       <r>    3.8865    1.0000 </r>
       <r>    4.1360    1.0000 </r>
       <r>    4.5053    1.0000 </r>
       <r>    4.7052    1.0000 </r>
       <r>    4.8542    1.0000 </r>
       <r>    5.1705    1.0000 </r>
       <r>    5.1946    1.0000 </r>
       <r>    5.4366    1.0000 </r>
       <r>    5.6532    1.0058 </r>
       <r>    5.7289    1.0178 </r>
       <r>    7.8166   -0.0000 </r>
       <r>    8.6946   -0.0000 </r>
       <r>   11.9819    0.0000 </r>
       <r>   13.4401    0.0000 </r>
       <r>   13.8223    0.0000 </r>
       <r>   16.1869    0.0000 </r>
       <r>   16.8599    0.0000 </r>
      </set>
      <set comment="kpoint 45">
       <r>   -0.5723    1.0000 </r>
       <r>    0.3006    1.0000 </r>
       <r>    2.4311    1.0000 </r>
       <r>    3.0445    1.0000 </r>
       <r>    3.1599    1.0000 </r>
       <r>    3.5273    1.0000 </r>
       <r>    3.7758    1.0000 </r>
       <r>    3.8075    1.0000 </r>
       <r>    4.2767    1.0000 </r>
       <r>    4.3578    1.0000 </r>
       <r>    4.7238    1.0000 </r>
       <r>    4.8004    1.0000 </r>
       <r>    5.1631    1.0000 </r>
       <r>    5.2018    1.0000 </r>
       <r>    5.4413    1.0000 </r>
       <r>    5.6054    1.0024 </r>
       <r>    5.7212    1.0162 </r>
       <r>    8.1568   -0.0000 </r>
       <r>    8.2753   -0.0000 </r>
       <r>   12.4256    0.0000 </r>
       <r>   12.9496    0.0000 </r>
       <r>   13.8607    0.0000 </r>
       <r>   16.1022    0.0000 </r>
       <r>   16.9811    0.0000 </r>
      </set>
      <set comment="kpoint 46">
       <r>   -1.2840    1.0000 </r>
       <r>    1.6804    1.0000 </r>
       <r>    1.7918    1.0000 </r>
       <r>    3.0509    1.0000 </r>
       <r>    3.1086    1.0000 </r>
       <r>    3.4633    1.0000 </r>
       <r>    3.7027    1.0000 </r>
       <r>    3.8606    1.0000 </r>
       <r>    3.9657    1.0000 </r>
       <r>    4.6709    1.0000 </r>
       <r>    4.7760    1.0000 </r>
       <r>    5.0460    1.0000 </r>
       <r>    5.1594    1.0000 </r>
       <r>    5.2373    1.0000 </r>
       <r>    5.3391    1.0000 </r>
       <r>    5.7016    1.0125 </r>
       <r>    5.8878    1.0150 </r>
       <r>    7.1353   -0.0000 </r>
       <r>    9.1973   -0.0000 </r>
       <r>   11.3181   -0.0000 </r>
       <r>   13.7623    0.0000 </r>
       <r>   15.0556    0.0000 </r>
       <r>   15.6542    0.0000 </r>
       <r>   16.7937    0.0000 </r>
      </set>
      <set comment="kpoint 47">
       <r>   -0.8919    1.0000 </r>
       <r>    1.2799    1.0000 </r>
       <r>    1.9309    1.0000 </r>
       <r>    3.0773    1.0000 </r>
       <r>    3.1225    1.0000 </r>
       <r>    3.5542    1.0000 </r>
       <r>    3.6357    1.0000 </r>
       <r>    3.8991    1.0000 </r>
       <r>    3.9966    1.0000 </r>
       <r>    4.6412    1.0000 </r>
       <r>    4.7226    1.0000 </r>
       <r>    4.9691    1.0000 </r>
       <r>    5.1489    1.0000 </r>
       <r>    5.1926    1.0000 </r>
       <r>    5.3131    1.0000 </r>
       <r>    5.6340    1.0041 </r>
       <r>    5.7843    1.0302 </r>
       <r>    7.2055   -0.0000 </r>
       <r>    8.5960   -0.0000 </r>
       <r>   11.8374    0.0000 </r>
       <r>   13.9204    0.0000 </r>
       <r>   14.4930    0.0000 </r>
       <r>   15.8130    0.0000 </r>
       <r>   16.6595    0.0000 </r>
      </set>
      <set comment="kpoint 48">
       <r>   -0.4985    1.0000 </r>
       <r>    0.8428    1.0000 </r>
       <r>    2.0657    1.0000 </r>
       <r>    3.0812    1.0000 </r>
       <r>    3.1352    1.0000 </r>
       <r>    3.5859    1.0000 </r>
       <r>    3.6559    1.0000 </r>
       <r>    3.8452    1.0000 </r>
       <r>    4.1516    1.0000 </r>
       <r>    4.4846    1.0000 </r>
       <r>    4.7538    1.0000 </r>
       <r>    4.8766    1.0000 </r>
       <r>    5.1059    1.0000 </r>
       <r>    5.2186    1.0000 </r>
       <r>    5.3112    1.0000 </r>
       <r>    5.5922    1.0018 </r>
       <r>    5.6880    1.0102 </r>
       <r>    7.4050   -0.0000 </r>
       <r>    8.0991   -0.0000 </r>
       <r>   12.3885    0.0000 </r>
       <r>   13.8224    0.0000 </r>
       <r>   14.0462    0.0000 </r>
       <r>   16.0885    0.0000 </r>
       <r>   16.4567    0.0000 </r>
      </set>
      <set comment="kpoint 49">
       <r>   -0.2759    1.0000 </r>
       <r>    0.6033    1.0000 </r>
       <r>    2.1163    1.0000 </r>
       <r>    3.0794    1.0000 </r>
       <r>    3.1406    1.0000 </r>
       <r>    3.5679    1.0000 </r>
       <r>    3.7185    1.0000 </r>
       <r>    3.8068    1.0000 </r>
       <r>    4.2922    1.0000 </r>
       <r>    4.3425    1.0000 </r>
       <r>    4.7654    1.0000 </r>
       <r>    4.8297    1.0000 </r>
       <r>    5.1008    1.0000 </r>
       <r>    5.2285    1.0000 </r>
       <r>    5.3123    1.0000 </r>
       <r>    5.5778    1.0013 </r>
       <r>    5.6487    1.0054 </r>
       <r>    7.6841   -0.0000 </r>
       <r>    7.7235   -0.0000 </r>
       <r>   12.7860    0.0000 </r>
       <r>   13.3814    0.0000 </r>
       <r>   14.0959    0.0000 </r>
       <r>   16.2105    0.0000 </r>
       <r>   16.3707    0.0000 </r>
      </set>
      <set comment="kpoint 50">
       <r>   -0.5206    1.0000 </r>
       <r>    1.4572    1.0000 </r>
       <r>    1.5823    1.0000 </r>
       <r>    3.0801    1.0000 </r>
       <r>    3.1227    1.0000 </r>
       <r>    3.6118    1.0000 </r>
       <r>    3.6261    1.0000 </r>
       <r>    3.8522    1.0000 </r>
       <r>    4.0785    1.0000 </r>
       <r>    4.5577    1.0000 </r>
       <r>    4.7822    1.0000 </r>
       <r>    4.9457    1.0000 </r>
       <r>    5.0764    1.0000 </r>
       <r>    5.2163    1.0000 </r>
       <r>    5.2167    1.0000 </r>
       <r>    5.5416    1.0006 </r>
       <r>    5.7411    1.0205 </r>
       <r>    7.1073   -0.0000 </r>
       <r>    8.0579   -0.0000 </r>
       <r>   12.3261    0.0000 </r>
       <r>   14.1125    0.0000 </r>
       <r>   14.6289    0.0000 </r>
       <r>   15.3097    0.0000 </r>
       <r>   16.8039    0.0000 </r>
      </set>
      <set comment="kpoint 51">
       <r>   -0.1532    1.0000 </r>
       <r>    1.1184    1.0000 </r>
       <r>    1.7053    1.0000 </r>
       <r>    3.0523    1.0000 </r>
       <r>    3.1239    1.0000 </r>
       <r>    3.6101    1.0000 </r>
       <r>    3.6833    1.0000 </r>
       <r>    3.8183    1.0000 </r>
       <r>    4.1926    1.0000 </r>
       <r>    4.4467    1.0000 </r>
       <r>    4.8203    1.0000 </r>
       <r>    4.8895    1.0000 </r>
       <r>    5.0292    1.0000 </r>
       <r>    5.1750    1.0000 </r>
       <r>    5.2383    1.0000 </r>
       <r>    5.4810    1.0001 </r>
       <r>    5.6820    1.0093 </r>
       <r>    7.1668   -0.0000 </r>
       <r>    7.6435   -0.0000 </r>
       <r>   12.8435    0.0000 </r>
       <r>   14.1902    0.0000 </r>
       <r>   14.2643    0.0000 </r>
       <r>   15.3924    0.0000 </r>
       <r>   16.7455    0.0000 </r>
      </set>
      <set comment="kpoint 52">
       <r>    0.0495    1.0000 </r>
       <r>    0.9071    1.0000 </r>
       <r>    1.7729    1.0000 </r>
       <r>    3.0350    1.0000 </r>
       <r>    3.1245    1.0000 </r>
       <r>    3.6033    1.0000 </r>
       <r>    3.7233    1.0000 </r>
       <r>    3.7981    1.0000 </r>
       <r>    4.3080    1.0000 </r>
       <r>    4.3326    1.0000 </r>
       <r>    4.8324    1.0000 </r>
       <r>    4.8510    1.0000 </r>
       <r>    5.0233    1.0000 </r>
       <r>    5.1662    1.0000 </r>
       <r>    5.2480    1.0000 </r>
       <r>    5.4590    1.0001 </r>
       <r>    5.6548    1.0060 </r>
       <r>    7.3465   -0.0000 </r>
       <r>    7.3504   -0.0000 </r>
       <r>   13.2082    0.0000 </r>
       <r>   13.8033    0.0000 </r>
       <r>   14.3243    0.0000 </r>
       <r>   15.4956    0.0000 </r>
       <r>   16.6839    0.0000 </r>
      </set>
      <set comment="kpoint 53">
       <r>    0.1853    1.0000 </r>
       <r>    1.3078    1.0000 </r>
       <r>    1.3857    1.0000 </r>
       <r>    2.9804    1.0000 </r>
       <r>    3.1165    1.0000 </r>
       <r>    3.6235    1.0000 </r>
       <r>    3.7343    1.0000 </r>
       <r>    3.8001    1.0000 </r>
       <r>    4.2535    1.0000 </r>
       <r>    4.3915    1.0000 </r>
       <r>    4.8779    1.0000 </r>
       <r>    4.8815    1.0000 </r>
       <r>    4.9661    1.0000 </r>
       <r>    5.0785    1.0000 </r>
       <r>    5.2531    1.0000 </r>
       <r>    5.4066    1.0000 </r>
       <r>    5.6524    1.0057 </r>
       <r>    7.0896   -0.0000 </r>
       <r>    7.3296   -0.0000 </r>
       <r>   13.3313    0.0000 </r>
       <r>   14.3669    0.0000 </r>
       <r>   14.4351    0.0000 </r>
       <r>   14.8911    0.0000 </r>
       <r>   16.9834    0.0000 </r>
      </set>
      <set comment="kpoint 54">
       <r>    0.3704    1.0000 </r>
       <r>    1.1543    1.0000 </r>
       <r>    1.4386    1.0000 </r>
       <r>    2.9408    1.0000 </r>
       <r>    3.1139    1.0000 </r>
       <r>    3.6277    1.0000 </r>
       <r>    3.7637    1.0000 </r>
       <r>    3.7893    1.0000 </r>
       <r>    4.3205    1.0000 </r>
       <r>    4.3271    1.0000 </r>
       <r>    4.8627    1.0000 </r>
       <r>    4.8980    1.0000 </r>
       <r>    4.9510    1.0000 </r>
       <r>    5.0500    1.0000 </r>
       <r>    5.2597    1.0000 </r>
       <r>    5.3794    1.0000 </r>
       <r>    5.6352    1.0042 </r>
       <r>    7.1467   -0.0000 </r>
       <r>    7.1482   -0.0000 </r>
       <r>   13.6906    0.0000 </r>
       <r>   14.1413    0.0000 </r>
       <r>   14.5021    0.0000 </r>
       <r>   14.8377    0.0000 </r>
       <r>   17.0443    0.0000 </r>
      </set>
      <set comment="kpoint 55">
       <r>    0.5484    1.0000 </r>
       <r>    1.2555    1.0000 </r>
       <r>    1.2555    1.0000 </r>
       <r>    2.8897    1.0000 </r>
       <r>    3.1102    1.0000 </r>
       <r>    3.6364    1.0000 </r>
       <r>    3.7856    1.0000 </r>
       <r>    3.7856    1.0000 </r>
       <r>    4.3254    1.0000 </r>
       <r>    4.3254    1.0000 </r>
       <r>    4.8595    1.0000 </r>
       <r>    4.9267    1.0000 </r>
       <r>    4.9267    1.0000 </r>
       <r>    5.0062    1.0000 </r>
       <r>    5.2637    1.0000 </r>
       <r>    5.3513    1.0000 </r>
       <r>    5.6215    1.0032 </r>
       <r>    7.0836   -0.0000 </r>
       <r>    7.0836   -0.0000 </r>
       <r>   14.1915    0.0000 </r>
       <r>   14.2785    0.0000 </r>
       <r>   14.2785    0.0000 </r>
       <r>   14.5717    0.0000 </r>
       <r>   17.3551    0.0000 </r>
      </set>
      <set comment="kpoint 56">
       <r>   -3.6765    1.0000 </r>
       <r>    1.9445    1.0000 </r>
       <r>    2.6038    1.0000 </r>
       <r>    2.6038    1.0000 </r>
       <r>    3.0050    1.0000 </r>
       <r>    3.0460    1.0000 </r>
       <r>    3.0460    1.0000 </r>
       <r>    4.7371    1.0000 </r>
       <r>    4.8573    1.0000 </r>
       <r>    4.8573    1.0000 </r>
       <r>    5.6180    1.0030 </r>
       <r>    5.6180    1.0030 </r>
       <r>    5.9398    0.9459 </r>
       <r>    5.9398    0.9459 </r>
       <r>    5.9533    0.9176 </r>
       <r>    6.2192    0.0285 </r>
       <r>    6.9691   -0.0000 </r>
       <r>    7.2053   -0.0000 </r>
       <r>    7.2053   -0.0000 </r>
       <r>   12.9321    0.0000 </r>
       <r>   12.9321    0.0000 </r>
       <r>   13.6319    0.0000 </r>
       <r>   17.5134    0.0000 </r>
       <r>   17.9849    0.0000 </r>
      </set>
      <set comment="kpoint 57">
       <r>   -3.5648    1.0000 </r>
       <r>    1.9754    1.0000 </r>
       <r>    2.5308    1.0000 </r>
       <r>    2.6739    1.0000 </r>
       <r>    3.0055    1.0000 </r>
       <r>    3.0618    1.0000 </r>
       <r>    3.0864    1.0000 </r>
       <r>    4.6434    1.0000 </r>
       <r>    4.7935    1.0000 </r>
       <r>    4.8719    1.0000 </r>
       <r>    5.5395    1.0005 </r>
       <r>    5.6181    1.0030 </r>
       <r>    5.7218    1.0163 </r>
       <r>    5.7867    1.0307 </r>
       <r>    5.9168    0.9839 </r>
       <r>    6.2069    0.0497 </r>
       <r>    6.6856   -0.0001 </r>
       <r>    7.4391   -0.0000 </r>
       <r>    7.5086   -0.0000 </r>
       <r>   12.9310    0.0000 </r>
       <r>   13.2395    0.0000 </r>
       <r>   14.0426    0.0000 </r>
       <r>   16.8770    0.0000 </r>
       <r>   17.1835    0.0000 </r>
      </set>
      <set comment="kpoint 58">
       <r>   -3.3799    1.0000 </r>
       <r>    1.9848    1.0000 </r>
       <r>    2.4235    1.0000 </r>
       <r>    2.7859    1.0000 </r>
       <r>    3.0180    1.0000 </r>
       <r>    3.0877    1.0000 </r>
       <r>    3.1393    1.0000 </r>
       <r>    4.5367    1.0000 </r>
       <r>    4.6983    1.0000 </r>
       <r>    4.8604    1.0000 </r>
       <r>    5.3427    1.0000 </r>
       <r>    5.5472    1.0007 </r>
       <r>    5.5881    1.0016 </r>
       <r>    5.6462    1.0051 </r>
       <r>    5.8578    1.0311 </r>
       <r>    6.2006    0.0621 </r>
       <r>    6.2636   -0.0200 </r>
       <r>    7.8517   -0.0000 </r>
       <r>    7.9059   -0.0000 </r>
       <r>   12.9268    0.0000 </r>
       <r>   13.4006    0.0000 </r>
       <r>   14.8783    0.0000 </r>
       <r>   16.0727    0.0000 </r>
       <r>   16.2944    0.0000 </r>
      </set>
      <set comment="kpoint 59">
       <r>   -3.1238    1.0000 </r>
       <r>    1.8427    1.0000 </r>
       <r>    2.3806    1.0000 </r>
       <r>    2.9306    1.0000 </r>
       <r>    3.0403    1.0000 </r>
       <r>    3.1247    1.0000 </r>
       <r>    3.2013    1.0000 </r>
       <r>    4.4302    1.0000 </r>
       <r>    4.5859    1.0000 </r>
       <r>    4.8253    1.0000 </r>
       <r>    5.0680    1.0000 </r>
       <r>    5.4136    1.0000 </r>
       <r>    5.4468    1.0000 </r>
       <r>    5.6242    1.0034 </r>
       <r>    5.7811    1.0296 </r>
       <r>    5.9112    0.9913 </r>
       <r>    6.1973    0.0690 </r>
       <r>    8.3274   -0.0000 </r>
       <r>    8.3624   -0.0000 </r>
       <r>   12.9134    0.0000 </r>
       <r>   13.5221    0.0000 </r>
       <r>   15.1814    0.0000 </r>
       <r>   15.4258    0.0000 </r>
       <r>   15.9157    0.0000 </r>
      </set>
      <set comment="kpoint 60">
       <r>   -2.7998    1.0000 </r>
       <r>    1.4829    1.0000 </r>
       <r>    2.4499    1.0000 </r>
       <r>    3.0693    1.0000 </r>
       <r>    3.0783    1.0000 </r>
       <r>    3.1903    1.0000 </r>
       <r>    3.2669    1.0000 </r>
       <r>    4.3358    1.0000 </r>
       <r>    4.4712    1.0000 </r>
       <r>    4.7628    1.0000 </r>
       <r>    4.8287    1.0000 </r>
       <r>    5.2757    1.0000 </r>
       <r>    5.3128    1.0000 </r>
       <r>    5.5848    1.0015 </r>
       <r>    5.6573    1.0062 </r>
       <r>    5.7142    1.0148 </r>
       <r>    6.1955    0.0727 </r>
       <r>    8.8502   -0.0000 </r>
       <r>    8.8629   -0.0000 </r>
       <r>   12.8740    0.0000 </r>
       <r>   13.6562    0.0000 </r>
       <r>   14.3635    0.0000 </r>
       <r>   14.6239    0.0000 </r>
       <r>   16.4599    0.0000 </r>
      </set>
      <set comment="kpoint 61">
       <r>   -2.4137    1.0000 </r>
       <r>    0.9882    1.0000 </r>
       <r>    2.5598    1.0000 </r>
       <r>    3.1001    1.0000 </r>
       <r>    3.1565    1.0000 </r>
       <r>    3.3281    1.0000 </r>
       <r>    3.3389    1.0000 </r>
       <r>    4.2626    1.0000 </r>
       <r>    4.3655    1.0000 </r>
       <r>    4.6285    1.0000 </r>
       <r>    4.7248    1.0000 </r>
       <r>    5.1402    1.0000 </r>
       <r>    5.2041    1.0000 </r>
       <r>    5.4749    1.0001 </r>
       <r>    5.4859    1.0001 </r>
       <r>    5.6913    1.0107 </r>
       <r>    6.1947    0.0746 </r>
       <r>    9.3984   -0.0000 </r>
       <r>    9.4140   -0.0000 </r>
       <r>   12.7553    0.0000 </r>
       <r>   13.5553    0.0000 </r>
       <r>   13.8161    0.0000 </r>
       <r>   13.9515    0.0000 </r>
       <r>   16.1863    0.0000 </r>
      </set>
      <set comment="kpoint 62">
       <r>   -1.9763    1.0000 </r>
       <r>    0.4323    1.0000 </r>
       <r>    2.6688    1.0000 </r>
       <r>    3.1263    1.0000 </r>
       <r>    3.1949    1.0000 </r>
       <r>    3.3760    1.0000 </r>
       <r>    3.5155    1.0000 </r>
       <r>    4.2196    1.0000 </r>
       <r>    4.2758    1.0000 </r>
       <r>    4.5232    1.0000 </r>
       <r>    4.6642    1.0000 </r>
       <r>    5.0224    1.0000 </r>
       <r>    5.1272    1.0000 </r>
       <r>    5.3443    1.0000 </r>
       <r>    5.3640    1.0000 </r>
       <r>    5.6883    1.0103 </r>
       <r>    6.1943    0.0754 </r>
       <r>    9.9596   -0.0000 </r>
       <r>   10.0158   -0.0000 </r>
       <r>   12.4384    0.0000 </r>
       <r>   12.7788    0.0000 </r>
       <r>   13.5327    0.0000 </r>
       <r>   13.9983    0.0000 </r>
       <r>   15.7705    0.0000 </r>
      </set>
      <set comment="kpoint 63">
       <r>   -1.5204    1.0000 </r>
       <r>   -0.1103    1.0000 </r>
       <r>    2.7499    1.0000 </r>
       <r>    3.1420    1.0000 </r>
       <r>    3.2178    1.0000 </r>
       <r>    3.4049    1.0000 </r>
       <r>    3.6591    1.0000 </r>
       <r>    4.2081    1.0000 </r>
       <r>    4.2086    1.0000 </r>
       <r>    4.4590    1.0000 </r>
       <r>    4.6267    1.0000 </r>
       <r>    4.9383    1.0000 </r>
       <r>    5.0876    1.0000 </r>
       <r>    5.2588    1.0000 </r>
       <r>    5.2632    1.0000 </r>
       <r>    5.6889    1.0104 </r>
       <r>    6.1942    0.0757 </r>
       <r>   10.5231   -0.0000 </r>
       <r>   10.6538   -0.0000 </r>
       <r>   11.9310    0.0000 </r>
       <r>   12.0360    0.0000 </r>
       <r>   13.3761    0.0000 </r>
       <r>   14.1783    0.0000 </r>
       <r>   15.4270    0.0000 </r>
      </set>
      <set comment="kpoint 64">
       <r>   -1.2379    1.0000 </r>
       <r>   -0.4242    1.0000 </r>
       <r>    2.7804    1.0000 </r>
       <r>    3.1466    1.0000 </r>
       <r>    3.2257    1.0000 </r>
       <r>    3.4142    1.0000 </r>
       <r>    3.7181    1.0000 </r>
       <r>    4.1797    1.0000 </r>
       <r>    4.2111    1.0000 </r>
       <r>    4.4338    1.0000 </r>
       <r>    4.6157    1.0000 </r>
       <r>    4.9065    1.0000 </r>
       <r>    5.0794    1.0000 </r>
       <r>    5.2132    1.0000 </r>
       <r>    5.2356    1.0000 </r>
       <r>    5.6894    1.0104 </r>
       <r>    6.1941    0.0758 </r>
       <r>   10.8955   -0.0000 </r>
       <r>   11.3098   -0.0000 </r>
       <r>   11.3451   -0.0000 </r>
       <r>   11.5608    0.0000 </r>
       <r>   13.3413    0.0000 </r>
       <r>   14.2677    0.0000 </r>
       <r>   15.2805    0.0000 </r>
      </set>
      <set comment="kpoint 65">
       <r>   -3.4537    1.0000 </r>
       <r>    2.0104    1.0000 </r>
       <r>    2.5294    1.0000 </r>
       <r>    2.6705    1.0000 </r>
       <r>    2.9956    1.0000 </r>
       <r>    3.0849    1.0000 </r>
       <r>    3.1279    1.0000 </r>
       <r>    4.5347    1.0000 </r>
       <r>    4.7594    1.0000 </r>
       <r>    4.8841    1.0000 </r>
       <r>    5.4344    1.0000 </r>
       <r>    5.5802    1.0014 </r>
       <r>    5.5950    1.0019 </r>
       <r>    5.6835    1.0096 </r>
       <r>    5.8654    1.0283 </r>
       <r>    6.1809    0.1071 </r>
       <r>    6.7950   -0.0000 </r>
       <r>    7.2636   -0.0000 </r>
       <r>    7.7402   -0.0000 </r>
       <r>   13.0680    0.0000 </r>
       <r>   13.6301    0.0000 </r>
       <r>   14.2570    0.0000 </r>
       <r>   16.1378    0.0000 </r>
       <r>   17.0739    0.0000 </r>
      </set>
      <set comment="kpoint 66">
       <r>   -3.2698    1.0000 </r>
       <r>    2.0312    1.0000 </r>
       <r>    2.4398    1.0000 </r>
       <r>    2.7557    1.0000 </r>
       <r>    2.9983    1.0000 </r>
       <r>    3.1107    1.0000 </r>
       <r>    3.1885    1.0000 </r>
       <r>    4.4190    1.0000 </r>
       <r>    4.6759    1.0000 </r>
       <r>    4.8892    1.0000 </r>
       <r>    5.1930    1.0000 </r>
       <r>    5.4944    1.0002 </r>
       <r>    5.5225    1.0004 </r>
       <r>    5.6064    1.0024 </r>
       <r>    5.8047    1.0338 </r>
       <r>    6.1593    0.1676 </r>
       <r>    6.4805   -0.0070 </r>
       <r>    7.5008   -0.0000 </r>
       <r>    8.1031   -0.0000 </r>
       <r>   13.0901    0.0000 </r>
       <r>   13.9185    0.0000 </r>
       <r>   14.9606    0.0000 </r>
       <r>   15.2783    0.0000 </r>
       <r>   16.3296    0.0000 </r>
      </set>
      <set comment="kpoint 67">
       <r>   -3.0152    1.0000 </r>
       <r>    1.9050    1.0000 </r>
       <r>    2.3934    1.0000 </r>
       <r>    2.8873    1.0000 </r>
       <r>    3.0140    1.0000 </r>
       <r>    3.1485    1.0000 </r>
       <r>    3.2573    1.0000 </r>
       <r>    4.3108    1.0000 </r>
       <r>    4.5727    1.0000 </r>
       <r>    4.8567    1.0000 </r>
       <r>    4.9516    1.0000 </r>
       <r>    5.3744    1.0000 </r>
       <r>    5.4006    1.0000 </r>
       <r>    5.5924    1.0018 </r>
       <r>    5.7320    1.0185 </r>
       <r>    6.1103    0.3421 </r>
       <r>    6.1464    0.2089 </r>
       <r>    7.8967   -0.0000 </r>
       <r>    8.5368   -0.0000 </r>
       <r>   13.0632    0.0000 </r>
       <r>   14.0570    0.0000 </r>
       <r>   14.4676    0.0000 </r>
       <r>   15.4503    0.0000 </r>
       <r>   15.9842    0.0000 </r>
      </set>
      <set comment="kpoint 68">
       <r>   -2.6932    1.0000 </r>
       <r>    1.5534    1.0000 </r>
       <r>    2.4652    1.0000 </r>
       <r>    3.0033    1.0000 </r>
       <r>    3.0589    1.0000 </r>
       <r>    3.2154    1.0000 </r>
       <r>    3.3261    1.0000 </r>
       <r>    4.2224    1.0000 </r>
       <r>    4.4581    1.0000 </r>
       <r>    4.7077    1.0000 </r>
       <r>    4.8499    1.0000 </r>
       <r>    5.2450    1.0000 </r>
       <r>    5.2766    1.0000 </r>
       <r>    5.5569    1.0008 </r>
       <r>    5.6660    1.0072 </r>
       <r>    5.8289    1.0354 </r>
       <r>    6.1340    0.2520 </r>
       <r>    8.3419   -0.0000 </r>
       <r>    9.0232   -0.0000 </r>
       <r>   12.8938    0.0000 </r>
       <r>   13.7919    0.0000 </r>
       <r>   14.2017    0.0000 </r>
       <r>   14.7003    0.0000 </r>
       <r>   16.7015    0.0000 </r>
      </set>
      <set comment="kpoint 69">
       <r>   -2.3097    1.0000 </r>
       <r>    1.0662    1.0000 </r>
       <r>    2.5794    1.0000 </r>
       <r>    3.0393    1.0000 </r>
       <r>    3.1355    1.0000 </r>
       <r>    3.3477    1.0000 </r>
       <r>    3.3847    1.0000 </r>
       <r>    4.1662    1.0000 </r>
       <r>    4.3349    1.0000 </r>
       <r>    4.5819    1.0000 </r>
       <r>    4.7862    1.0000 </r>
       <r>    5.1070    1.0000 </r>
       <r>    5.1819    1.0000 </r>
       <r>    5.4581    1.0001 </r>
       <r>    5.6105    1.0026 </r>
       <r>    5.6612    1.0067 </r>
       <r>    6.1275    0.2759 </r>
       <r>    8.8198   -0.0000 </r>
       <r>    9.5515   -0.0000 </r>
       <r>   12.4271    0.0000 </r>
       <r>   13.3708    0.0000 </r>
       <r>   13.9690    0.0000 </r>
       <r>   14.4828    0.0000 </r>
       <r>   16.5793    0.0000 </r>
      </set>
      <set comment="kpoint 70">
       <r>   -1.8759    1.0000 </r>
       <r>    0.5180    1.0000 </r>
       <r>    2.6954    1.0000 </r>
       <r>    3.0525    1.0000 </r>
       <r>    3.1825    1.0000 </r>
       <r>    3.4166    1.0000 </r>
       <r>    3.5239    1.0000 </r>
       <r>    4.1535    1.0000 </r>
       <r>    4.2222    1.0000 </r>
       <r>    4.5037    1.0000 </r>
       <r>    4.7269    1.0000 </r>
       <r>    4.9780    1.0000 </r>
       <r>    5.1239    1.0000 </r>
       <r>    5.3431    1.0000 </r>
       <r>    5.4700    1.0001 </r>
       <r>    5.6525    1.0057 </r>
       <r>    6.1237    0.2900 </r>
       <r>    9.3232   -0.0000 </r>
       <r>   10.1092   -0.0000 </r>
       <r>   11.8151    0.0000 </r>
       <r>   12.8051    0.0000 </r>
       <r>   13.7714    0.0000 </r>
       <r>   14.6548    0.0000 </r>
       <r>   16.1960    0.0000 </r>
      </set>
      <set comment="kpoint 71">
       <r>   -1.4252    1.0000 </r>
       <r>   -0.0168    1.0000 </r>
       <r>    2.7880    1.0000 </r>
       <r>    3.0491    1.0000 </r>
       <r>    3.2119    1.0000 </r>
       <r>    3.4299    1.0000 </r>
       <r>    3.6783    1.0000 </r>
       <r>    4.1279    1.0000 </r>
       <r>    4.1849    1.0000 </r>
       <r>    4.4374    1.0000 </r>
       <r>    4.6938    1.0000 </r>
       <r>    4.8817    1.0000 </r>
       <r>    5.1010    1.0000 </r>
       <r>    5.2516    1.0000 </r>
       <r>    5.3702    1.0000 </r>
       <r>    5.6539    1.0059 </r>
       <r>    6.1218    0.2972 </r>
       <r>    9.8381   -0.0000 </r>
       <r>   10.6331   -0.0000 </r>
       <r>   11.2727   -0.0000 </r>
       <r>   12.1471    0.0000 </r>
       <r>   13.7456    0.0000 </r>
       <r>   14.8510    0.0000 </r>
       <r>   15.8570    0.0000 </r>
      </set>
      <set comment="kpoint 72">
       <r>   -1.1483    1.0000 </r>
       <r>   -0.3241    1.0000 </r>
       <r>    2.8265    1.0000 </r>
       <r>    3.0422    1.0000 </r>
       <r>    3.2227    1.0000 </r>
       <r>    3.4320    1.0000 </r>
       <r>    3.7493    1.0000 </r>
       <r>    4.0852    1.0000 </r>
       <r>    4.2097    1.0000 </r>
       <r>    4.4009    1.0000 </r>
       <r>    4.6867    1.0000 </r>
       <r>    4.8440    1.0000 </r>
       <r>    5.1009    1.0000 </r>
       <r>    5.2117    1.0000 </r>
       <r>    5.3339    1.0000 </r>
       <r>    5.6547    1.0060 </r>
       <r>    6.1212    0.2994 </r>
       <r>   10.2044   -0.0000 </r>
       <r>   10.6415   -0.0000 </r>
       <r>   11.3342   -0.0000 </r>
       <r>   11.6493    0.0000 </r>
       <r>   13.7471    0.0000 </r>
       <r>   14.9571    0.0000 </r>
       <r>   15.7017    0.0000 </r>
      </set>
      <set comment="kpoint 73">
       <r>   -3.0876    1.0000 </r>
       <r>    2.0827    1.0000 </r>
       <r>    2.3985    1.0000 </r>
       <r>    2.7629    1.0000 </r>
       <r>    2.9937    1.0000 </r>
       <r>    3.1343    1.0000 </r>
       <r>    3.2590    1.0000 </r>
       <r>    4.2961    1.0000 </r>
       <r>    4.6199    1.0000 </r>
       <r>    4.8589    1.0000 </r>
       <r>    5.0291    1.0000 </r>
       <r>    5.4275    1.0000 </r>
       <r>    5.4543    1.0001 </r>
       <r>    5.5644    1.0010 </r>
       <r>    5.7311    1.0183 </r>
       <r>    6.1168    0.3166 </r>
       <r>    6.5520   -0.0018 </r>
       <r>    7.2646   -0.0000 </r>
       <r>    8.4263   -0.0000 </r>
       <r>   13.0945    0.0000 </r>
       <r>   14.4314    0.0000 </r>
       <r>   14.6510    0.0000 </r>
       <r>   15.2259    0.0000 </r>
       <r>   16.4869    0.0000 </r>
      </set>
      <set comment="kpoint 74">
       <r>   -2.8355    1.0000 </r>
       <r>    2.0017    1.0000 </r>
       <r>    2.3560    1.0000 </r>
       <r>    2.8419    1.0000 </r>
       <r>    3.0075    1.0000 </r>
       <r>    3.1703    1.0000 </r>
       <r>    3.3384    1.0000 </r>
       <r>    4.1835    1.0000 </r>
       <r>    4.5466    1.0000 </r>
       <r>    4.6930    1.0000 </r>
       <r>    4.9816    1.0000 </r>
       <r>    5.3161    1.0000 </r>
       <r>    5.3662    1.0000 </r>
       <r>    5.5439    1.0006 </r>
       <r>    5.6530    1.0058 </r>
       <r>    6.0798    0.4680 </r>
       <r>    6.2984   -0.0339 </r>
       <r>    7.4423   -0.0000 </r>
       <r>    8.8246   -0.0000 </r>
       <r>   12.8870    0.0000 </r>
       <r>   13.8205    0.0000 </r>
       <r>   14.9582    0.0000 </r>
       <r>   15.6429    0.0000 </r>
       <r>   16.0828    0.0000 </r>
      </set>
      <set comment="kpoint 75">
       <r>   -2.5171    1.0000 </r>
       <r>    1.6653    1.0000 </r>
       <r>    2.4416    1.0000 </r>
       <r>    2.9302    1.0000 </r>
       <r>    3.0493    1.0000 </r>
       <r>    3.2360    1.0000 </r>
       <r>    3.4144    1.0000 </r>
       <r>    4.0963    1.0000 </r>
       <r>    4.4167    1.0000 </r>
       <r>    4.5792    1.0000 </r>
       <r>    4.9362    1.0000 </r>
       <r>    5.2126    1.0000 </r>
       <r>    5.2459    1.0000 </r>
       <r>    5.5082    1.0002 </r>
       <r>    5.5923    1.0018 </r>
       <r>    5.9941    0.8044 </r>
       <r>    6.0617    0.5444 </r>
       <r>    7.7860   -0.0000 </r>
       <r>    9.2783   -0.0000 </r>
       <r>   12.3175    0.0000 </r>
       <r>   13.6206    0.0000 </r>
       <r>   14.7166    0.0000 </r>
       <r>   15.3019    0.0000 </r>
       <r>   16.7337    0.0000 </r>
      </set>
      <set comment="kpoint 76">
       <r>   -2.1381    1.0000 </r>
       <r>    1.1913    1.0000 </r>
       <r>    2.5657    1.0000 </r>
       <r>    2.9718    1.0000 </r>
       <r>    3.1115    1.0000 </r>
       <r>    3.3567    1.0000 </r>
       <r>    3.4692    1.0000 </r>
       <r>    4.0557    1.0000 </r>
       <r>    4.2618    1.0000 </r>
       <r>    4.5403    1.0000 </r>
       <r>    4.8547    1.0000 </r>
       <r>    5.0958    1.0000 </r>
       <r>    5.1621    1.0000 </r>
       <r>    5.4133    1.0000 </r>
       <r>    5.5818    1.0014 </r>
       <r>    5.7702    1.0272 </r>
       <r>    6.0363    0.6493 </r>
       <r>    8.1849   -0.0000 </r>
       <r>    9.7689   -0.0000 </r>
       <r>   11.6381    0.0000 </r>
       <r>   13.5044    0.0000 </r>
       <r>   14.1084    0.0000 </r>
       <r>   15.4471    0.0000 </r>
       <r>   16.8207    0.0000 </r>
      </set>
      <set comment="kpoint 77">
       <r>   -1.7105    1.0000 </r>
       <r>    0.6568    1.0000 </r>
       <r>    2.6909    1.0000 </r>
       <r>    2.9770    1.0000 </r>
       <r>    3.1619    1.0000 </r>
       <r>    3.4738    1.0000 </r>
       <r>    3.5329    1.0000 </r>
       <r>    4.0799    1.0000 </r>
       <r>    4.1351    1.0000 </r>
       <r>    4.5013    1.0000 </r>
       <r>    4.7755    1.0000 </r>
       <r>    4.9599    1.0000 </r>
       <r>    5.1335    1.0000 </r>
       <r>    5.3109    1.0000 </r>
       <r>    5.5726    1.0012 </r>
       <r>    5.6142    1.0028 </r>
       <r>    6.0233    0.7002 </r>
       <r>    8.6195   -0.0000 </r>
       <r>   10.2303   -0.0000 </r>
       <r>   11.0518   -0.0000 </r>
       <r>   13.0189    0.0000 </r>
       <r>   13.9224    0.0000 </r>
       <r>   15.6378    0.0000 </r>
       <r>   16.5206    0.0000 </r>
      </set>
      <set comment="kpoint 78">
       <r>   -1.2685    1.0000 </r>
       <r>    0.1357    1.0000 </r>
       <r>    2.8019    1.0000 </r>
       <r>    2.9503    1.0000 </r>
       <r>    3.1979    1.0000 </r>
       <r>    3.4685    1.0000 </r>
       <r>    3.6919    1.0000 </r>
       <r>    4.0307    1.0000 </r>
       <r>    4.1564    1.0000 </r>
       <r>    4.4254    1.0000 </r>
       <r>    4.7460    1.0000 </r>
       <r>    4.8477    1.0000 </r>
       <r>    5.1284    1.0000 </r>
       <r>    5.2352    1.0000 </r>
       <r>    5.4801    1.0001 </r>
       <r>    5.5962    1.0019 </r>
       <r>    6.0165    0.7261 </r>
       <r>    9.0804   -0.0000 </r>
       <r>   10.1618   -0.0000 </r>
       <r>   11.0849   -0.0000 </r>
       <r>   12.3704    0.0000 </r>
       <r>   13.9467    0.0000 </r>
       <r>   15.8262    0.0000 </r>
       <r>   16.2273    0.0000 </r>
      </set>
      <set comment="kpoint 79">
       <r>   -1.0010    1.0000 </r>
       <r>   -0.1606    1.0000 </r>
       <r>    2.8836    1.0000 </r>
       <r>    2.8976    1.0000 </r>
       <r>    3.2123    1.0000 </r>
       <r>    3.4605    1.0000 </r>
       <r>    3.7839    1.0000 </r>
       <r>    3.9663    1.0000 </r>
       <r>    4.2190    1.0000 </r>
       <r>    4.3620    1.0000 </r>
       <r>    4.7562    1.0000 </r>
       <r>    4.7899    1.0000 </r>
       <r>    5.1342    1.0000 </r>
       <r>    5.2040    1.0000 </r>
       <r>    5.4379    1.0000 </r>
       <r>    5.5969    1.0020 </r>
       <r>    6.0143    0.7340 </r>
       <r>    9.4391   -0.0000 </r>
       <r>    9.8044   -0.0000 </r>
       <r>   11.4755   -0.0000 </r>
       <r>   11.8968    0.0000 </r>
       <r>   13.9670    0.0000 </r>
       <r>   16.0042    0.0000 </r>
       <r>   16.0129    0.0000 </r>
      </set>
      <set comment="kpoint 80">
       <r>   -2.5872    1.0000 </r>
       <r>    2.0930    1.0000 </r>
       <r>    2.2065    1.0000 </r>
       <r>    2.8561    1.0000 </r>
       <r>    3.0200    1.0000 </r>
       <r>    3.2037    1.0000 </r>
       <r>    3.4312    1.0000 </r>
       <r>    4.0645    1.0000 </r>
       <r>    4.4872    1.0000 </r>
       <r>    4.5315    1.0000 </r>
       <r>    5.0255    1.0000 </r>
       <r>    5.2222    1.0000 </r>
       <r>    5.3170    1.0000 </r>
       <r>    5.5014    1.0002 </r>
       <r>    5.5625    1.0009 </r>
       <r>    6.0206    0.7108 </r>
       <r>    6.3207   -0.0354 </r>
       <r>    7.2271   -0.0000 </r>
       <r>    9.1856   -0.0000 </r>
       <r>   12.2726    0.0000 </r>
       <r>   13.6555    0.0000 </r>
       <r>   15.7144    0.0000 </r>
       <r>   15.7472    0.0000 </r>
       <r>   16.0481    0.0000 </r>
      </set>
      <set comment="kpoint 81">
       <r>   -2.2737    1.0000 </r>
       <r>    1.8099    1.0000 </r>
       <r>    2.2870    1.0000 </r>
       <r>    2.9141    1.0000 </r>
       <r>    3.0532    1.0000 </r>
       <r>    3.2638    1.0000 </r>
       <r>    3.5204    1.0000 </r>
       <r>    3.9722    1.0000 </r>
       <r>    4.3064    1.0000 </r>
       <r>    4.5271    1.0000 </r>
       <r>    5.0113    1.0000 </r>
       <r>    5.1425    1.0000 </r>
       <r>    5.2250    1.0000 </r>
       <r>    5.4501    1.0000 </r>
       <r>    5.5005    1.0002 </r>
       <r>    5.9671    0.8839 </r>
       <r>    6.1270    0.2775 </r>
       <r>    7.3528   -0.0000 </r>
       <r>    9.5951   -0.0000 </r>
       <r>   11.5352    0.0000 </r>
       <r>   13.6839    0.0000 </r>
       <r>   14.9984    0.0000 </r>
       <r>   16.0999    0.0000 </r>
       <r>   16.3390    0.0000 </r>
      </set>
      <set comment="kpoint 82">
       <r>   -1.9016    1.0000 </r>
       <r>    1.3557    1.0000 </r>
       <r>    2.4260    1.0000 </r>
       <r>    2.9615    1.0000 </r>
       <r>    3.1010    1.0000 </r>
       <r>    3.3683    1.0000 </r>
       <r>    3.5719    1.0000 </r>
       <r>    3.9441    1.0000 </r>
       <r>    4.1601    1.0000 </r>
       <r>    4.5313    1.0000 </r>
       <r>    4.9033    1.0000 </r>
       <r>    5.1011    1.0000 </r>
       <r>    5.1383    1.0000 </r>
       <r>    5.3514    1.0000 </r>
       <r>    5.4985    1.0002 </r>
       <r>    5.8755    1.0233 </r>
       <r>    5.9504    0.9240 </r>
       <r>    7.6377   -0.0000 </r>
       <r>    9.9835   -0.0000 </r>
       <r>   10.8974   -0.0000 </r>
       <r>   13.6906    0.0000 </r>
       <r>   14.3112    0.0000 </r>
       <r>   16.3541    0.0000 </r>
       <r>   16.6110    0.0000 </r>
      </set>
      <set comment="kpoint 83">
       <r>   -1.4829    1.0000 </r>
       <r>    0.8421    1.0000 </r>
       <r>    2.5502    1.0000 </r>
       <r>    2.9836    1.0000 </r>
       <r>    3.1467    1.0000 </r>
       <r>    3.5026    1.0000 </r>
       <r>    3.5723    1.0000 </r>
       <r>    4.0004    1.0000 </r>
       <r>    4.0562    1.0000 </r>
       <r>    4.5075    1.0000 </r>
       <r>    4.8025    1.0000 </r>
       <r>    4.9712    1.0000 </r>
       <r>    5.1469    1.0000 </r>
       <r>    5.2621    1.0000 </r>
       <r>    5.5048    1.0002 </r>
       <r>    5.7045    1.0130 </r>
       <r>    5.9116    0.9908 </r>
       <r>    7.9908   -0.0000 </r>
       <r>    9.9008   -0.0000 </r>
       <r>   10.8373   -0.0000 </r>
       <r>   13.2909    0.0000 </r>
       <r>   14.0883    0.0000 </r>
       <r>   16.4156    0.0000 </r>
       <r>   16.9310    0.0000 </r>
      </set>
      <set comment="kpoint 84">
       <r>   -1.0537    1.0000 </r>
       <r>    0.3416    1.0000 </r>
       <r>    2.6395    1.0000 </r>
       <r>    2.9858    1.0000 </r>
       <r>    3.1822    1.0000 </r>
       <r>    3.5126    1.0000 </r>
       <r>    3.6859    1.0000 </r>
       <r>    3.9424    1.0000 </r>
       <r>    4.1351    1.0000 </r>
       <r>    4.4215    1.0000 </r>
       <r>    4.7614    1.0000 </r>
       <r>    4.8613    1.0000 </r>
       <r>    5.1566    1.0000 </r>
       <r>    5.2068    1.0000 </r>
       <r>    5.5110    1.0003 </r>
       <r>    5.5811    1.0014 </r>
       <r>    5.8945    1.0093 </r>
       <r>    8.3909   -0.0000 </r>
       <r>    9.3948   -0.0000 </r>
       <r>   11.3031   -0.0000 </r>
       <r>   12.6605    0.0000 </r>
       <r>   14.1396    0.0000 </r>
       <r>   16.3055    0.0000 </r>
       <r>   17.1443    0.0000 </r>
      </set>
      <set comment="kpoint 85">
       <r>   -0.7990    1.0000 </r>
       <r>    0.0609    1.0000 </r>
       <r>    2.6732    1.0000 </r>
       <r>    2.9828    1.0000 </r>
       <r>    3.1969    1.0000 </r>
       <r>    3.4976    1.0000 </r>
       <r>    3.8090    1.0000 </r>
       <r>    3.8480    1.0000 </r>
       <r>    4.2330    1.0000 </r>
       <r>    4.3312    1.0000 </r>
       <r>    4.7597    1.0000 </r>
       <r>    4.8106    1.0000 </r>
       <r>    5.1698    1.0000 </r>
       <r>    5.1829    1.0000 </r>
       <r>    5.5159    1.0003 </r>
       <r>    5.5315    1.0004 </r>
       <r>    5.8892    1.0139 </r>
       <r>    8.7414   -0.0000 </r>
       <r>    8.9937   -0.0000 </r>
       <r>   11.6900    0.0000 </r>
       <r>   12.2255    0.0000 </r>
       <r>   14.1723    0.0000 </r>
       <r>   16.2389    0.0000 </r>
       <r>   17.1895    0.0000 </r>
      </set>
      <set comment="kpoint 86">
       <r>   -1.9673    1.0000 </r>
       <r>    1.9643    1.0000 </r>
       <r>    1.9821    1.0000 </r>
       <r>    2.9592    1.0000 </r>
       <r>    3.0727    1.0000 </r>
       <r>    3.3112    1.0000 </r>
       <r>    3.6324    1.0000 </r>
       <r>    3.8646    1.0000 </r>
       <r>    4.1718    1.0000 </r>
       <r>    4.5324    1.0000 </r>
       <r>    5.0225    1.0000 </r>
       <r>    5.0873    1.0000 </r>
       <r>    5.1812    1.0000 </r>
       <r>    5.3759    1.0000 </r>
       <r>    5.4298    1.0000 </r>
       <r>    5.8936    1.0102 </r>
       <r>    6.1058    0.3603 </r>
       <r>    7.1771   -0.0000 </r>
       <r>    9.9000   -0.0000 </r>
       <r>   10.8430   -0.0000 </r>
       <r>   13.7996    0.0000 </r>
       <r>   15.1893    0.0000 </r>
       <r>   15.4329    0.0000 </r>
       <r>   17.2487    0.0000 </r>
      </set>
      <set comment="kpoint 87">
       <r>   -1.6043    1.0000 </r>
       <r>    1.5460    1.0000 </r>
       <r>    2.1384    1.0000 </r>
       <r>    3.0107    1.0000 </r>
       <r>    3.1051    1.0000 </r>
       <r>    3.3922    1.0000 </r>
       <r>    3.6837    1.0000 </r>
       <r>    3.8436    1.0000 </r>
       <r>    4.0608    1.0000 </r>
       <r>    4.5450    1.0000 </r>
       <r>    4.9095    1.0000 </r>
       <r>    5.0897    1.0000 </r>
       <r>    5.1365    1.0000 </r>
       <r>    5.2768    1.0000 </r>
       <r>    5.4104    1.0000 </r>
       <r>    5.8273    1.0355 </r>
       <r>    5.9563    0.9106 </r>
       <r>    7.2668   -0.0000 </r>
       <r>    9.7644   -0.0000 </r>
       <r>   10.7096   -0.0000 </r>
       <r>   13.8935    0.0000 </r>
       <r>   14.5609    0.0000 </r>
       <r>   15.6874    0.0000 </r>
       <r>   17.1749    0.0000 </r>
      </set>
      <set comment="kpoint 88">
       <r>   -1.1980    1.0000 </r>
       <r>    1.0626    1.0000 </r>
       <r>    2.2808    1.0000 </r>
       <r>    3.0430    1.0000 </r>
       <r>    3.1396    1.0000 </r>
       <r>    3.5029    1.0000 </r>
       <r>    3.6343    1.0000 </r>
       <r>    3.9246    1.0000 </r>
       <r>    4.0124    1.0000 </r>
       <r>    4.5179    1.0000 </r>
       <r>    4.8171    1.0000 </r>
       <r>    4.9859    1.0000 </r>
       <r>    5.1596    1.0000 </r>
       <r>    5.2009    1.0000 </r>
       <r>    5.4089    1.0000 </r>
       <r>    5.7523    1.0231 </r>
       <r>    5.8165    1.0350 </r>
       <r>    7.5014   -0.0000 </r>
       <r>    9.2166   -0.0000 </r>
       <r>   11.1144   -0.0000 </r>
       <r>   13.6108    0.0000 </r>
       <r>   14.2754    0.0000 </r>
       <r>   16.0405    0.0000 </r>
       <r>   16.9093    0.0000 </r>
      </set>
      <set comment="kpoint 89">
       <r>   -0.7860    1.0000 </r>
       <r>    0.5911    1.0000 </r>
       <r>    2.3784    1.0000 </r>
       <r>    3.0564    1.0000 </r>
       <r>    3.1672    1.0000 </r>
       <r>    3.5517    1.0000 </r>
       <r>    3.6648    1.0000 </r>
       <r>    3.8787    1.0000 </r>
       <r>    4.1315    1.0000 </r>
       <r>    4.4230    1.0000 </r>
       <r>    4.7735    1.0000 </r>
       <r>    4.8881    1.0000 </r>
       <r>    5.1455    1.0000 </r>
       <r>    5.1969    1.0000 </r>
       <r>    5.4112    1.0000 </r>
       <r>    5.6483    1.0053 </r>
       <r>    5.7695    1.0270 </r>
       <r>    7.8178   -0.0000 </r>
       <r>    8.6843   -0.0000 </r>
       <r>   11.6150    0.0000 </r>
       <r>   13.0080    0.0000 </r>
       <r>   14.3486    0.0000 </r>
       <r>   16.3431    0.0000 </r>
       <r>   16.6651    0.0000 </r>
      </set>
      <set comment="kpoint 90">
       <r>   -0.5476    1.0000 </r>
       <r>    0.3306    1.0000 </r>
       <r>    2.4132    1.0000 </r>
       <r>    3.0591    1.0000 </r>
       <r>    3.1786    1.0000 </r>
       <r>    3.5393    1.0000 </r>
       <r>    3.7491    1.0000 </r>
       <r>    3.8171    1.0000 </r>
       <r>    4.2510    1.0000 </r>
       <r>    4.3159    1.0000 </r>
       <r>    4.7612    1.0000 </r>
       <r>    4.8459    1.0000 </r>
       <r>    5.1421    1.0000 </r>
       <r>    5.2020    1.0000 </r>
       <r>    5.4126    1.0000 </r>
       <r>    5.6035    1.0023 </r>
       <r>    5.7580    1.0244 </r>
       <r>    8.1458   -0.0000 </r>
       <r>    8.2826   -0.0000 </r>
       <r>   11.9683    0.0000 </r>
       <r>   12.6124    0.0000 </r>
       <r>   14.3928    0.0000 </r>
       <r>   16.4579    0.0000 </r>
       <r>   16.5858    0.0000 </r>
      </set>
      <set comment="kpoint 91">
       <r>   -1.2537    1.0000 </r>
       <r>    1.7076    1.0000 </r>
       <r>    1.7869    1.0000 </r>
       <r>    3.0593    1.0000 </r>
       <r>    3.1220    1.0000 </r>
       <r>    3.4427    1.0000 </r>
       <r>    3.7254    1.0000 </r>
       <r>    3.8313    1.0000 </r>
       <r>    3.9900    1.0000 </r>
       <r>    4.5537    1.0000 </r>
       <r>    4.8728    1.0000 </r>
       <r>    5.0469    1.0000 </r>
       <r>    5.1615    1.0000 </r>
       <r>    5.1935    1.0000 </r>
       <r>    5.3438    1.0000 </r>
       <r>    5.7432    1.0210 </r>
       <r>    5.9060    0.9976 </r>
       <r>    7.1307   -0.0000 </r>
       <r>    9.1563   -0.0000 </r>
       <r>   11.0487   -0.0000 </r>
       <r>   14.0814    0.0000 </r>
       <r>   14.6677    0.0000 </r>
       <r>   15.1723    0.0000 </r>
       <r>   17.3020    0.0000 </r>
      </set>
      <set comment="kpoint 92">
       <r>   -0.8639    1.0000 </r>
       <r>    1.2998    1.0000 </r>
       <r>    1.9324    1.0000 </r>
       <r>    3.0818    1.0000 </r>
       <r>    3.1412    1.0000 </r>
       <r>    3.5214    1.0000 </r>
       <r>    3.6716    1.0000 </r>
       <r>    3.8702    1.0000 </r>
       <r>    4.0206    1.0000 </r>
       <r>    4.5162    1.0000 </r>
       <r>    4.8339    1.0000 </r>
       <r>    4.9785    1.0000 </r>
       <r>    5.1149    1.0000 </r>
       <r>    5.1922    1.0000 </r>
       <r>    5.3112    1.0000 </r>
       <r>    5.6742    1.0083 </r>
       <r>    5.7941    1.0321 </r>
       <r>    7.1990   -0.0000 </r>
       <r>    8.5775   -0.0000 </r>
       <r>   11.5010   -0.0000 </r>
       <r>   13.9588    0.0000 </r>
       <r>   14.4373    0.0000 </r>
       <r>   15.3794    0.0000 </r>
       <r>   17.0938    0.0000 </r>
      </set>
      <set comment="kpoint 93">
       <r>   -0.4738    1.0000 </r>
       <r>    0.8675    1.0000 </r>
       <r>    2.0619    1.0000 </r>
       <r>    3.0852    1.0000 </r>
       <r>    3.1546    1.0000 </r>
       <r>    3.5796    1.0000 </r>
       <r>    3.6652    1.0000 </r>
       <r>    3.8368    1.0000 </r>
       <r>    4.1507    1.0000 </r>
       <r>    4.4215    1.0000 </r>
       <r>    4.8082    1.0000 </r>
       <r>    4.8992    1.0000 </r>
       <r>    5.0830    1.0000 </r>
       <r>    5.2171    1.0000 </r>
       <r>    5.2970    1.0000 </r>
       <r>    5.6334    1.0041 </r>
       <r>    5.6917    1.0108 </r>
       <r>    7.3983   -0.0000 </r>
       <r>    8.0890   -0.0000 </r>
       <r>   11.9864    0.0000 </r>
       <r>   13.3944    0.0000 </r>
       <r>   14.5449    0.0000 </r>
       <r>   15.7048    0.0000 </r>
       <r>   16.7928    0.0000 </r>
      </set>
      <set comment="kpoint 94">
       <r>   -0.2545    1.0000 </r>
       <r>    0.6319    1.0000 </r>
       <r>    2.1099    1.0000 </r>
       <r>    3.0834    1.0000 </r>
       <r>    3.1601    1.0000 </r>
       <r>    3.5816    1.0000 </r>
       <r>    3.7007    1.0000 </r>
       <r>    3.8096    1.0000 </r>
       <r>    4.2722    1.0000 </r>
       <r>    4.3133    1.0000 </r>
       <r>    4.7963    1.0000 </r>
       <r>    4.8615    1.0000 </r>
       <r>    5.0821    1.0000 </r>
       <r>    5.2280    1.0000 </r>
       <r>    5.2916    1.0000 </r>
       <r>    5.6265    1.0036 </r>
       <r>    5.6443    1.0050 </r>
       <r>    7.6714   -0.0000 </r>
       <r>    7.7217   -0.0000 </r>
       <r>   12.3069    0.0000 </r>
       <r>   13.0337    0.0000 </r>
       <r>   14.6027    0.0000 </r>
       <r>   15.8764    0.0000 </r>
       <r>   16.6369    0.0000 </r>
      </set>
      <set comment="kpoint 95">
       <r>   -0.4955    1.0000 </r>
       <r>    1.4846    1.0000 </r>
       <r>    1.5803    1.0000 </r>
       <r>    3.0739    1.0000 </r>
       <r>    3.1437    1.0000 </r>
       <r>    3.5727    1.0000 </r>
       <r>    3.6792    1.0000 </r>
       <r>    3.8342    1.0000 </r>
       <r>    4.0890    1.0000 </r>
       <r>    4.4801    1.0000 </r>
       <r>    4.8572    1.0000 </r>
       <r>    4.9422    1.0000 </r>
       <r>    5.0441    1.0000 </r>
       <r>    5.2164    1.0000 </r>
       <r>    5.2296    1.0000 </r>
       <r>    5.5848    1.0015 </r>
       <r>    5.7435    1.0211 </r>
       <r>    7.0954   -0.0000 </r>
       <r>    8.0444   -0.0000 </r>
       <r>   11.9425    0.0000 </r>
       <r>   14.2786    0.0000 </r>
       <r>   14.3057    0.0000 </r>
       <r>   15.1017    0.0000 </r>
       <r>   17.0530    0.0000 </r>
      </set>
      <set comment="kpoint 96">
       <r>   -0.1326    1.0000 </r>
       <r>    1.1413    1.0000 </r>
       <r>    1.7115    1.0000 </r>
       <r>    3.0402    1.0000 </r>
       <r>    3.1440    1.0000 </r>
       <r>    3.6189    1.0000 </r>
       <r>    3.6936    1.0000 </r>
       <r>    3.8085    1.0000 </r>
       <r>    4.1928    1.0000 </r>
       <r>    4.4059    1.0000 </r>
       <r>    4.8629    1.0000 </r>
       <r>    4.8874    1.0000 </r>
       <r>    5.0123    1.0000 </r>
       <r>    5.1805    1.0000 </r>
       <r>    5.2379    1.0000 </r>
       <r>    5.5262    1.0004 </r>
       <r>    5.6791    1.0089 </r>
       <r>    7.1537   -0.0000 </r>
       <r>    7.6311   -0.0000 </r>
       <r>   12.4049    0.0000 </r>
       <r>   13.7840    0.0000 </r>
       <r>   14.5542    0.0000 </r>
       <r>   15.2633    0.0000 </r>
       <r>   16.7720    0.0000 </r>
      </set>
      <set comment="kpoint 97">
       <r>    0.0659    1.0000 </r>
       <r>    0.9345    1.0000 </r>
       <r>    1.7781    1.0000 </r>
       <r>    3.0212    1.0000 </r>
       <r>    3.1442    1.0000 </r>
       <r>    3.6282    1.0000 </r>
       <r>    3.7149    1.0000 </r>
       <r>    3.7950    1.0000 </r>
       <r>    4.2943    1.0000 </r>
       <r>    4.3159    1.0000 </r>
       <r>    4.8561    1.0000 </r>
       <r>    4.8568    1.0000 </r>
       <r>    5.0141    1.0000 </r>
       <r>    5.1659    1.0000 </r>
       <r>    5.2465    1.0000 </r>
       <r>    5.5068    1.0002 </r>
       <r>    5.6495    1.0054 </r>
       <r>    7.3316   -0.0000 </r>
       <r>    7.3400   -0.0000 </r>
       <r>   12.7006    0.0000 </r>
       <r>   13.4548    0.0000 </r>
       <r>   14.6529    0.0000 </r>
       <r>   15.3874    0.0000 </r>
       <r>   16.6049    0.0000 </r>
      </set>
      <set comment="kpoint 98">
       <r>    0.1998    1.0000 </r>
       <r>    1.3351    1.0000 </r>
       <r>    1.3962    1.0000 </r>
       <r>    2.9572    1.0000 </r>
       <r>    3.1363    1.0000 </r>
       <r>    3.6567    1.0000 </r>
       <r>    3.7330    1.0000 </r>
       <r>    3.7905    1.0000 </r>
       <r>    4.2517    1.0000 </r>
       <r>    4.3701    1.0000 </r>
       <r>    4.8552    1.0000 </r>
       <r>    4.9112    1.0000 </r>
       <r>    4.9637    1.0000 </r>
       <r>    5.0950    1.0000 </r>
       <r>    5.2513    1.0000 </r>
       <r>    5.4506    1.0001 </r>
       <r>    5.6475    1.0053 </r>
       <r>    7.0737   -0.0000 </r>
       <r>    7.3148   -0.0000 </r>
       <r>   12.8459    0.0000 </r>
       <r>   14.0383    0.0000 </r>
       <r>   14.2305    0.0000 </r>
       <r>   15.2743    0.0000 </r>
       <r>   16.4915    0.0000 </r>
      </set>
      <set comment="kpoint 99">
       <r>    0.3788    1.0000 </r>
       <r>    1.1814    1.0000 </r>
       <r>    1.4561    1.0000 </r>
       <r>    2.9141    1.0000 </r>
       <r>    3.1336    1.0000 </r>
       <r>    3.6691    1.0000 </r>
       <r>    3.7559    1.0000 </r>
       <r>    3.7825    1.0000 </r>
       <r>    4.3124    1.0000 </r>
       <r>    4.3187    1.0000 </r>
       <r>    4.8339    1.0000 </r>
       <r>    4.9171    1.0000 </r>
       <r>    4.9616    1.0000 </r>
       <r>    5.0650    1.0000 </r>
       <r>    5.2571    1.0000 </r>
       <r>    5.4242    1.0000 </r>
       <r>    5.6297    1.0038 </r>
       <r>    7.1311   -0.0000 </r>
       <r>    7.1316   -0.0000 </r>
       <r>   13.1332    0.0000 </r>
       <r>   13.8069    0.0000 </r>
       <r>   14.2920    0.0000 </r>
       <r>   15.3388    0.0000 </r>
       <r>   16.3280    0.0000 </r>
      </set>
      <set comment="kpoint 100">
       <r>    0.5486    1.0000 </r>
       <r>    1.2828    1.0000 </r>
       <r>    1.2828    1.0000 </r>
       <r>    2.8586    1.0000 </r>
       <r>    3.1298    1.0000 </r>
       <r>    3.6842    1.0000 </r>
       <r>    3.7777    1.0000 </r>
       <r>    3.7777    1.0000 </r>
       <r>    4.3198    1.0000 </r>
       <r>    4.3198    1.0000 </r>
       <r>    4.8170    1.0000 </r>
       <r>    4.9443    1.0000 </r>
       <r>    4.9443    1.0000 </r>
       <r>    5.0260    1.0000 </r>
       <r>    5.2605    1.0000 </r>
       <r>    5.3956    1.0000 </r>
       <r>    5.6160    1.0029 </r>
       <r>    7.0664   -0.0000 </r>
       <r>    7.0664   -0.0000 </r>
       <r>   13.4464    0.0000 </r>
       <r>   13.9571    0.0000 </r>
       <r>   13.9571    0.0000 </r>
       <r>   15.3818    0.0000 </r>
       <r>   16.1759    0.0000 </r>
      </set>
      <set comment="kpoint 101">
       <r>   -3.3432    1.0000 </r>
       <r>    2.0464    1.0000 </r>
       <r>    2.5992    1.0000 </r>
       <r>    2.5992    1.0000 </r>
       <r>    2.9738    1.0000 </r>
       <r>    3.1426    1.0000 </r>
       <r>    3.1426    1.0000 </r>
       <r>    4.4223    1.0000 </r>
       <r>    4.8094    1.0000 </r>
       <r>    4.8094    1.0000 </r>
       <r>    5.4149    1.0000 </r>
       <r>    5.4149    1.0000 </r>
       <r>    5.5802    1.0014 </r>
       <r>    5.5802    1.0014 </r>
       <r>    5.7971    1.0326 </r>
       <r>    6.1725    0.1293 </r>
       <r>    6.9296   -0.0000 </r>
       <r>    7.4707   -0.0000 </r>
       <r>    7.4707   -0.0000 </r>
       <r>   13.6377    0.0000 </r>
       <r>   13.6377    0.0000 </r>
       <r>   14.4411    0.0000 </r>
       <r>   16.0561    0.0000 </r>
       <r>   16.4487    0.0000 </r>
      </set>
      <set comment="kpoint 102">
       <r>   -3.1604    1.0000 </r>
       <r>    2.0733    1.0000 </r>
       <r>    2.4834    1.0000 </r>
       <r>    2.7105    1.0000 </r>
       <r>    2.9647    1.0000 </r>
       <r>    3.1674    1.0000 </r>
       <r>    3.2106    1.0000 </r>
       <r>    4.3086    1.0000 </r>
       <r>    4.7020    1.0000 </r>
       <r>    4.8259    1.0000 </r>
       <r>    5.1710    1.0000 </r>
       <r>    5.3638    1.0000 </r>
       <r>    5.4935    1.0002 </r>
       <r>    5.5689    1.0011 </r>
       <r>    5.7276    1.0176 </r>
       <r>    6.1548    0.1815 </r>
       <r>    6.6686   -0.0001 </r>
       <r>    7.6171   -0.0000 </r>
       <r>    7.7657   -0.0000 </r>
       <r>   13.6273    0.0000 </r>
       <r>   14.0624    0.0000 </r>
       <r>   15.0230    0.0000 </r>
       <r>   15.3174    0.0000 </r>
       <r>   15.5719    0.0000 </r>
      </set>
      <set comment="kpoint 103">
       <r>   -2.9073    1.0000 </r>
       <r>    1.9621    1.0000 </r>
       <r>    2.4200    1.0000 </r>
       <r>    2.8536    1.0000 </r>
       <r>    2.9680    1.0000 </r>
       <r>    3.2042    1.0000 </r>
       <r>    3.2833    1.0000 </r>
       <r>    4.2107    1.0000 </r>
       <r>    4.5781    1.0000 </r>
       <r>    4.7695    1.0000 </r>
       <r>    4.9748    1.0000 </r>
       <r>    5.2863    1.0000 </r>
       <r>    5.3841    1.0000 </r>
       <r>    5.5642    1.0010 </r>
       <r>    5.6622    1.0068 </r>
       <r>    6.1323    0.2582 </r>
       <r>    6.2769   -0.0274 </r>
       <r>    7.9992   -0.0000 </r>
       <r>    8.1178   -0.0000 </r>
       <r>   13.5234    0.0000 </r>
       <r>   14.2123    0.0000 </r>
       <r>   14.4819    0.0000 </r>
       <r>   14.8569    0.0000 </r>
       <r>   16.0022    0.0000 </r>
      </set>
      <set comment="kpoint 104">
       <r>   -2.5875    1.0000 </r>
       <r>    1.6202    1.0000 </r>
       <r>    2.4844    1.0000 </r>
       <r>    2.9799    1.0000 </r>
       <r>    3.0080    1.0000 </r>
       <r>    3.2621    1.0000 </r>
       <r>    3.3518    1.0000 </r>
       <r>    4.1399    1.0000 </r>
       <r>    4.4501    1.0000 </r>
       <r>    4.6166    1.0000 </r>
       <r>    4.8988    1.0000 </r>
       <r>    5.2045    1.0000 </r>
       <r>    5.2538    1.0000 </r>
       <r>    5.5394    1.0005 </r>
       <r>    5.6118    1.0027 </r>
       <r>    5.9502    0.9245 </r>
       <r>    6.1104    0.3418 </r>
       <r>    8.4500   -0.0000 </r>
       <r>    8.5087   -0.0000 </r>
       <r>   13.1647    0.0000 </r>
       <r>   13.5648    0.0000 </r>
       <r>   14.4787    0.0000 </r>
       <r>   14.4922    0.0000 </r>
       <r>   16.7476    0.0000 </r>
      </set>
      <set comment="kpoint 105">
       <r>   -2.2068    1.0000 </r>
       <r>    1.1413    1.0000 </r>
       <r>    2.5949    1.0000 </r>
       <r>    2.9926    1.0000 </r>
       <r>    3.1302    1.0000 </r>
       <r>    3.3690    1.0000 </r>
       <r>    3.4046    1.0000 </r>
       <r>    4.1050    1.0000 </r>
       <r>    4.3248    1.0000 </r>
       <r>    4.4837    1.0000 </r>
       <r>    4.8562    1.0000 </r>
       <r>    5.1143    1.0000 </r>
       <r>    5.1370    1.0000 </r>
       <r>    5.4572    1.0001 </r>
       <r>    5.6040    1.0023 </r>
       <r>    5.7046    1.0130 </r>
       <r>    6.0928    0.4135 </r>
       <r>    8.9253   -0.0000 </r>
       <r>    8.9449   -0.0000 </r>
       <r>   12.5849    0.0000 </r>
       <r>   12.7880    0.0000 </r>
       <r>   14.4087    0.0000 </r>
       <r>   14.6923    0.0000 </r>
       <r>   17.0212    0.0000 </r>
      </set>
      <set comment="kpoint 106">
       <r>   -1.7768    1.0000 </r>
       <r>    0.6015    1.0000 </r>
       <r>    2.7107    1.0000 </r>
       <r>    2.9935    1.0000 </r>
       <r>    3.1951    1.0000 </r>
       <r>    3.4349    1.0000 </r>
       <r>    3.5299    1.0000 </r>
       <r>    4.1121    1.0000 </r>
       <r>    4.2036    1.0000 </r>
       <r>    4.4032    1.0000 </r>
       <r>    4.8157    1.0000 </r>
       <r>    4.9842    1.0000 </r>
       <r>    5.0975    1.0000 </r>
       <r>    5.3518    1.0000 </r>
       <r>    5.5318    1.0004 </r>
       <r>    5.6080    1.0025 </r>
       <r>    6.0808    0.4639 </r>
       <r>    9.3516   -0.0000 </r>
       <r>    9.4764   -0.0000 </r>
       <r>   11.9793    0.0000 </r>
       <r>   12.0530    0.0000 </r>
       <r>   14.4520    0.0000 </r>
       <r>   14.9208    0.0000 </r>
       <r>   16.7919    0.0000 </r>
      </set>
      <set comment="kpoint 107">
       <r>   -1.3314    1.0000 </r>
       <r>    0.0750    1.0000 </r>
       <r>    2.8136    1.0000 </r>
       <r>    2.9706    1.0000 </r>
       <r>    3.2260    1.0000 </r>
       <r>    3.4484    1.0000 </r>
       <r>    3.6949    1.0000 </r>
       <r>    4.0873    1.0000 </r>
       <r>    4.1483    1.0000 </r>
       <r>    4.3573    1.0000 </r>
       <r>    4.7840    1.0000 </r>
       <r>    4.8866    1.0000 </r>
       <r>    5.0946    1.0000 </r>
       <r>    5.2504    1.0000 </r>
       <r>    5.4275    1.0000 </r>
       <r>    5.6120    1.0027 </r>
       <r>    6.0740    0.4925 </r>
       <r>    9.7444   -0.0000 </r>
       <r>   10.0348   -0.0000 </r>
       <r>   11.3725   -0.0000 </r>
       <r>   11.4657   -0.0000 </r>
       <r>   14.5101    0.0000 </r>
       <r>   15.1438    0.0000 </r>
       <r>   16.4652    0.0000 </r>
      </set>
      <set comment="kpoint 108">
       <r>   -1.0605    1.0000 </r>
       <r>   -0.2254    1.0000 </r>
       <r>    2.8738    1.0000 </r>
       <r>    2.9382    1.0000 </r>
       <r>    3.2356    1.0000 </r>
       <r>    3.4525    1.0000 </r>
       <r>    3.7861    1.0000 </r>
       <r>    4.0164    1.0000 </r>
       <r>    4.1721    1.0000 </r>
       <r>    4.3382    1.0000 </r>
       <r>    4.7731    1.0000 </r>
       <r>    4.8480    1.0000 </r>
       <r>    5.1118    1.0000 </r>
       <r>    5.1949    1.0000 </r>
       <r>    5.3924    1.0000 </r>
       <r>    5.6135    1.0028 </r>
       <r>    6.0718    0.5017 </r>
       <r>    9.9414   -0.0000 </r>
       <r>   10.4716   -0.0000 </r>
       <r>   10.8952   -0.0000 </r>
       <r>   11.2269   -0.0000 </r>
       <r>   14.5352    0.0000 </r>
       <r>   15.2550    0.0000 </r>
       <r>   16.3113    0.0000 </r>
      </set>
      <set comment="kpoint 109">
       <r>   -2.9794    1.0000 </r>
       <r>    2.1190    1.0000 </r>
       <r>    2.4702    1.0000 </r>
       <r>    2.7049    1.0000 </r>
       <r>    2.9473    1.0000 </r>
       <r>    3.2061    1.0000 </r>
       <r>    3.2697    1.0000 </r>
       <r>    4.1978    1.0000 </r>
       <r>    4.6531    1.0000 </r>
       <r>    4.7498    1.0000 </r>
       <r>    5.0840    1.0000 </r>
       <r>    5.2671    1.0000 </r>
       <r>    5.4584    1.0001 </r>
       <r>    5.5293    1.0004 </r>
       <r>    5.6383    1.0045 </r>
       <r>    6.1373    0.2402 </r>
       <r>    6.7367   -0.0000 </r>
       <r>    7.3938   -0.0000 </r>
       <r>    7.9756   -0.0000 </r>
       <r>   13.7248    0.0000 </r>
       <r>   14.6082    0.0000 </r>
       <r>   14.6221    0.0000 </r>
       <r>   15.2196    0.0000 </r>
       <r>   15.7431    0.0000 </r>
      </set>
      <set comment="kpoint 110">
       <r>   -2.7290    1.0000 </r>
       <r>    2.0476    1.0000 </r>
       <r>    2.4068    1.0000 </r>
       <r>    2.8096    1.0000 </r>
       <r>    2.9492    1.0000 </r>
       <r>    3.2411    1.0000 </r>
       <r>    3.3473    1.0000 </r>
       <r>    4.1055    1.0000 </r>
       <r>    4.5470    1.0000 </r>
       <r>    4.6278    1.0000 </r>
       <r>    5.0064    1.0000 </r>
       <r>    5.2087    1.0000 </r>
       <r>    5.3709    1.0000 </r>
       <r>    5.5173    1.0003 </r>
       <r>    5.5595    1.0009 </r>
       <r>    6.1084    0.3496 </r>
       <r>    6.4506   -0.0112 </r>
       <r>    7.5537   -0.0000 </r>
       <r>    8.3081   -0.0000 </r>
       <r>   13.2849    0.0000 </r>
       <r>   14.1780    0.0000 </r>
       <r>   14.6806    0.0000 </r>
       <r>   15.2336    0.0000 </r>
       <r>   15.7125    0.0000 </r>
      </set>
      <set comment="kpoint 111">
       <r>   -2.4128    1.0000 </r>
       <r>    1.7253    1.0000 </r>
       <r>    2.4668    1.0000 </r>
       <r>    2.9265    1.0000 </r>
       <r>    2.9903    1.0000 </r>
       <r>    3.2913    1.0000 </r>
       <r>    3.4196    1.0000 </r>
       <r>    4.0443    1.0000 </r>
       <r>    4.4053    1.0000 </r>
       <r>    4.5080    1.0000 </r>
       <r>    4.9592    1.0000 </r>
       <r>    5.1550    1.0000 </r>
       <r>    5.2536    1.0000 </r>
       <r>    5.4771    1.0001 </r>
       <r>    5.5266    1.0004 </r>
       <r>    6.0670    0.5223 </r>
       <r>    6.1172    0.3148 </r>
       <r>    7.8868   -0.0000 </r>
       <r>    8.6895   -0.0000 </r>
       <r>   12.5648    0.0000 </r>
       <r>   13.6396    0.0000 </r>
       <r>   14.5333    0.0000 </r>
       <r>   15.3790    0.0000 </r>
       <r>   16.0646    0.0000 </r>
      </set>
      <set comment="kpoint 112">
       <r>   -2.0370    1.0000 </r>
       <r>    1.2613    1.0000 </r>
       <r>    2.5699    1.0000 </r>
       <r>    2.9601    1.0000 </r>
       <r>    3.1052    1.0000 </r>
       <r>    3.3775    1.0000 </r>
       <r>    3.4704    1.0000 </r>
       <r>    4.0281    1.0000 </r>
       <r>    4.2616    1.0000 </r>
       <r>    4.4220    1.0000 </r>
       <r>    4.9148    1.0000 </r>
       <r>    5.1090    1.0000 </r>
       <r>    5.1300    1.0000 </r>
       <r>    5.3965    1.0000 </r>
       <r>    5.5320    1.0005 </r>
       <r>    5.8309    1.0354 </r>
       <r>    6.0469    0.6063 </r>
       <r>    8.2709   -0.0000 </r>
       <r>    9.1025   -0.0000 </r>
       <r>   11.8537    0.0000 </r>
       <r>   12.9308    0.0000 </r>
       <r>   14.6198    0.0000 </r>
       <r>   15.5806    0.0000 </r>
       <r>   16.4304    0.0000 </r>
      </set>
      <set comment="kpoint 113">
       <r>   -1.6134    1.0000 </r>
       <r>    0.7363    1.0000 </r>
       <r>    2.6716    1.0000 </r>
       <r>    2.9686    1.0000 </r>
       <r>    3.1865    1.0000 </r>
       <r>    3.4742    1.0000 </r>
       <r>    3.5355    1.0000 </r>
       <r>    4.0627    1.0000 </r>
       <r>    4.1341    1.0000 </r>
       <r>    4.3565    1.0000 </r>
       <r>    4.8737    1.0000 </r>
       <r>    4.9970    1.0000 </r>
       <r>    5.0998    1.0000 </r>
       <r>    5.3077    1.0000 </r>
       <r>    5.5388    1.0005 </r>
       <r>    5.6330    1.0040 </r>
       <r>    6.0219    0.7057 </r>
       <r>    8.6810   -0.0000 </r>
       <r>    9.5162   -0.0000 </r>
       <r>   11.2359   -0.0000 </r>
       <r>   12.2454    0.0000 </r>
       <r>   14.7564    0.0000 </r>
       <r>   15.8032    0.0000 </r>
       <r>   16.7683    0.0000 </r>
      </set>
      <set comment="kpoint 114">
       <r>   -1.1774    1.0000 </r>
       <r>    0.2246    1.0000 </r>
       <r>    2.7532    1.0000 </r>
       <r>    2.9585    1.0000 </r>
       <r>    3.2278    1.0000 </r>
       <r>    3.4847    1.0000 </r>
       <r>    3.6958    1.0000 </r>
       <r>    4.0072    1.0000 </r>
       <r>    4.1290    1.0000 </r>
       <r>    4.3031    1.0000 </r>
       <r>    4.8457    1.0000 </r>
       <r>    4.9015    1.0000 </r>
       <r>    5.1090    1.0000 </r>
       <r>    5.2234    1.0000 </r>
       <r>    5.5083    1.0002 </r>
       <r>    5.5451    1.0006 </r>
       <r>    6.0069    0.7607 </r>
       <r>    9.0908   -0.0000 </r>
       <r>    9.8082   -0.0000 </r>
       <r>   10.8462   -0.0000 </r>
       <r>   11.6389    0.0000 </r>
       <r>   14.8764    0.0000 </r>
       <r>   16.0193    0.0000 </r>
       <r>   16.8505    0.0000 </r>
      </set>
      <set comment="kpoint 115">
       <r>   -0.9162    1.0000 </r>
       <r>   -0.0642    1.0000 </r>
       <r>    2.7889    1.0000 </r>
       <r>    2.9467    1.0000 </r>
       <r>    3.2409    1.0000 </r>
       <r>    3.4857    1.0000 </r>
       <r>    3.8269    1.0000 </r>
       <r>    3.8954    1.0000 </r>
       <r>    4.1711    1.0000 </r>
       <r>    4.2717    1.0000 </r>
       <r>    4.8397    1.0000 </r>
       <r>    4.8598    1.0000 </r>
       <r>    5.1400    1.0000 </r>
       <r>    5.1662    1.0000 </r>
       <r>    5.4658    1.0001 </r>
       <r>    5.5465    1.0006 </r>
       <r>    6.0020    0.7779 </r>
       <r>    9.3440   -0.0000 </r>
       <r>    9.7985   -0.0000 </r>
       <r>   10.8552   -0.0000 </r>
       <r>   11.2873   -0.0000 </r>
       <r>   14.9254    0.0000 </r>
       <r>   16.1345    0.0000 </r>
       <r>   16.7474    0.0000 </r>
      </set>
      <set comment="kpoint 116">
       <r>   -2.4825    1.0000 </r>
       <r>    2.1124    1.0000 </r>
       <r>    2.2816    1.0000 </r>
       <r>    2.8396    1.0000 </r>
       <r>    2.9576    1.0000 </r>
       <r>    3.2703    1.0000 </r>
       <r>    3.4340    1.0000 </r>
       <r>    4.0132    1.0000 </r>
       <r>    4.4514    1.0000 </r>
       <r>    4.5052    1.0000 </r>
       <r>    5.0333    1.0000 </r>
       <r>    5.1444    1.0000 </r>
       <r>    5.3275    1.0000 </r>
       <r>    5.4580    1.0001 </r>
       <r>    5.4772    1.0001 </r>
       <r>    6.0720    0.5012 </r>
       <r>    6.4697   -0.0083 </r>
       <r>    7.2953   -0.0000 </r>
       <r>    8.6060   -0.0000 </r>
       <r>   12.5236    0.0000 </r>
       <r>   14.2390    0.0000 </r>
       <r>   14.8694    0.0000 </r>
       <r>   15.0198    0.0000 </r>
       <r>   16.0662    0.0000 </r>
      </set>
      <set comment="kpoint 117">
       <r>   -2.1717    1.0000 </r>
       <r>    1.8582    1.0000 </r>
       <r>    2.3191    1.0000 </r>
       <r>    2.9271    1.0000 </r>
       <r>    2.9977    1.0000 </r>
       <r>    3.3100    1.0000 </r>
       <r>    3.5170    1.0000 </r>
       <r>    3.9493    1.0000 </r>
       <r>    4.2925    1.0000 </r>
       <r>    4.4550    1.0000 </r>
       <r>    5.0168    1.0000 </r>
       <r>    5.1087    1.0000 </r>
       <r>    5.2412    1.0000 </r>
       <r>    5.3725    1.0000 </r>
       <r>    5.4612    1.0001 </r>
       <r>    6.0249    0.6943 </r>
       <r>    6.2353    0.0061 </r>
       <r>    7.4102   -0.0000 </r>
       <r>    8.9411   -0.0000 </r>
       <r>   11.7606    0.0000 </r>
       <r>   13.9179    0.0000 </r>
       <r>   14.6156    0.0000 </r>
       <r>   15.2685    0.0000 </r>
       <r>   16.4458    0.0000 </r>
      </set>
      <set comment="kpoint 118">
       <r>   -1.8030    1.0000 </r>
       <r>    1.4177    1.0000 </r>
       <r>    2.4258    1.0000 </r>
       <r>    2.9841    1.0000 </r>
       <r>    3.0897    1.0000 </r>
       <r>    3.3772    1.0000 </r>
       <r>    3.5665    1.0000 </r>
       <r>    3.9415    1.0000 </r>
       <r>    4.1614    1.0000 </r>
       <r>    4.4070    1.0000 </r>
       <r>    4.9535    1.0000 </r>
       <r>    5.1100    1.0000 </r>
       <r>    5.1343    1.0000 </r>
       <r>    5.2988    1.0000 </r>
       <r>    5.4580    1.0001 </r>
       <r>    5.9273    0.9681 </r>
       <r>    6.0115    0.7442 </r>
       <r>    7.6895   -0.0000 </r>
       <r>    9.2709   -0.0000 </r>
       <r>   11.1047   -0.0000 </r>
       <r>   13.2149    0.0000 </r>
       <r>   14.7484    0.0000 </r>
       <r>   15.6206    0.0000 </r>
       <r>   16.6850    0.0000 </r>
      </set>
      <set comment="kpoint 119">
       <r>   -1.3890    1.0000 </r>
       <r>    0.9157    1.0000 </r>
       <r>    2.5166    1.0000 </r>
       <r>    3.0153    1.0000 </r>
       <r>    3.1730    1.0000 </r>
       <r>    3.4795    1.0000 </r>
       <r>    3.5825    1.0000 </r>
       <r>    3.9863    1.0000 </r>
       <r>    4.0709    1.0000 </r>
       <r>    4.3514    1.0000 </r>
       <r>    4.8945    1.0000 </r>
       <r>    5.0299    1.0000 </r>
       <r>    5.1135    1.0000 </r>
       <r>    5.2362    1.0000 </r>
       <r>    5.4581    1.0001 </r>
       <r>    5.7271    1.0174 </r>
       <r>    5.9565    0.9101 </r>
       <r>    8.0296   -0.0000 </r>
       <r>    9.4588   -0.0000 </r>
       <r>   10.7042   -0.0000 </r>
       <r>   12.5277    0.0000 </r>
       <r>   14.9270    0.0000 </r>
       <r>   16.0019    0.0000 </r>
       <r>   16.8922    0.0000 </r>
      </set>
      <set comment="kpoint 120">
       <r>   -0.9667    1.0000 </r>
       <r>    0.4263    1.0000 </r>
       <r>    2.5766    1.0000 </r>
       <r>    3.0295    1.0000 </r>
       <r>    3.2217    1.0000 </r>
       <r>    3.5286    1.0000 </r>
       <r>    3.6658    1.0000 </r>
       <r>    3.9328    1.0000 </r>
       <r>    4.1168    1.0000 </r>
       <r>    4.2861    1.0000 </r>
       <r>    4.8497    1.0000 </r>
       <r>    4.9523    1.0000 </r>
       <r>    5.1190    1.0000 </r>
       <r>    5.1935    1.0000 </r>
       <r>    5.4587    1.0001 </r>
       <r>    5.5886    1.0017 </r>
       <r>    5.9300    0.9638 </r>
       <r>    8.4027   -0.0000 </r>
       <r>    9.2818   -0.0000 </r>
       <r>   10.7776   -0.0000 </r>
       <r>   11.9179    0.0000 </r>
       <r>   15.0780    0.0000 </r>
       <r>   16.3694    0.0000 </r>
       <r>   17.0037    0.0000 </r>
      </set>
      <set comment="kpoint 121">
       <r>   -0.7191    1.0000 </r>
       <r>    0.1541    1.0000 </r>
       <r>    2.5977    1.0000 </r>
       <r>    3.0324    1.0000 </r>
       <r>    3.2383    1.0000 </r>
       <r>    3.5291    1.0000 </r>
       <r>    3.7672    1.0000 </r>
       <r>    3.8507    1.0000 </r>
       <r>    4.1853    1.0000 </r>
       <r>    4.2293    1.0000 </r>
       <r>    4.8312    1.0000 </r>
       <r>    4.9210    1.0000 </r>
       <r>    5.1294    1.0000 </r>
       <r>    5.1743    1.0000 </r>
       <r>    5.4591    1.0001 </r>
       <r>    5.5386    1.0005 </r>
       <r>    5.9211    0.9778 </r>
       <r>    8.6889   -0.0000 </r>
       <r>    9.0119   -0.0000 </r>
       <r>   11.0060   -0.0000 </r>
       <r>   11.5589    0.0000 </r>
       <r>   15.1396    0.0000 </r>
       <r>   16.5819    0.0000 </r>
       <r>   16.9455    0.0000 </r>
      </set>
      <set comment="kpoint 122">
       <r>   -1.8682    1.0000 </r>
       <r>    1.9773    1.0000 </r>
       <r>    2.0425    1.0000 </r>
       <r>    2.9899    1.0000 </r>
       <r>    3.0306    1.0000 </r>
       <r>    3.3349    1.0000 </r>
       <r>    3.6193    1.0000 </r>
       <r>    3.8691    1.0000 </r>
       <r>    4.1698    1.0000 </r>
       <r>    4.4312    1.0000 </r>
       <r>    5.0375    1.0000 </r>
       <r>    5.0772    1.0000 </r>
       <r>    5.1996    1.0000 </r>
       <r>    5.2719    1.0000 </r>
       <r>    5.4179    1.0000 </r>
       <r>    5.9692    0.8784 </r>
       <r>    6.2096    0.0448 </r>
       <r>    7.1977   -0.0000 </r>
       <r>    9.1889   -0.0000 </r>
       <r>   11.0582   -0.0000 </r>
       <r>   14.1768    0.0000 </r>
       <r>   14.3400    0.0000 </r>
       <r>   14.9713    0.0000 </r>
       <r>   17.4067    0.0000 </r>
      </set>
      <set comment="kpoint 123">
       <r>   -1.5093    1.0000 </r>
       <r>    1.5969    1.0000 </r>
       <r>    2.1509    1.0000 </r>
       <r>    3.0410    1.0000 </r>
       <r>    3.1046    1.0000 </r>
       <r>    3.3816    1.0000 </r>
       <r>    3.6750    1.0000 </r>
       <r>    3.8526    1.0000 </r>
       <r>    4.0766    1.0000 </r>
       <r>    4.4054    1.0000 </r>
       <r>    4.9725    1.0000 </r>
       <r>    5.0975    1.0000 </r>
       <r>    5.1365    1.0000 </r>
       <r>    5.1985    1.0000 </r>
       <r>    5.3957    1.0000 </r>
       <r>    5.9016    1.0025 </r>
       <r>    6.0283    0.6809 </r>
       <r>    7.2791   -0.0000 </r>
       <r>    9.2907   -0.0000 </r>
       <r>   10.6232   -0.0000 </r>
       <r>   13.5482    0.0000 </r>
       <r>   14.5913    0.0000 </r>
       <r>   15.1571    0.0000 </r>
       <r>   17.6880    0.0000 </r>
      </set>
      <set comment="kpoint 124">
       <r>   -1.1087    1.0000 </r>
       <r>    1.1280    1.0000 </r>
       <r>    2.2653    1.0000 </r>
       <r>    3.0771    1.0000 </r>
       <r>    3.1715    1.0000 </r>
       <r>    3.4622    1.0000 </r>
       <r>    3.6584    1.0000 </r>
       <r>    3.8962    1.0000 </r>
       <r>    4.0483    1.0000 </r>
       <r>    4.3606    1.0000 </r>
       <r>    4.9060    1.0000 </r>
       <r>    5.0434    1.0000 </r>
       <r>    5.1050    1.0000 </r>
       <r>    5.1816    1.0000 </r>
       <r>    5.3810    1.0000 </r>
       <r>    5.7799    1.0293 </r>
       <r>    5.8916    1.0119 </r>
       <r>    7.5105   -0.0000 </r>
       <r>    9.0489   -0.0000 </r>
       <r>   10.6588   -0.0000 </r>
       <r>   12.8621    0.0000 </r>
       <r>   14.9081    0.0000 </r>
       <r>   15.4347    0.0000 </r>
       <r>   17.4507    0.0000 </r>
      </set>
      <set comment="kpoint 125">
       <r>   -0.7049    1.0000 </r>
       <r>    0.6702    1.0000 </r>
       <r>    2.3392    1.0000 </r>
       <r>    3.0963    1.0000 </r>
       <r>    3.2134    1.0000 </r>
       <r>    3.5450    1.0000 </r>
       <r>    3.6532    1.0000 </r>
       <r>    3.8734    1.0000 </r>
       <r>    4.1232    1.0000 </r>
       <r>    4.2958    1.0000 </r>
       <r>    4.8549    1.0000 </r>
       <r>    4.9675    1.0000 </r>
       <r>    5.0963    1.0000 </r>
       <r>    5.1972    1.0000 </r>
       <r>    5.3678    1.0000 </r>
       <r>    5.6478    1.0053 </r>
       <r>    5.8446    1.0342 </r>
       <r>    7.8157   -0.0000 </r>
       <r>    8.6307   -0.0000 </r>
       <r>   10.9845   -0.0000 </r>
       <r>   12.2570    0.0000 </r>
       <r>   15.1418    0.0000 </r>
       <r>   15.7556    0.0000 </r>
       <r>   17.0517    0.0000 </r>
      </set>
      <set comment="kpoint 126">
       <r>   -0.4746    1.0000 </r>
       <r>    0.4197    1.0000 </r>
       <r>    2.3646    1.0000 </r>
       <r>    3.1008    1.0000 </r>
       <r>    3.2289    1.0000 </r>
       <r>    3.5689    1.0000 </r>
       <r>    3.6767    1.0000 </r>
       <r>    3.8441    1.0000 </r>
       <r>    4.2076    1.0000 </r>
       <r>    4.2259    1.0000 </r>
       <r>    4.8367    1.0000 </r>
       <r>    4.9298    1.0000 </r>
       <r>    5.1007    1.0000 </r>
       <r>    5.2050    1.0000 </r>
       <r>    5.3617    1.0000 </r>
       <r>    5.5975    1.0020 </r>
       <r>    5.8305    1.0354 </r>
       <r>    8.1032   -0.0000 </r>
       <r>    8.2932   -0.0000 </r>
       <r>   11.2483   -0.0000 </r>
       <r>   11.9125    0.0000 </r>
       <r>   15.2291    0.0000 </r>
       <r>   15.9490    0.0000 </r>
       <r>   16.8260    0.0000 </r>
      </set>
      <set comment="kpoint 127">
       <r>   -1.1637    1.0000 </r>
       <r>    1.7725    1.0000 </r>
       <r>    1.7876    1.0000 </r>
       <r>    3.0711    1.0000 </r>
       <r>    3.1561    1.0000 </r>
       <r>    3.4111    1.0000 </r>
       <r>    3.7763    1.0000 </r>
       <r>    3.7766    1.0000 </r>
       <r>    4.0313    1.0000 </r>
       <r>    4.3978    1.0000 </r>
       <r>    4.9728    1.0000 </r>
       <r>    5.0365    1.0000 </r>
       <r>    5.0988    1.0000 </r>
       <r>    5.1773    1.0000 </r>
       <r>    5.3525    1.0000 </r>
       <r>    5.8334    1.0353 </r>
       <r>    5.9639    0.8921 </r>
       <r>    7.1165   -0.0000 </r>
       <r>    8.9722   -0.0000 </r>
       <r>   10.6161   -0.0000 </r>
       <r>   13.8833    0.0000 </r>
       <r>   13.9566    0.0000 </r>
       <r>   15.2927    0.0000 </r>
       <r>   17.6064    0.0000 </r>
      </set>
      <set comment="kpoint 128">
       <r>   -0.7810    1.0000 </r>
       <r>    1.3554    1.0000 </r>
       <r>    1.9409    1.0000 </r>
       <r>    3.0866    1.0000 </r>
       <r>    3.1910    1.0000 </r>
       <r>    3.4790    1.0000 </r>
       <r>    3.7247    1.0000 </r>
       <r>    3.8272    1.0000 </r>
       <r>    4.0595    1.0000 </r>
       <r>    4.3687    1.0000 </r>
       <r>    4.9247    1.0000 </r>
       <r>    4.9845    1.0000 </r>
       <r>    5.0634    1.0000 </r>
       <r>    5.1940    1.0000 </r>
       <r>    5.3204    1.0000 </r>
       <r>    5.7550    1.0237 </r>
       <r>    5.8326    1.0353 </r>
       <r>    7.1785   -0.0000 </r>
       <r>    8.4966   -0.0000 </r>
       <r>   10.9078   -0.0000 </r>
       <r>   13.2363    0.0000 </r>
       <r>   14.3126    0.0000 </r>
       <r>   15.5182    0.0000 </r>
       <r>   17.0970    0.0000 </r>
      </set>
      <set comment="kpoint 129">
       <r>   -0.4013    1.0000 </r>
       <r>    0.9399    1.0000 </r>
       <r>    2.0526    1.0000 </r>
       <r>    3.0917    1.0000 </r>
       <r>    3.2085    1.0000 </r>
       <r>    3.5539    1.0000 </r>
       <r>    3.6977    1.0000 </r>
       <r>    3.8243    1.0000 </r>
       <r>    4.1501    1.0000 </r>
       <r>    4.3157    1.0000 </r>
       <r>    4.8730    1.0000 </r>
       <r>    4.9226    1.0000 </r>
       <r>    5.0726    1.0000 </r>
       <r>    5.2137    1.0000 </r>
       <r>    5.2884    1.0000 </r>
       <r>    5.6700    1.0077 </r>
       <r>    5.7484    1.0222 </r>
       <r>    7.3755   -0.0000 </r>
       <r>    8.0474   -0.0000 </r>
       <r>   11.2974   -0.0000 </r>
       <r>   12.6408    0.0000 </r>
       <r>   14.6551    0.0000 </r>
       <r>   15.7481    0.0000 </r>
       <r>   16.6005    0.0000 </r>
      </set>
      <set comment="kpoint 130">
       <r>   -0.1918    1.0000 </r>
       <r>    0.7165    1.0000 </r>
       <r>    2.0927    1.0000 </r>
       <r>    3.0914    1.0000 </r>
       <r>    3.2155    1.0000 </r>
       <r>    3.5871    1.0000 </r>
       <r>    3.6902    1.0000 </r>
       <r>    3.8164    1.0000 </r>
       <r>    4.2358    1.0000 </r>
       <r>    4.2498    1.0000 </r>
       <r>    4.8645    1.0000 </r>
       <r>    4.8798    1.0000 </r>
       <r>    5.0826    1.0000 </r>
       <r>    5.2283    1.0000 </r>
       <r>    5.2684    1.0000 </r>
       <r>    5.6311    1.0039 </r>
       <r>    5.7248    1.0170 </r>
       <r>    7.6279   -0.0000 </r>
       <r>    7.7108   -0.0000 </r>
       <r>   11.5594    0.0000 </r>
       <r>   12.3127    0.0000 </r>
       <r>   14.8092    0.0000 </r>
       <r>   15.8972    0.0000 </r>
       <r>   16.3327    0.0000 </r>
      </set>
      <set comment="kpoint 131">
       <r>   -0.4217    1.0000 </r>
       <r>    1.5651    1.0000 </r>
       <r>    1.5756    1.0000 </r>
       <r>    3.0513    1.0000 </r>
       <r>    3.1995    1.0000 </r>
       <r>    3.5467    1.0000 </r>
       <r>    3.7548    1.0000 </r>
       <r>    3.7912    1.0000 </r>
       <r>    4.1125    1.0000 </r>
       <r>    4.3611    1.0000 </r>
       <r>    4.8888    1.0000 </r>
       <r>    4.9620    1.0000 </r>
       <r>    5.0184    1.0000 </r>
       <r>    5.2183    1.0000 </r>
       <r>    5.2699    1.0000 </r>
       <r>    5.6819    1.0093 </r>
       <r>    5.7552    1.0238 </r>
       <r>    7.0585   -0.0000 </r>
       <r>    7.9919   -0.0000 </r>
       <r>   11.2700   -0.0000 </r>
       <r>   13.5449    0.0000 </r>
       <r>   13.7365    0.0000 </r>
       <r>   15.7283    0.0000 </r>
       <r>   16.5554    0.0000 </r>
      </set>
      <set comment="kpoint 132">
       <r>   -0.0726    1.0000 </r>
       <r>    1.2071    1.0000 </r>
       <r>    1.7327    1.0000 </r>
       <r>    3.0048    1.0000 </r>
       <r>    3.2012    1.0000 </r>
       <r>    3.6186    1.0000 </r>
       <r>    3.7490    1.0000 </r>
       <r>    3.7873    1.0000 </r>
       <r>    4.1940    1.0000 </r>
       <r>    4.3297    1.0000 </r>
       <r>    4.8291    1.0000 </r>
       <r>    4.9348    1.0000 </r>
       <r>    5.0309    1.0000 </r>
       <r>    5.2130    1.0000 </r>
       <r>    5.2396    1.0000 </r>
       <r>    5.6238    1.0034 </r>
       <r>    5.6742    1.0083 </r>
       <r>    7.1129   -0.0000 </r>
       <r>    7.5880   -0.0000 </r>
       <r>   11.6733    0.0000 </r>
       <r>   13.0420    0.0000 </r>
       <r>   14.0146    0.0000 </r>
       <r>   15.8400    0.0000 </r>
       <r>   16.1592    0.0000 </r>
      </set>
      <set comment="kpoint 133">
       <r>    0.1132    1.0000 </r>
       <r>    1.0153    1.0000 </r>
       <r>    1.7949    1.0000 </r>
       <r>    2.9829    1.0000 </r>
       <r>    3.2019    1.0000 </r>
       <r>    3.6476    1.0000 </r>
       <r>    3.7470    1.0000 </r>
       <r>    3.7860    1.0000 </r>
       <r>    4.2670    1.0000 </r>
       <r>    4.2788    1.0000 </r>
       <r>    4.8071    1.0000 </r>
       <r>    4.9131    1.0000 </r>
       <r>    5.0478    1.0000 </r>
       <r>    5.1893    1.0000 </r>
       <r>    5.2433    1.0000 </r>
       <r>    5.6112    1.0026 </r>
       <r>    5.6331    1.0040 </r>
       <r>    7.2838   -0.0000 </r>
       <r>    7.3059   -0.0000 </r>
       <r>   11.9291    0.0000 </r>
       <r>   12.7284    0.0000 </r>
       <r>   14.1813    0.0000 </r>
       <r>   15.7509    0.0000 </r>
       <r>   16.1180    0.0000 </r>
      </set>
      <set comment="kpoint 134">
       <r>    0.2405    1.0000 </r>
       <r>    1.4156    1.0000 </r>
       <r>    1.4287    1.0000 </r>
       <r>    2.8975    1.0000 </r>
       <r>    3.1944    1.0000 </r>
       <r>    3.6933    1.0000 </r>
       <r>    3.7652    1.0000 </r>
       <r>    3.7851    1.0000 </r>
       <r>    4.2480    1.0000 </r>
       <r>    4.3257    1.0000 </r>
       <r>    4.7691    1.0000 </r>
       <r>    4.9779    1.0000 </r>
       <r>    4.9902    1.0000 </r>
       <r>    5.1528    1.0000 </r>
       <r>    5.2464    1.0000 </r>
       <r>    5.5510    1.0007 </r>
       <r>    5.6330    1.0040 </r>
       <r>    7.0244   -0.0000 </r>
       <r>    7.2675   -0.0000 </r>
       <r>   12.0781    0.0000 </r>
       <r>   13.3371    0.0000 </r>
       <r>   13.5071    0.0000 </r>
       <r>   15.4686    0.0000 </r>
       <r>   16.2498    0.0000 </r>
      </set>
      <set comment="kpoint 135">
       <r>    0.4018    1.0000 </r>
       <r>    1.2611    1.0000 </r>
       <r>    1.5095    1.0000 </r>
       <r>    2.8470    1.0000 </r>
       <r>    3.1918    1.0000 </r>
       <r>    3.7226    1.0000 </r>
       <r>    3.7644    1.0000 </r>
       <r>    3.7943    1.0000 </r>
       <r>    4.2948    1.0000 </r>
       <r>    4.2995    1.0000 </r>
       <r>    4.7455    1.0000 </r>
       <r>    4.9659    1.0000 </r>
       <r>    5.0068    1.0000 </r>
       <r>    5.1190    1.0000 </r>
       <r>    5.2501    1.0000 </r>
       <r>    5.5259    1.0004 </r>
       <r>    5.6126    1.0027 </r>
       <r>    7.0798   -0.0000 </r>
       <r>    7.0823   -0.0000 </r>
       <r>   12.3353    0.0000 </r>
       <r>   13.0976    0.0000 </r>
       <r>   13.6013    0.0000 </r>
       <r>   15.2644    0.0000 </r>
       <r>   16.3270    0.0000 </r>
      </set>
      <set comment="kpoint 136">
       <r>    0.5489    1.0000 </r>
       <r>    1.3632    1.0000 </r>
       <r>    1.3632    1.0000 </r>
       <r>    2.7820    1.0000 </r>
       <r>    3.1881    1.0000 </r>
       <r>    3.7567    1.0000 </r>
       <r>    3.7567    1.0000 </r>
       <r>    3.8113    1.0000 </r>
       <r>    4.3067    1.0000 </r>
       <r>    4.3067    1.0000 </r>
       <r>    4.7208    1.0000 </r>
       <r>    4.9906    1.0000 </r>
       <r>    4.9906    1.0000 </r>
       <r>    5.0834    1.0000 </r>
       <r>    5.2515    1.0000 </r>
       <r>    5.4970    1.0002 </r>
       <r>    5.5989    1.0021 </r>
       <r>    7.0132   -0.0000 </r>
       <r>    7.0132   -0.0000 </r>
       <r>   12.6102    0.0000 </r>
       <r>   13.2670    0.0000 </r>
       <r>   13.2670    0.0000 </r>
       <r>   15.0542    0.0000 </r>
       <r>   16.4143    0.0000 </r>
      </set>
      <set comment="kpoint 137">
       <r>   -2.8004    1.0000 </r>
       <r>    2.1589    1.0000 </r>
       <r>    2.5847    1.0000 </r>
       <r>    2.5847    1.0000 </r>
       <r>    2.9216    1.0000 </r>
       <r>    3.2880    1.0000 </r>
       <r>    3.2880    1.0000 </r>
       <r>    4.0994    1.0000 </r>
       <r>    4.6295    1.0000 </r>
       <r>    4.6295    1.0000 </r>
       <r>    5.1166    1.0000 </r>
       <r>    5.1166    1.0000 </r>
       <r>    5.4636    1.0001 </r>
       <r>    5.4636    1.0001 </r>
       <r>    5.5356    1.0005 </r>
       <r>    6.1391    0.2339 </r>
       <r>    6.8601   -0.0000 </r>
       <r>    7.5896   -0.0000 </r>
       <r>    7.5896   -0.0000 </r>
       <r>   14.3013    0.0000 </r>
       <r>   14.3013    0.0000 </r>
       <r>   14.4787    0.0000 </r>
       <r>   15.2147    0.0000 </r>
       <r>   15.2147    0.0000 </r>
      </set>
      <set comment="kpoint 138">
       <r>   -2.5529    1.0000 </r>
       <r>    2.1086    1.0000 </r>
       <r>    2.4611    1.0000 </r>
       <r>    2.7339    1.0000 </r>
       <r>    2.9227    1.0000 </r>
       <r>    3.3148    1.0000 </r>
       <r>    3.3718    1.0000 </r>
       <r>    4.0228    1.0000 </r>
       <r>    4.5031    1.0000 </r>
       <r>    4.5280    1.0000 </r>
       <r>    5.0314    1.0000 </r>
       <r>    5.1249    1.0000 </r>
       <r>    5.3729    1.0000 </r>
       <r>    5.4451    1.0000 </r>
       <r>    5.4685    1.0001 </r>
       <r>    6.1200    0.3041 </r>
       <r>    6.6246   -0.0003 </r>
       <r>    7.6566   -0.0000 </r>
       <r>    7.8330   -0.0000 </r>
       <r>   13.5711    0.0000 </r>
       <r>   13.6618    0.0000 </r>
       <r>   14.7495    0.0000 </r>
       <r>   15.1868    0.0000 </r>
       <r>   15.4737    0.0000 </r>
      </set>
      <set comment="kpoint 139">
       <r>   -2.2407    1.0000 </r>
       <r>    1.8163    1.0000 </r>
       <r>    2.4714    1.0000 </r>
       <r>    2.9036    1.0000 </r>
       <r>    2.9444    1.0000 </r>
       <r>    3.3534    1.0000 </r>
       <r>    3.4435    1.0000 </r>
       <r>    3.9818    1.0000 </r>
       <r>    4.3746    1.0000 </r>
       <r>    4.4012    1.0000 </r>
       <r>    4.9929    1.0000 </r>
       <r>    5.1112    1.0000 </r>
       <r>    5.2644    1.0000 </r>
       <r>    5.3747    1.0000 </r>
       <r>    5.4716    1.0001 </r>
       <r>    6.0865    0.4400 </r>
       <r>    6.2553   -0.0139 </r>
       <r>    7.9863   -0.0000 </r>
       <r>    8.1078   -0.0000 </r>
       <r>   12.7963    0.0000 </r>
       <r>   12.8595    0.0000 </r>
       <r>   15.1206    0.0000 </r>
       <r>   15.3107    0.0000 </r>
       <r>   15.6805    0.0000 </r>
      </set>
      <set comment="kpoint 140">
       <r>   -1.8701    1.0000 </r>
       <r>    1.3717    1.0000 </r>
       <r>    2.5356    1.0000 </r>
       <r>    2.9770    1.0000 </r>
       <r>    3.0687    1.0000 </r>
       <r>    3.4141    1.0000 </r>
       <r>    3.4880    1.0000 </r>
       <r>    3.9886    1.0000 </r>
       <r>    4.2460    1.0000 </r>
       <r>    4.3040    1.0000 </r>
       <r>    4.9646    1.0000 </r>
       <r>    5.0885    1.0000 </r>
       <r>    5.1510    1.0000 </r>
       <r>    5.3166    1.0000 </r>
       <r>    5.4732    1.0001 </r>
       <r>    5.9394    0.9468 </r>
       <r>    6.0475    0.6040 </r>
       <r>    8.3935   -0.0000 </r>
       <r>    8.4001   -0.0000 </r>
       <r>   12.0900    0.0000 </r>
       <r>   12.1008    0.0000 </r>
       <r>   15.4788    0.0000 </r>
       <r>   15.5073    0.0000 </r>
       <r>   15.9107    0.0000 </r>
      </set>
      <set comment="kpoint 141">
       <r>   -1.4538    1.0000 </r>
       <r>    0.8642    1.0000 </r>
       <r>    2.5972    1.0000 </r>
       <r>    3.0057    1.0000 </r>
       <r>    3.1903    1.0000 </r>
       <r>    3.5085    1.0000 </r>
       <r>    3.5174    1.0000 </r>
       <r>    4.0398    1.0000 </r>
       <r>    4.1165    1.0000 </r>
       <r>    4.2447    1.0000 </r>
       <r>    4.9303    1.0000 </r>
       <r>    5.0534    1.0000 </r>
       <r>    5.0757    1.0000 </r>
       <r>    5.2582    1.0000 </r>
       <r>    5.4739    1.0001 </r>
       <r>    5.7038    1.0129 </r>
       <r>    6.0124    0.7409 </r>
       <r>    8.6904   -0.0000 </r>
       <r>    8.8394   -0.0000 </r>
       <r>   11.4063   -0.0000 </r>
       <r>   11.4939   -0.0000 </r>
       <r>   15.6509    0.0000 </r>
       <r>   15.8939    0.0000 </r>
       <r>   16.1772    0.0000 </r>
      </set>
      <set comment="kpoint 142">
       <r>   -1.0281    1.0000 </r>
       <r>    0.3692    1.0000 </r>
       <r>    2.6401    1.0000 </r>
       <r>    3.0195    1.0000 </r>
       <r>    3.2509    1.0000 </r>
       <r>    3.5218    1.0000 </r>
       <r>    3.6601    1.0000 </r>
       <r>    3.9841    1.0000 </r>
       <r>    4.1070    1.0000 </r>
       <r>    4.2063    1.0000 </r>
       <r>    4.8921    1.0000 </r>
       <r>    4.9924    1.0000 </r>
       <r>    5.0850    1.0000 </r>
       <r>    5.1977    1.0000 </r>
       <r>    5.4744    1.0001 </r>
       <r>    5.5562    1.0008 </r>
       <r>    5.9888    0.8211 </r>
       <r>    8.9348   -0.0000 </r>
       <r>    9.2865   -0.0000 </r>
       <r>   10.8103   -0.0000 </r>
       <r>   11.0622   -0.0000 </r>
       <r>   15.7853    0.0000 </r>
       <r>   16.2033    0.0000 </r>
       <r>   16.4910    0.0000 </r>
      </set>
      <set comment="kpoint 143">
       <r>   -0.7775    1.0000 </r>
       <r>    0.0932    1.0000 </r>
       <r>    2.6558    1.0000 </r>
       <r>    3.0222    1.0000 </r>
       <r>    3.2680    1.0000 </r>
       <r>    3.5282    1.0000 </r>
       <r>    3.7720    1.0000 </r>
       <r>    3.8815    1.0000 </r>
       <r>    4.1546    1.0000 </r>
       <r>    4.1752    1.0000 </r>
       <r>    4.8744    1.0000 </r>
       <r>    4.9722    1.0000 </r>
       <r>    5.1039    1.0000 </r>
       <r>    5.1600    1.0000 </r>
       <r>    5.4745    1.0001 </r>
       <r>    5.5055    1.0002 </r>
       <r>    5.9806    0.8461 </r>
       <r>    9.0400   -0.0000 </r>
       <r>    9.5477   -0.0000 </r>
       <r>   10.4995   -0.0000 </r>
       <r>   10.8940   -0.0000 </r>
       <r>   15.8372    0.0000 </r>
       <r>   16.3218    0.0000 </r>
       <r>   16.7292    0.0000 </r>
      </set>
      <set comment="kpoint 144">
       <r>   -2.3096    1.0000 </r>
       <r>    2.1312    1.0000 </r>
       <r>    2.4021    1.0000 </r>
       <r>    2.7422    1.0000 </r>
       <r>    2.9380    1.0000 </r>
       <r>    3.3556    1.0000 </r>
       <r>    3.4391    1.0000 </r>
       <r>    3.9559    1.0000 </r>
       <r>    4.3959    1.0000 </r>
       <r>    4.4311    1.0000 </r>
       <r>    5.0453    1.0000 </r>
       <r>    5.0866    1.0000 </r>
       <r>    5.3330    1.0000 </r>
       <r>    5.3473    1.0000 </r>
       <r>    5.4283    1.0000 </r>
       <r>    6.1072    0.3546 </r>
       <r>    6.6565   -0.0001 </r>
       <r>    7.4047   -0.0000 </r>
       <r>    7.9877   -0.0000 </r>
       <r>   12.7872    0.0000 </r>
       <r>   13.9069    0.0000 </r>
       <r>   13.9497    0.0000 </r>
       <r>   15.4256    0.0000 </r>
       <r>   16.1866    0.0000 </r>
      </set>
      <set comment="kpoint 145">
       <r>   -2.0033    1.0000 </r>
       <r>    1.9210    1.0000 </r>
       <r>    2.3690    1.0000 </r>
       <r>    2.8727    1.0000 </r>
       <r>    2.9804    1.0000 </r>
       <r>    3.3834    1.0000 </r>
       <r>    3.5139    1.0000 </r>
       <r>    3.9206    1.0000 </r>
       <r>    4.2688    1.0000 </r>
       <r>    4.3478    1.0000 </r>
       <r>    5.0291    1.0000 </r>
       <r>    5.0842    1.0000 </r>
       <r>    5.2464    1.0000 </r>
       <r>    5.2695    1.0000 </r>
       <r>    5.4211    1.0000 </r>
       <r>    6.0739    0.4931 </r>
       <r>    6.3844   -0.0249 </r>
       <r>    7.5014   -0.0000 </r>
       <r>    8.2496   -0.0000 </r>
       <r>   12.0083    0.0000 </r>
       <r>   13.1217    0.0000 </r>
       <r>   14.2743    0.0000 </r>
       <r>   15.6108    0.0000 </r>
       <r>   16.5996    0.0000 </r>
      </set>
      <set comment="kpoint 146">
       <r>   -1.6406    1.0000 </r>
       <r>    1.5118    1.0000 </r>
       <r>    2.4128    1.0000 </r>
       <r>    3.0256    1.0000 </r>
       <r>    3.0416    1.0000 </r>
       <r>    3.4196    1.0000 </r>
       <r>    3.5587    1.0000 </r>
       <r>    3.9356    1.0000 </r>
       <r>    4.1629    1.0000 </r>
       <r>    4.2726    1.0000 </r>
       <r>    4.9940    1.0000 </r>
       <r>    5.0783    1.0000 </r>
       <r>    5.1726    1.0000 </r>
       <r>    5.2070    1.0000 </r>
       <r>    5.4180    1.0000 </r>
       <r>    6.0160    0.7277 </r>
       <r>    6.0699    0.5097 </r>
       <r>    7.7678   -0.0000 </r>
       <r>    8.5329   -0.0000 </r>
       <r>   11.3266   -0.0000 </r>
       <r>   12.3803    0.0000 </r>
       <r>   14.6571    0.0000 </r>
       <r>   15.8198    0.0000 </r>
       <r>   16.8570    0.0000 </r>
      </set>
      <set comment="kpoint 147">
       <r>   -1.2350    1.0000 </r>
       <r>    1.0325    1.0000 </r>
       <r>    2.4547    1.0000 </r>
       <r>    3.0798    1.0000 </r>
       <r>    3.1751    1.0000 </r>
       <r>    3.4779    1.0000 </r>
       <r>    3.5787    1.0000 </r>
       <r>    3.9846    1.0000 </r>
       <r>    4.0808    1.0000 </r>
       <r>    4.2154    1.0000 </r>
       <r>    4.9479    1.0000 </r>
       <r>    5.0535    1.0000 </r>
       <r>    5.1122    1.0000 </r>
       <r>    5.1899    1.0000 </r>
       <r>    5.4094    1.0000 </r>
       <r>    5.7851    1.0304 </r>
       <r>    5.9923    0.8100 </r>
       <r>    8.0757   -0.0000 </r>
       <r>    8.7954   -0.0000 </r>
       <r>   10.7929   -0.0000 </r>
       <r>   11.7250    0.0000 </r>
       <r>   15.0604    0.0000 </r>
       <r>   16.0349    0.0000 </r>
       <r>   17.0677    0.0000 </r>
      </set>
      <set comment="kpoint 148">
       <r>   -0.8246    1.0000 </r>
       <r>    0.5635    1.0000 </r>
       <r>    2.4817    1.0000 </r>
       <r>    3.1038    1.0000 </r>
       <r>    3.2614    1.0000 </r>
       <r>    3.5536    1.0000 </r>
       <r>    3.6039    1.0000 </r>
       <r>    3.9563    1.0000 </r>
       <r>    4.0873    1.0000 </r>
       <r>    4.1781    1.0000 </r>
       <r>    4.9066    1.0000 </r>
       <r>    5.0212    1.0000 </r>
       <r>    5.0887    1.0000 </r>
       <r>    5.1889    1.0000 </r>
       <r>    5.3979    1.0000 </r>
       <r>    5.6116    1.0027 </r>
       <r>    5.9598    0.9022 </r>
       <r>    8.3736   -0.0000 </r>
       <r>    8.9446   -0.0000 </r>
       <r>   10.5026   -0.0000 </r>
       <r>   11.1950   -0.0000 </r>
       <r>   15.4313    0.0000 </r>
       <r>   16.2236    0.0000 </r>
       <r>   17.0459    0.0000 </r>
      </set>
      <set comment="kpoint 149">
       <r>   -0.5889    1.0000 </r>
       <r>    0.3059    1.0000 </r>
       <r>    2.4909    1.0000 </r>
       <r>    3.1097    1.0000 </r>
       <r>    3.2878    1.0000 </r>
       <r>    3.5807    1.0000 </r>
       <r>    3.6374    1.0000 </r>
       <r>    3.9138    1.0000 </r>
       <r>    4.1140    1.0000 </r>
       <r>    4.1616    1.0000 </r>
       <r>    4.8916    1.0000 </r>
       <r>    5.0040    1.0000 </r>
       <r>    5.0869    1.0000 </r>
       <r>    5.1895    1.0000 </r>
       <r>    5.3924    1.0000 </r>
       <r>    5.5494    1.0007 </r>
       <r>    5.9483    0.9287 </r>
       <r>    8.5342   -0.0000 </r>
       <r>    8.9461   -0.0000 </r>
       <r>   10.4705   -0.0000 </r>
       <r>   10.9399   -0.0000 </r>
       <r>   15.6095    0.0000 </r>
       <r>   16.3225    0.0000 </r>
       <r>   16.8637    0.0000 </r>
      </set>
      <set comment="kpoint 150">
       <r>   -1.7051    1.0000 </r>
       <r>    1.9643    1.0000 </r>
       <r>    2.1683    1.0000 </r>
       <r>    2.9225    1.0000 </r>
       <r>    3.0480    1.0000 </r>
       <r>    3.3957    1.0000 </r>
       <r>    3.6000    1.0000 </r>
       <r>    3.8739    1.0000 </r>
       <r>    4.1649    1.0000 </r>
       <r>    4.3079    1.0000 </r>
       <r>    5.0547    1.0000 </r>
       <r>    5.0668    1.0000 </r>
       <r>    5.1366    1.0000 </r>
       <r>    5.2397    1.0000 </r>
       <r>    5.3884    1.0000 </r>
       <r>    6.0389    0.6388 </r>
       <r>    6.3625   -0.0298 </r>
       <r>    7.2321   -0.0000 </r>
       <r>    8.4539   -0.0000 </r>
       <r>   11.2839   -0.0000 </r>
       <r>   13.4520    0.0000 </r>
       <r>   13.4708    0.0000 </r>
       <r>   15.8201    0.0000 </r>
       <r>   17.5510    0.0000 </r>
      </set>
      <set comment="kpoint 151">
       <r>   -1.3534    1.0000 </r>
       <r>    1.6636    1.0000 </r>
       <r>    2.1821    1.0000 </r>
       <r>    3.0135    1.0000 </r>
       <r>    3.1302    1.0000 </r>
       <r>    3.4126    1.0000 </r>
       <r>    3.6514    1.0000 </r>
       <r>    3.8733    1.0000 </r>
       <r>    4.0952    1.0000 </r>
       <r>    4.2681    1.0000 </r>
       <r>    5.0060    1.0000 </r>
       <r>    5.0564    1.0000 </r>
       <r>    5.0971    1.0000 </r>
       <r>    5.1984    1.0000 </r>
       <r>    5.3748    1.0000 </r>
       <r>    5.9841    0.8359 </r>
       <r>    6.1328    0.2564 </r>
       <r>    7.2989   -0.0000 </r>
       <r>    8.6180   -0.0000 </r>
       <r>   10.7259   -0.0000 </r>
       <r>   12.7144    0.0000 </r>
       <r>   13.8439    0.0000 </r>
       <r>   16.0432    0.0000 </r>
       <r>   17.5515    0.0000 </r>
      </set>
      <set comment="kpoint 152">
       <r>   -0.9627    1.0000 </r>
       <r>    1.2287    1.0000 </r>
       <r>    2.2438    1.0000 </r>
       <r>    3.1052    1.0000 </r>
       <r>    3.2045    1.0000 </r>
       <r>    3.4469    1.0000 </r>
       <r>    3.6621    1.0000 </r>
       <r>    3.9006    1.0000 </r>
       <r>    4.0766    1.0000 </r>
       <r>    4.2285    1.0000 </r>
       <r>    4.9397    1.0000 </r>
       <r>    5.0014    1.0000 </r>
       <r>    5.1229    1.0000 </r>
       <r>    5.1834    1.0000 </r>
       <r>    5.3589    1.0000 </r>
       <r>    5.8395    1.0348 </r>
       <r>    5.9621    0.8965 </r>
       <r>    7.5186   -0.0000 </r>
       <r>    8.6397   -0.0000 </r>
       <r>   10.4432   -0.0000 </r>
       <r>   12.0493    0.0000 </r>
       <r>   14.2513    0.0000 </r>
       <r>   16.2543    0.0000 </r>
       <r>   16.9962    0.0000 </r>
      </set>
      <set comment="kpoint 153">
       <r>   -0.5734    1.0000 </r>
       <r>    0.7972    1.0000 </r>
       <r>    2.2825    1.0000 </r>
       <r>    3.1532    1.0000 </r>
       <r>    3.2689    1.0000 </r>
       <r>    3.4906    1.0000 </r>
       <r>    3.6704    1.0000 </r>
       <r>    3.8930    1.0000 </r>
       <r>    4.1101    1.0000 </r>
       <r>    4.1954    1.0000 </r>
       <r>    4.9006    1.0000 </r>
       <r>    4.9474    1.0000 </r>
       <r>    5.1439    1.0000 </r>
       <r>    5.2001    1.0000 </r>
       <r>    5.3326    1.0000 </r>
       <r>    5.6576    1.0063 </r>
       <r>    5.9150    0.9864 </r>
       <r>    7.7909   -0.0000 </r>
       <r>    8.4628   -0.0000 </r>
       <r>   10.4860   -0.0000 </r>
       <r>   11.4945   -0.0000 </r>
       <r>   14.6338    0.0000 </r>
       <r>   16.3084    0.0000 </r>
       <r>   16.6198    0.0000 </r>
      </set>
      <set comment="kpoint 154">
       <r>   -0.3570    1.0000 </r>
       <r>    0.5644    1.0000 </r>
       <r>    2.2952    1.0000 </r>
       <r>    3.1633    1.0000 </r>
       <r>    3.2979    1.0000 </r>
       <r>    3.5112    1.0000 </r>
       <r>    3.6772    1.0000 </r>
       <r>    3.8813    1.0000 </r>
       <r>    4.1317    1.0000 </r>
       <r>    4.1817    1.0000 </r>
       <r>    4.9058    1.0000 </r>
       <r>    4.9072    1.0000 </r>
       <r>    5.1537    1.0000 </r>
       <r>    5.2168    1.0000 </r>
       <r>    5.3144    1.0000 </r>
       <r>    5.5876    1.0016 </r>
       <r>    5.8996    1.0045 </r>
       <r>    7.9996   -0.0000 </r>
       <r>    8.2667   -0.0000 </r>
       <r>   10.6256   -0.0000 </r>
       <r>   11.2035   -0.0000 </r>
       <r>   14.8245    0.0000 </r>
       <r>   16.1575    0.0000 </r>
       <r>   16.6111    0.0000 </r>
      </set>
      <set comment="kpoint 155">
       <r>   -1.0166    1.0000 </r>
       <r>    1.7502    1.0000 </r>
       <r>    1.9159    1.0000 </r>
       <r>    3.0270    1.0000 </r>
       <r>    3.2155    1.0000 </r>
       <r>    3.4241    1.0000 </r>
       <r>    3.7183    1.0000 </r>
       <r>    3.8374    1.0000 </r>
       <r>    4.0702    1.0000 </r>
       <r>    4.2626    1.0000 </r>
       <r>    4.9478    1.0000 </r>
       <r>    5.0349    1.0000 </r>
       <r>    5.0624    1.0000 </r>
       <r>    5.2030    1.0000 </r>
       <r>    5.3531    1.0000 </r>
       <r>    5.9296    0.9644 </r>
       <r>    6.0652    0.5297 </r>
       <r>    7.0913   -0.0000 </r>
       <r>    8.5467   -0.0000 </r>
       <r>   10.4170   -0.0000 </r>
       <r>   13.0446    0.0000 </r>
       <r>   13.1443    0.0000 </r>
       <r>   16.2452    0.0000 </r>
       <r>   16.9724    0.0000 </r>
      </set>
      <set comment="kpoint 156">
       <r>   -0.6464    1.0000 </r>
       <r>    1.4323    1.0000 </r>
       <r>    1.9688    1.0000 </r>
       <r>    3.0563    1.0000 </r>
       <r>    3.2623    1.0000 </r>
       <r>    3.4711    1.0000 </r>
       <r>    3.7299    1.0000 </r>
       <r>    3.8455    1.0000 </r>
       <r>    4.0950    1.0000 </r>
       <r>    4.2499    1.0000 </r>
       <r>    4.8670    1.0000 </r>
       <r>    4.9957    1.0000 </r>
       <r>    5.0840    1.0000 </r>
       <r>    5.2103    1.0000 </r>
       <r>    5.3367    1.0000 </r>
       <r>    5.8361    1.0351 </r>
       <r>    5.9083    0.9950 </r>
       <r>    7.1412   -0.0000 </r>
       <r>    8.2820   -0.0000 </r>
       <r>   10.4460   -0.0000 </r>
       <r>   12.4199    0.0000 </r>
       <r>   13.5059    0.0000 </r>
       <r>   16.1279    0.0000 </r>
       <r>   16.6989    0.0000 </r>
      </set>
      <set comment="kpoint 157">
       <r>   -0.2852    1.0000 </r>
       <r>    1.0541    1.0000 </r>
       <r>    2.0438    1.0000 </r>
       <r>    3.0810    1.0000 </r>
       <r>    3.2871    1.0000 </r>
       <r>    3.5127    1.0000 </r>
       <r>    3.7489    1.0000 </r>
       <r>    3.8383    1.0000 </r>
       <r>    4.1513    1.0000 </r>
       <r>    4.2297    1.0000 </r>
       <r>    4.8163    1.0000 </r>
       <r>    4.9517    1.0000 </r>
       <r>    5.1272    1.0000 </r>
       <r>    5.2226    1.0000 </r>
       <r>    5.3066    1.0000 </r>
       <r>    5.6767    1.0086 </r>
       <r>    5.8449    1.0341 </r>
       <r>    7.3282   -0.0000 </r>
       <r>    7.9398   -0.0000 </r>
       <r>   10.6852   -0.0000 </r>
       <r>   11.8563    0.0000 </r>
       <r>   13.8908    0.0000 </r>
       <r>   15.6670    0.0000 </r>
       <r>   16.8315    0.0000 </r>
      </set>
      <set comment="kpoint 158">
       <r>   -0.0927    1.0000 </r>
       <r>    0.8532    1.0000 </r>
       <r>    2.0702    1.0000 </r>
       <r>    3.0893    1.0000 </r>
       <r>    3.2986    1.0000 </r>
       <r>    3.5236    1.0000 </r>
       <r>    3.7734    1.0000 </r>
       <r>    3.8222    1.0000 </r>
       <r>    4.1882    1.0000 </r>
       <r>    4.2106    1.0000 </r>
       <r>    4.8004    1.0000 </r>
       <r>    4.9345    1.0000 </r>
       <r>    5.1504    1.0000 </r>
       <r>    5.2350    1.0000 </r>
       <r>    5.2806    1.0000 </r>
       <r>    5.6087    1.0025 </r>
       <r>    5.8260    1.0355 </r>
       <r>    7.5382   -0.0000 </r>
       <r>    7.6727   -0.0000 </r>
       <r>   10.8839   -0.0000 </r>
       <r>   11.5580    0.0000 </r>
       <r>   14.0852    0.0000 </r>
       <r>   15.4333    0.0000 </r>
       <r>   16.9038    0.0000 </r>
      </set>
      <set comment="kpoint 159">
       <r>   -0.3038    1.0000 </r>
       <r>    1.5717    1.0000 </r>
       <r>    1.6939    1.0000 </r>
       <r>    2.9954    1.0000 </r>
       <r>    3.2820    1.0000 </r>
       <r>    3.5481    1.0000 </r>
       <r>    3.7409    1.0000 </r>
       <r>    3.8548    1.0000 </r>
       <r>    4.1384    1.0000 </r>
       <r>    4.2650    1.0000 </r>
       <r>    4.7827    1.0000 </r>
       <r>    5.0275    1.0000 </r>
       <r>    5.0303    1.0000 </r>
       <r>    5.2274    1.0000 </r>
       <r>    5.3260    1.0000 </r>
       <r>    5.7912    1.0316 </r>
       <r>    5.7927    1.0319 </r>
       <r>    6.9932   -0.0000 </r>
       <r>    7.8641   -0.0000 </r>
       <r>   10.6710   -0.0000 </r>
       <r>   12.7491    0.0000 </r>
       <r>   12.9076    0.0000 </r>
       <r>   15.5400    0.0000 </r>
       <r>   16.9000    0.0000 </r>
      </set>
      <set comment="kpoint 160">
       <r>    0.0207    1.0000 </r>
       <r>    1.3069    1.0000 </r>
       <r>    1.7768    1.0000 </r>
       <r>    2.9451    1.0000 </r>
       <r>    3.2899    1.0000 </r>
       <r>    3.6024    1.0000 </r>
       <r>    3.7531    1.0000 </r>
       <r>    3.8732    1.0000 </r>
       <r>    4.1975    1.0000 </r>
       <r>    4.2648    1.0000 </r>
       <r>    4.7251    1.0000 </r>
       <r>    4.9889    1.0000 </r>
       <r>    5.0705    1.0000 </r>
       <r>    5.2373    1.0000 </r>
       <r>    5.2978    1.0000 </r>
       <r>    5.6591    1.0064 </r>
       <r>    5.7470    1.0219 </r>
       <r>    7.0396   -0.0000 </r>
       <r>    7.4968   -0.0000 </r>
       <r>   10.9943   -0.0000 </r>
       <r>   12.2512    0.0000 </r>
       <r>   13.2206    0.0000 </r>
       <r>   15.0147    0.0000 </r>
       <r>   17.1041    0.0000 </r>
      </set>
      <set comment="kpoint 161">
       <r>    0.1850    1.0000 </r>
       <r>    1.1450    1.0000 </r>
       <r>    1.8262    1.0000 </r>
       <r>    2.9252    1.0000 </r>
       <r>    3.2930    1.0000 </r>
       <r>    3.6130    1.0000 </r>
       <r>    3.7726    1.0000 </r>
       <r>    3.8756    1.0000 </r>
       <r>    4.2426    1.0000 </r>
       <r>    4.2449    1.0000 </r>
       <r>    4.7053    1.0000 </r>
       <r>    4.9775    1.0000 </r>
       <r>    5.0910    1.0000 </r>
       <r>    5.2427    1.0000 </r>
       <r>    5.2723    1.0000 </r>
       <r>    5.6048    1.0023 </r>
       <r>    5.7282    1.0177 </r>
       <r>    7.1945   -0.0000 </r>
       <r>    7.2399   -0.0000 </r>
       <r>   11.2153   -0.0000 </r>
       <r>   11.9530    0.0000 </r>
       <r>   13.4130    0.0000 </r>
       <r>   14.7716    0.0000 </r>
       <r>   17.1892    0.0000 </r>
      </set>
      <set comment="kpoint 162">
       <r>    0.3000    1.0000 </r>
       <r>    1.4870    1.0000 </r>
       <r>    1.5441    1.0000 </r>
       <r>    2.8174    1.0000 </r>
       <r>    3.2876    1.0000 </r>
       <r>    3.6801    1.0000 </r>
       <r>    3.7337    1.0000 </r>
       <r>    3.9348    1.0000 </r>
       <r>    4.2449    1.0000 </r>
       <r>    4.2848    1.0000 </r>
       <r>    4.6598    1.0000 </r>
       <r>    5.0305    1.0000 </r>
       <r>    5.0336    1.0000 </r>
       <r>    5.2416    1.0000 </r>
       <r>    5.2577    1.0000 </r>
       <r>    5.6106    1.0026 </r>
       <r>    5.6683    1.0075 </r>
       <r>    6.9375   -0.0000 </r>
       <r>    7.1785   -0.0000 </r>
       <r>   11.3549   -0.0000 </r>
       <r>   12.5704    0.0000 </r>
       <r>   12.7060    0.0000 </r>
       <r>   14.4800    0.0000 </r>
       <r>   17.3269    0.0000 </r>
      </set>
      <set comment="kpoint 163">
       <r>    0.4336    1.0000 </r>
       <r>    1.3884    1.0000 </r>
       <r>    1.5996    1.0000 </r>
       <r>    2.7616    1.0000 </r>
       <r>    3.2863    1.0000 </r>
       <r>    3.6969    1.0000 </r>
       <r>    3.7417    1.0000 </r>
       <r>    3.9585    1.0000 </r>
       <r>    4.2777    1.0000 </r>
       <r>    4.2797    1.0000 </r>
       <r>    4.6359    1.0000 </r>
       <r>    5.0263    1.0000 </r>
       <r>    5.0521    1.0000 </r>
       <r>    5.2215    1.0000 </r>
       <r>    5.2413    1.0000 </r>
       <r>    5.5823    1.0014 </r>
       <r>    5.6447    1.0050 </r>
       <r>    6.9878   -0.0000 </r>
       <r>    6.9954   -0.0000 </r>
       <r>   11.5910    0.0000 </r>
       <r>   12.3265    0.0000 </r>
       <r>   12.8331    0.0000 </r>
       <r>   14.2380    0.0000 </r>
       <r>   17.4173    0.0000 </r>
      </set>
      <set comment="kpoint 164">
       <r>    0.5492    1.0000 </r>
       <r>    1.4916    1.0000 </r>
       <r>    1.4916    1.0000 </r>
       <r>    2.6867    1.0000 </r>
       <r>    3.2835    1.0000 </r>
       <r>    3.7313    1.0000 </r>
       <r>    3.7313    1.0000 </r>
       <r>    3.9909    1.0000 </r>
       <r>    4.2927    1.0000 </r>
       <r>    4.2927    1.0000 </r>
       <r>    4.6097    1.0000 </r>
       <r>    5.0506    1.0000 </r>
       <r>    5.0506    1.0000 </r>
       <r>    5.1737    1.0000 </r>
       <r>    5.2378    1.0000 </r>
       <r>    5.5684    1.0011 </r>
       <r>    5.6162    1.0029 </r>
       <r>    6.9197   -0.0000 </r>
       <r>    6.9197   -0.0000 </r>
       <r>   11.8455    0.0000 </r>
       <r>   12.5105    0.0000 </r>
       <r>   12.5105    0.0000 </r>
       <r>   14.0006    0.0000 </r>
       <r>   17.5090    0.0000 </r>
      </set>
      <set comment="kpoint 165">
       <r>   -2.0712    1.0000 </r>
       <r>    2.1164    1.0000 </r>
       <r>    2.5606    1.0000 </r>
       <r>    2.5606    1.0000 </r>
       <r>    2.9777    1.0000 </r>
       <r>    3.4466    1.0000 </r>
       <r>    3.4466    1.0000 </r>
       <r>    3.9100    1.0000 </r>
       <r>    4.3253    1.0000 </r>
       <r>    4.3253    1.0000 </r>
       <r>    5.0603    1.0000 </r>
       <r>    5.0603    1.0000 </r>
       <r>    5.2220    1.0000 </r>
       <r>    5.3594    1.0000 </r>
       <r>    5.3594    1.0000 </r>
       <r>    6.1140    0.3276 </r>
       <r>    6.7581   -0.0000 </r>
       <r>    7.5469   -0.0000 </r>
       <r>    7.5469   -0.0000 </r>
       <r>   13.0821    0.0000 </r>
       <r>   13.0821    0.0000 </r>
       <r>   13.0880    0.0000 </r>
       <r>   16.3555    0.0000 </r>
       <r>   16.3555    0.0000 </r>
      </set>
      <set comment="kpoint 166">
       <r>   -1.7715    1.0000 </r>
       <r>    1.9673    1.0000 </r>
       <r>    2.4091    1.0000 </r>
       <r>    2.7459    1.0000 </r>
       <r>    3.0455    1.0000 </r>
       <r>    3.4563    1.0000 </r>
       <r>    3.5239    1.0000 </r>
       <r>    3.8922    1.0000 </r>
       <r>    4.2303    1.0000 </r>
       <r>    4.2450    1.0000 </r>
       <r>    5.0452    1.0000 </r>
       <r>    5.0702    1.0000 </r>
       <r>    5.1310    1.0000 </r>
       <r>    5.2817    1.0000 </r>
       <r>    5.3717    1.0000 </r>
       <r>    6.0937    0.4097 </r>
       <r>    6.5306   -0.0028 </r>
       <r>    7.5610   -0.0000 </r>
       <r>    7.7107   -0.0000 </r>
       <r>   12.2907    0.0000 </r>
       <r>   12.3020    0.0000 </r>
       <r>   13.4260    0.0000 </r>
       <r>   16.5601    0.0000 </r>
       <r>   16.9050    0.0000 </r>
      </set>
      <set comment="kpoint 167">
       <r>   -1.4179    1.0000 </r>
       <r>    1.6220    1.0000 </r>
       <r>    2.3643    1.0000 </r>
       <r>    2.9421    1.0000 </r>
       <r>    3.1194    1.0000 </r>
       <r>    3.4668    1.0000 </r>
       <r>    3.5707    1.0000 </r>
       <r>    3.9193    1.0000 </r>
       <r>    4.1608    1.0000 </r>
       <r>    4.1706    1.0000 </r>
       <r>    5.0198    1.0000 </r>
       <r>    5.0218    1.0000 </r>
       <r>    5.1238    1.0000 </r>
       <r>    5.2158    1.0000 </r>
       <r>    5.3748    1.0000 </r>
       <r>    6.0546    0.5743 </r>
       <r>    6.1716    0.1318 </r>
       <r>    7.8362   -0.0000 </r>
       <r>    7.8827   -0.0000 </r>
       <r>   11.5599    0.0000 </r>
       <r>   11.6343    0.0000 </r>
       <r>   13.8105    0.0000 </r>
       <r>   16.7832    0.0000 </r>
       <r>   17.1149    0.0000 </r>
      </set>
      <set comment="kpoint 168">
       <r>   -1.0248    1.0000 </r>
       <r>    1.1828    1.0000 </r>
       <r>    2.3590    1.0000 </r>
       <r>    3.1274    1.0000 </r>
       <r>    3.1741    1.0000 </r>
       <r>    3.4745    1.0000 </r>
       <r>    3.6060    1.0000 </r>
       <r>    3.9708    1.0000 </r>
       <r>    4.0801    1.0000 </r>
       <r>    4.1472    1.0000 </r>
       <r>    4.9640    1.0000 </r>
       <r>    4.9778    1.0000 </r>
       <r>    5.1555    1.0000 </r>
       <r>    5.1831    1.0000 </r>
       <r>    5.3638    1.0000 </r>
       <r>    5.8631    1.0292 </r>
       <r>    6.0094    0.7518 </r>
       <r>    8.0453   -0.0000 </r>
       <r>    8.1748   -0.0000 </r>
       <r>   10.9193   -0.0000 </r>
       <r>   11.1072   -0.0000 </r>
       <r>   14.2229    0.0000 </r>
       <r>   16.8192    0.0000 </r>
       <r>   16.9971    0.0000 </r>
      </set>
      <set comment="kpoint 169">
       <r>   -0.6323    1.0000 </r>
       <r>    0.7464    1.0000 </r>
       <r>    2.3607    1.0000 </r>
       <r>    3.1982    1.0000 </r>
       <r>    3.2730    1.0000 </r>
       <r>    3.4743    1.0000 </r>
       <r>    3.6478    1.0000 </r>
       <r>    3.9999    1.0000 </r>
       <r>    4.0153    1.0000 </r>
       <r>    4.1530    1.0000 </r>
       <r>    4.9276    1.0000 </r>
       <r>    4.9417    1.0000 </r>
       <r>    5.1815    1.0000 </r>
       <r>    5.1934    1.0000 </r>
       <r>    5.3395    1.0000 </r>
       <r>    5.6464    1.0051 </r>
       <r>    5.9737    0.8660 </r>
       <r>    8.1700   -0.0000 </r>
       <r>    8.4939   -0.0000 </r>
       <r>   10.4220   -0.0000 </r>
       <r>   10.7589   -0.0000 </r>
       <r>   14.6161    0.0000 </r>
       <r>   16.3360    0.0000 </r>
       <r>   17.1594    0.0000 </r>
      </set>
      <set comment="kpoint 170">
       <r>   -0.4136    1.0000 </r>
       <r>    0.5105    1.0000 </r>
       <r>    2.3617    1.0000 </r>
       <r>    3.2034    1.0000 </r>
       <r>    3.3348    1.0000 </r>
       <r>    3.4687    1.0000 </r>
       <r>    3.6696    1.0000 </r>
       <r>    3.9888    1.0000 </r>
       <r>    4.0040    1.0000 </r>
       <r>    4.1615    1.0000 </r>
       <r>    4.9153    1.0000 </r>
       <r>    4.9295    1.0000 </r>
       <r>    5.1883    1.0000 </r>
       <r>    5.2154    1.0000 </r>
       <r>    5.3220    1.0000 </r>
       <r>    5.5624    1.0009 </r>
       <r>    5.9602    0.9013 </r>
       <r>    8.2186   -0.0000 </r>
       <r>    8.6460   -0.0000 </r>
       <r>   10.2107   -0.0000 </r>
       <r>   10.6349   -0.0000 </r>
       <r>   14.8176    0.0000 </r>
       <r>   16.0964    0.0000 </r>
       <r>   17.2213    0.0000 </r>
      </set>
      <set comment="kpoint 171">
       <r>   -1.4812    1.0000 </r>
       <r>    1.9355    1.0000 </r>
       <r>    2.3340    1.0000 </r>
       <r>    2.7483    1.0000 </r>
       <r>    3.1329    1.0000 </r>
       <r>    3.4771    1.0000 </r>
       <r>    3.5772    1.0000 </r>
       <r>    3.8770    1.0000 </r>
       <r>    4.1560    1.0000 </r>
       <r>    4.2026    1.0000 </r>
       <r>    5.0152    1.0000 </r>
       <r>    5.0619    1.0000 </r>
       <r>    5.0667    1.0000 </r>
       <r>    5.2693    1.0000 </r>
       <r>    5.3437    1.0000 </r>
       <r>    6.0825    0.4567 </r>
       <r>    6.5322   -0.0027 </r>
       <r>    7.2790   -0.0000 </r>
       <r>    7.7918   -0.0000 </r>
       <r>   11.5548    0.0000 </r>
       <r>   12.6224    0.0000 </r>
       <r>   12.6431    0.0000 </r>
       <r>   16.9022    0.0000 </r>
       <r>   17.4673    0.0000 </r>
      </set>
      <set comment="kpoint 172">
       <r>   -1.1403    1.0000 </r>
       <r>    1.7178    1.0000 </r>
       <r>    2.2447    1.0000 </r>
       <r>    2.8835    1.0000 </r>
       <r>    3.2189    1.0000 </r>
       <r>    3.4757    1.0000 </r>
       <r>    3.6244    1.0000 </r>
       <r>    3.8963    1.0000 </r>
       <r>    4.1127    1.0000 </r>
       <r>    4.1687    1.0000 </r>
       <r>    4.9252    1.0000 </r>
       <r>    5.0360    1.0000 </r>
       <r>    5.0913    1.0000 </r>
       <r>    5.2372    1.0000 </r>
       <r>    5.3431    1.0000 </r>
       <r>    6.0460    0.6101 </r>
       <r>    6.2596   -0.0172 </r>
       <r>    7.3235   -0.0000 </r>
       <r>    7.9400   -0.0000 </r>
       <r>   10.9374   -0.0000 </r>
       <r>   11.9227    0.0000 </r>
       <r>   13.0145    0.0000 </r>
       <r>   16.7067    0.0000 </r>
       <r>   17.2490    0.0000 </r>
      </set>
      <set comment="kpoint 173">
       <r>   -0.7649    1.0000 </r>
       <r>    1.3503    1.0000 </r>
       <r>    2.2201    1.0000 </r>
       <r>    3.0461    1.0000 </r>
       <r>    3.2754    1.0000 </r>
       <r>    3.4676    1.0000 </r>
       <r>    3.6698    1.0000 </r>
       <r>    3.9247    1.0000 </r>
       <r>    4.0952    1.0000 </r>
       <r>    4.1520    1.0000 </r>
       <r>    4.8570    1.0000 </r>
       <r>    4.9947    1.0000 </r>
       <r>    5.1315    1.0000 </r>
       <r>    5.2300    1.0000 </r>
       <r>    5.3343    1.0000 </r>
       <r>    5.9263    0.9699 </r>
       <r>    6.0111    0.7459 </r>
       <r>    7.5124   -0.0000 </r>
       <r>    8.0657   -0.0000 </r>
       <r>   10.4883   -0.0000 </r>
       <r>   11.3203   -0.0000 </r>
       <r>   13.4270    0.0000 </r>
       <r>   16.0832    0.0000 </r>
       <r>   17.4604    0.0000 </r>
      </set>
      <set comment="kpoint 174">
       <r>   -0.3977    1.0000 </r>
       <r>    0.9643    1.0000 </r>
       <r>    2.2145    1.0000 </r>
       <r>    3.1788    1.0000 </r>
       <r>    3.3108    1.0000 </r>
       <r>    3.4363    1.0000 </r>
       <r>    3.7368    1.0000 </r>
       <r>    3.9189    1.0000 </r>
       <r>    4.0815    1.0000 </r>
       <r>    4.1654    1.0000 </r>
       <r>    4.8150    1.0000 </r>
       <r>    4.9642    1.0000 </r>
       <r>    5.1842    1.0000 </r>
       <r>    5.2491    1.0000 </r>
       <r>    5.3092    1.0000 </r>
       <r>    5.6819    1.0093 </r>
       <r>    5.9664    0.8857 </r>
       <r>    7.7032   -0.0000 </r>
       <r>    8.1252   -0.0000 </r>
       <r>   10.2534   -0.0000 </r>
       <r>   10.8693   -0.0000 </r>
       <r>   13.8254    0.0000 </r>
       <r>   15.5416    0.0000 </r>
       <r>   17.6419    0.0000 </r>
      </set>
      <set comment="kpoint 175">
       <r>   -0.2014    1.0000 </r>
       <r>    0.7585    1.0000 </r>
       <r>    2.2134    1.0000 </r>
       <r>    3.2243    1.0000 </r>
       <r>    3.3727    1.0000 </r>
       <r>    3.3753    1.0000 </r>
       <r>    3.7791    1.0000 </r>
       <r>    3.9016    1.0000 </r>
       <r>    4.0735    1.0000 </r>
       <r>    4.1766    1.0000 </r>
       <r>    4.8011    1.0000 </r>
       <r>    4.9553    1.0000 </r>
       <r>    5.2361    1.0000 </r>
       <r>    5.2403    1.0000 </r>
       <r>    5.3009    1.0000 </r>
       <r>    5.5741    1.0012 </r>
       <r>    5.9507    0.9235 </r>
       <r>    7.7959   -0.0000 </r>
       <r>    8.1255   -0.0000 </r>
       <r>   10.2045   -0.0000 </r>
       <r>   10.6798   -0.0000 </r>
       <r>   14.0336    0.0000 </r>
       <r>   15.2846    0.0000 </r>
       <r>   17.7137    0.0000 </r>
      </set>
      <set comment="kpoint 176">
       <r>   -0.8172    1.0000 </r>
       <r>    1.7219    1.0000 </r>
       <r>    2.0842    1.0000 </r>
       <r>    2.8965    1.0000 </r>
       <r>    3.3051    1.0000 </r>
       <r>    3.4850    1.0000 </r>
       <r>    3.6653    1.0000 </r>
       <r>    3.9026    1.0000 </r>
       <r>    4.1035    1.0000 </r>
       <r>    4.1730    1.0000 </r>
       <r>    4.8297    1.0000 </r>
       <r>    5.0511    1.0000 </r>
       <r>    5.0627    1.0000 </r>
       <r>    5.2386    1.0000 </r>
       <r>    5.3390    1.0000 </r>
       <r>    6.0098    0.7504 </r>
       <r>    6.2013    0.0607 </r>
       <r>    7.0541   -0.0000 </r>
       <r>    7.9637   -0.0000 </r>
       <r>   10.4713   -0.0000 </r>
       <r>   12.2633    0.0000 </r>
       <r>   12.3252    0.0000 </r>
       <r>   16.0076    0.0000 </r>
       <r>   17.5074    0.0000 </r>
      </set>
      <set comment="kpoint 177">
       <r>   -0.4665    1.0000 </r>
       <r>    1.5069    1.0000 </r>
       <r>    2.0341    1.0000 </r>
       <r>    2.9599    1.0000 </r>
       <r>    3.3494    1.0000 </r>
       <r>    3.5048    1.0000 </r>
       <r>    3.7018    1.0000 </r>
       <r>    3.9282    1.0000 </r>
       <r>    4.1248    1.0000 </r>
       <r>    4.1783    1.0000 </r>
       <r>    4.7543    1.0000 </r>
       <r>    5.0141    1.0000 </r>
       <r>    5.0925    1.0000 </r>
       <r>    5.2441    1.0000 </r>
       <r>    5.3419    1.0000 </r>
       <r>    5.9293    0.9650 </r>
       <r>    5.9924    0.8098 </r>
       <r>    7.0837   -0.0000 </r>
       <r>    7.8880   -0.0000 </r>
       <r>   10.2530   -0.0000 </r>
       <r>   11.6664    0.0000 </r>
       <r>   12.7021    0.0000 </r>
       <r>   15.3422    0.0000 </r>
       <r>   17.7633    0.0000 </r>
      </set>
      <set comment="kpoint 178">
       <r>   -0.1339    1.0000 </r>
       <r>    1.2002    1.0000 </r>
       <r>    2.0429    1.0000 </r>
       <r>    3.0244    1.0000 </r>
       <r>    3.3774    1.0000 </r>
       <r>    3.4919    1.0000 </r>
       <r>    3.7726    1.0000 </r>
       <r>    3.9276    1.0000 </r>
       <r>    4.1485    1.0000 </r>
       <r>    4.1911    1.0000 </r>
       <r>    4.7070    1.0000 </r>
       <r>    4.9893    1.0000 </r>
       <r>    5.1362    1.0000 </r>
       <r>    5.2552    1.0000 </r>
       <r>    5.3484    1.0000 </r>
       <r>    5.6995    1.0121 </r>
       <r>    5.9297    0.9643 </r>
       <r>    7.2420   -0.0000 </r>
       <r>    7.7190   -0.0000 </r>
       <r>   10.2722   -0.0000 </r>
       <r>   11.1661   -0.0000 </r>
       <r>   13.0989    0.0000 </r>
       <r>   14.7865    0.0000 </r>
       <r>   17.9663    0.0000 </r>
      </set>
      <set comment="kpoint 179">
       <r>    0.0345    1.0000 </r>
       <r>    1.0349    1.0000 </r>
       <r>    2.0484    1.0000 </r>
       <r>    3.0501    1.0000 </r>
       <r>    3.3978    1.0000 </r>
       <r>    3.4716    1.0000 </r>
       <r>    3.8198    1.0000 </r>
       <r>    3.9121    1.0000 </r>
       <r>    4.1527    1.0000 </r>
       <r>    4.2019    1.0000 </r>
       <r>    4.6911    1.0000 </r>
       <r>    4.9849    1.0000 </r>
       <r>    5.1618    1.0000 </r>
       <r>    5.2534    1.0000 </r>
       <r>    5.3728    1.0000 </r>
       <r>    5.5769    1.0013 </r>
       <r>    5.9117    0.9907 </r>
       <r>    7.3811   -0.0000 </r>
       <r>    7.5723   -0.0000 </r>
       <r>   10.3616   -0.0000 </r>
       <r>   10.9237   -0.0000 </r>
       <r>   13.3099    0.0000 </r>
       <r>   14.5224    0.0000 </r>
       <r>   18.0471    0.0000 </r>
      </set>
      <set comment="kpoint 180">
       <r>   -0.1502    1.0000 </r>
       <r>    1.5742    1.0000 </r>
       <r>    1.8619    1.0000 </r>
       <r>    2.8960    1.0000 </r>
       <r>    3.3816    1.0000 </r>
       <r>    3.5753    1.0000 </r>
       <r>    3.6971    1.0000 </r>
       <r>    3.9883    1.0000 </r>
       <r>    4.1625    1.0000 </r>
       <r>    4.2067    1.0000 </r>
       <r>    4.6703    1.0000 </r>
       <r>    5.0391    1.0000 </r>
       <r>    5.0530    1.0000 </r>
       <r>    5.2485    1.0000 </r>
       <r>    5.3609    1.0000 </r>
       <r>    5.8682    1.0271 </r>
       <r>    5.8973    1.0067 </r>
       <r>    6.8960   -0.0000 </r>
       <r>    7.6151   -0.0000 </r>
       <r>   10.2742   -0.0000 </r>
       <r>   12.0105    0.0000 </r>
       <r>   12.1087    0.0000 </r>
       <r>   14.6662    0.0000 </r>
       <r>   18.0395    0.0000 </r>
      </set>
      <set comment="kpoint 181">
       <r>    0.1364    1.0000 </r>
       <r>    1.4265    1.0000 </r>
       <r>    1.8549    1.0000 </r>
       <r>    2.8613    1.0000 </r>
       <r>    3.4011    1.0000 </r>
       <r>    3.5923    1.0000 </r>
       <r>    3.7329    1.0000 </r>
       <r>    4.0358    1.0000 </r>
       <r>    4.2031    1.0000 </r>
       <r>    4.2263    1.0000 </r>
       <r>    4.6153    1.0000 </r>
       <r>    5.0251    1.0000 </r>
       <r>    5.0821    1.0000 </r>
       <r>    5.2520    1.0000 </r>
       <r>    5.3782    1.0000 </r>
       <r>    5.6761    1.0085 </r>
       <r>    5.8547    1.0320 </r>
       <r>    6.9279   -0.0000 </r>
       <r>    7.3311   -0.0000 </r>
       <r>   10.4624   -0.0000 </r>
       <r>   11.5294   -0.0000 </r>
       <r>   12.4517    0.0000 </r>
       <r>   14.1061    0.0000 </r>
       <r>   18.2557    0.0000 </r>
      </set>
      <set comment="kpoint 182">
       <r>    0.2714    1.0000 </r>
       <r>    1.3153    1.0000 </r>
       <r>    1.8757    1.0000 </r>
       <r>    2.8510    1.0000 </r>
       <r>    3.4097    1.0000 </r>
       <r>    3.5857    1.0000 </r>
       <r>    3.7605    1.0000 </r>
       <r>    4.0509    1.0000 </r>
       <r>    4.2199    1.0000 </r>
       <r>    4.2339    1.0000 </r>
       <r>    4.5964    1.0000 </r>
       <r>    5.0270    1.0000 </r>
       <r>    5.0995    1.0000 </r>
       <r>    5.2515    1.0000 </r>
       <r>    5.4015    1.0000 </r>
       <r>    5.5630    1.0009 </r>
       <r>    5.8382    1.0350 </r>
       <r>    7.0528   -0.0000 </r>
       <r>    7.1276   -0.0000 </r>
       <r>   10.6225   -0.0000 </r>
       <r>   11.2624   -0.0000 </r>
       <r>   12.6601    0.0000 </r>
       <r>   13.8398    0.0000 </r>
       <r>   18.3416    0.0000 </r>
      </set>
      <set comment="kpoint 183">
       <r>    0.3670    1.0000 </r>
       <r>    1.5746    1.0000 </r>
       <r>    1.7112    1.0000 </r>
       <r>    2.7280    1.0000 </r>
       <r>    3.4101    1.0000 </r>
       <r>    3.6701    1.0000 </r>
       <r>    3.7092    1.0000 </r>
       <r>    4.1277    1.0000 </r>
       <r>    4.2439    1.0000 </r>
       <r>    4.2577    1.0000 </r>
       <r>    4.5516    1.0000 </r>
       <r>    5.0609    1.0000 </r>
       <r>    5.0692    1.0000 </r>
       <r>    5.2433    1.0000 </r>
       <r>    5.3741    1.0000 </r>
       <r>    5.5931    1.0018 </r>
       <r>    5.7832    1.0300 </r>
       <r>    6.8089   -0.0000 </r>
       <r>    7.0350   -0.0000 </r>
       <r>   10.7451   -0.0000 </r>
       <r>   11.8609    0.0000 </r>
       <r>   11.9493    0.0000 </r>
       <r>   13.5474    0.0000 </r>
       <r>   18.4794    0.0000 </r>
      </set>
      <set comment="kpoint 184">
       <r>    0.4671    1.0000 </r>
       <r>    1.5536    1.0000 </r>
       <r>    1.7243    1.0000 </r>
       <r>    2.6723    1.0000 </r>
       <r>    3.4125    1.0000 </r>
       <r>    3.6774    1.0000 </r>
       <r>    3.7255    1.0000 </r>
       <r>    4.1606    1.0000 </r>
       <r>    4.2655    1.0000 </r>
       <r>    4.2660    1.0000 </r>
       <r>    4.5282    1.0000 </r>
       <r>    5.0779    1.0000 </r>
       <r>    5.0839    1.0000 </r>
       <r>    5.2357    1.0000 </r>
       <r>    5.3556    1.0000 </r>
       <r>    5.5366    1.0005 </r>
       <r>    5.7614    1.0252 </r>
       <r>    6.8496   -0.0000 </r>
       <r>    6.8640   -0.0000 </r>
       <r>   10.9441   -0.0000 </r>
       <r>   11.6187    0.0000 </r>
       <r>   12.1091    0.0000 </r>
       <r>   13.2840    0.0000 </r>
       <r>   18.5677    0.0000 </r>
      </set>
      <set comment="kpoint 185">
       <r>    0.5492    1.0000 </r>
       <r>    1.6582    1.0000 </r>
       <r>    1.6582    1.0000 </r>
       <r>    2.5900    1.0000 </r>
       <r>    3.4123    1.0000 </r>
       <r>    3.7141    1.0000 </r>
       <r>    3.7141    1.0000 </r>
       <r>    4.2016    1.0000 </r>
       <r>    4.2818    1.0000 </r>
       <r>    4.2818    1.0000 </r>
       <r>    4.5021    1.0000 </r>
       <r>    5.1078    1.0000 </r>
       <r>    5.1078    1.0000 </r>
       <r>    5.2210    1.0000 </r>
       <r>    5.2918    1.0000 </r>
       <r>    5.5221    1.0004 </r>
       <r>    5.7338    1.0189 </r>
       <r>    6.7820   -0.0000 </r>
       <r>    6.7820   -0.0000 </r>
       <r>   11.1658   -0.0000 </r>
       <r>   11.8113    0.0000 </r>
       <r>   11.8113    0.0000 </r>
       <r>   13.0258    0.0000 </r>
       <r>   18.6566    0.0000 </r>
      </set>
      <set comment="kpoint 186">
       <r>   -1.2019    1.0000 </r>
       <r>    1.8732    1.0000 </r>
       <r>    2.5278    1.0000 </r>
       <r>    2.5278    1.0000 </r>
       <r>    3.2337    1.0000 </r>
       <r>    3.5524    1.0000 </r>
       <r>    3.5524    1.0000 </r>
       <r>    3.8883    1.0000 </r>
       <r>    4.1428    1.0000 </r>
       <r>    4.1428    1.0000 </r>
       <r>    4.9060    1.0000 </r>
       <r>    5.0644    1.0000 </r>
       <r>    5.0644    1.0000 </r>
       <r>    5.2969    1.0000 </r>
       <r>    5.2969    1.0000 </r>
       <r>    6.0926    0.4142 </r>
       <r>    6.6124   -0.0005 </r>
       <r>    7.3345   -0.0000 </r>
       <r>    7.3345   -0.0000 </r>
       <r>   11.8528    0.0000 </r>
       <r>   11.8913    0.0000 </r>
       <r>   11.8913    0.0000 </r>
       <r>   16.6880    0.0000 </r>
       <r>   17.9688    0.0000 </r>
      </set>
      <set comment="kpoint 187">
       <r>   -0.8767    1.0000 </r>
       <r>    1.7322    1.0000 </r>
       <r>    2.3185    1.0000 </r>
       <r>    2.7327    1.0000 </r>
       <r>    3.3240    1.0000 </r>
       <r>    3.5256    1.0000 </r>
       <r>    3.6122    1.0000 </r>
       <r>    3.9251    1.0000 </r>
       <r>    4.1267    1.0000 </r>
       <r>    4.1286    1.0000 </r>
       <r>    4.8148    1.0000 </r>
       <r>    5.0407    1.0000 </r>
       <r>    5.0806    1.0000 </r>
       <r>    5.2694    1.0000 </r>
       <r>    5.3140    1.0000 </r>
       <r>    6.0717    0.5025 </r>
       <r>    6.3745   -0.0271 </r>
       <r>    7.3150   -0.0000 </r>
       <r>    7.3920   -0.0000 </r>
       <r>   11.1706   -0.0000 </r>
       <r>   11.2865   -0.0000 </r>
       <r>   12.2507    0.0000 </r>
       <r>   15.9541    0.0000 </r>
       <r>   18.2117    0.0000 </r>
      </set>
      <set comment="kpoint 188">
       <r>   -0.5234    1.0000 </r>
       <r>    1.4706    1.0000 </r>
       <r>    2.1920    1.0000 </r>
       <r>    2.9254    1.0000 </r>
       <r>    3.3706    1.0000 </r>
       <r>    3.4953    1.0000 </r>
       <r>    3.6904    1.0000 </r>
       <r>    3.9613    1.0000 </r>
       <r>    4.1106    1.0000 </r>
       <r>    4.1466    1.0000 </r>
       <r>    4.7460    1.0000 </r>
       <r>    5.0069    1.0000 </r>
       <r>    5.1131    1.0000 </r>
       <r>    5.2771    1.0000 </r>
       <r>    5.3129    1.0000 </r>
       <r>    6.0184    0.7190 </r>
       <r>    6.0316    0.6680 </r>
       <r>    7.4428   -0.0000 </r>
       <r>    7.5165   -0.0000 </r>
       <r>   10.5896   -0.0000 </r>
       <r>   10.8325   -0.0000 </r>
       <r>   12.6584    0.0000 </r>
       <r>   15.2789    0.0000 </r>
       <r>   18.4407    0.0000 </r>
      </set>
      <set comment="kpoint 189">
       <r>   -0.1879    1.0000 </r>
       <r>    1.1591    1.0000 </r>
       <r>    2.1387    1.0000 </r>
       <r>    3.0750    1.0000 </r>
       <r>    3.3797    1.0000 </r>
       <r>    3.4618    1.0000 </r>
       <r>    3.7921    1.0000 </r>
       <r>    3.9555    1.0000 </r>
       <r>    4.0986    1.0000 </r>
       <r>    4.1750    1.0000 </r>
       <r>    4.7029    1.0000 </r>
       <r>    4.9881    1.0000 </r>
       <r>    5.1588    1.0000 </r>
       <r>    5.2901    1.0000 </r>
       <r>    5.3294    1.0000 </r>
       <r>    5.7193    1.0158 </r>
       <r>    5.9931    0.8076 </r>
       <r>    7.4781   -0.0000 </r>
       <r>    7.7185   -0.0000 </r>
       <r>   10.1760   -0.0000 </r>
       <r>   10.5502   -0.0000 </r>
       <r>   13.0601    0.0000 </r>
       <r>   14.7152    0.0000 </r>
       <r>   18.6116    0.0000 </r>
      </set>
      <set comment="kpoint 190">
       <r>   -0.0180    1.0000 </r>
       <r>    0.9922    1.0000 </r>
       <r>    2.1245    1.0000 </r>
       <r>    3.1365    1.0000 </r>
       <r>    3.3794    1.0000 </r>
       <r>    3.4428    1.0000 </r>
       <r>    3.8645    1.0000 </r>
       <r>    3.9202    1.0000 </r>
       <r>    4.0941    1.0000 </r>
       <r>    4.1868    1.0000 </r>
       <r>    4.6881    1.0000 </r>
       <r>    4.9853    1.0000 </r>
       <r>    5.1911    1.0000 </r>
       <r>    5.2662    1.0000 </r>
       <r>    5.4018    1.0000 </r>
       <r>    5.5573    1.0008 </r>
       <r>    5.9772    0.8561 </r>
       <r>    7.4908   -0.0000 </r>
       <r>    7.8062   -0.0000 </r>
       <r>   10.0189   -0.0000 </r>
       <r>   10.4543   -0.0000 </r>
       <r>   13.2770    0.0000 </r>
       <r>   14.4443    0.0000 </r>
       <r>   18.6763    0.0000 </r>
      </set>
      <set comment="kpoint 191">
       <r>   -0.5735    1.0000 </r>
       <r>    1.6885    1.0000 </r>
       <r>    2.2787    1.0000 </r>
       <r>    2.7049    1.0000 </r>
       <r>    3.4110    1.0000 </r>
       <r>    3.5476    1.0000 </r>
       <r>    3.6228    1.0000 </r>
       <r>    3.9824    1.0000 </r>
       <r>    4.1310    1.0000 </r>
       <r>    4.1413    1.0000 </r>
       <r>    4.7196    1.0000 </r>
       <r>    5.0428    1.0000 </r>
       <r>    5.0623    1.0000 </r>
       <r>    5.2748    1.0000 </r>
       <r>    5.3167    1.0000 </r>
       <r>    6.0608    0.5481 </r>
       <r>    6.3454   -0.0329 </r>
       <r>    7.0066   -0.0000 </r>
       <r>    7.3807   -0.0000 </r>
       <r>   10.6709   -0.0000 </r>
       <r>   11.5763    0.0000 </r>
       <r>   11.5865    0.0000 </r>
       <r>   15.2030    0.0000 </r>
       <r>   18.6584    0.0000 </r>
      </set>
      <set comment="kpoint 192">
       <r>   -0.2517    1.0000 </r>
       <r>    1.5604    1.0000 </r>
       <r>    2.1420    1.0000 </r>
       <r>    2.8118    1.0000 </r>
       <r>    3.4474    1.0000 </r>
       <r>    3.5453    1.0000 </r>
       <r>    3.6843    1.0000 </r>
       <r>    4.0467    1.0000 </r>
       <r>    4.1457    1.0000 </r>
       <r>    4.1649    1.0000 </r>
       <r>    4.6463    1.0000 </r>
       <r>    5.0195    1.0000 </r>
       <r>    5.0787    1.0000 </r>
       <r>    5.2817    1.0000 </r>
       <r>    5.3304    1.0000 </r>
       <r>    6.0183    0.7193 </r>
       <r>    6.0722    0.5002 </r>
       <r>    7.0051   -0.0000 </r>
       <r>    7.3895   -0.0000 </r>
       <r>   10.2880   -0.0000 </r>
       <r>   11.0341   -0.0000 </r>
       <r>   11.9715    0.0000 </r>
       <r>   14.5202    0.0000 </r>
       <r>   18.9314    0.0000 </r>
      </set>
      <set comment="kpoint 193">
       <r>    0.0399    1.0000 </r>
       <r>    1.3636    1.0000 </r>
       <r>    2.0566    1.0000 </r>
       <r>    2.9146    1.0000 </r>
       <r>    3.4643    1.0000 </r>
       <r>    3.5207    1.0000 </r>
       <r>    3.7682    1.0000 </r>
       <r>    4.0785    1.0000 </r>
       <r>    4.1525    1.0000 </r>
       <r>    4.1970    1.0000 </r>
       <r>    4.5998    1.0000 </r>
       <r>    5.0100    1.0000 </r>
       <r>    5.1104    1.0000 </r>
       <r>    5.2869    1.0000 </r>
       <r>    5.3747    1.0000 </r>
       <r>    5.7514    1.0229 </r>
       <r>    5.9901    0.8172 </r>
       <r>    7.1001   -0.0000 </r>
       <r>    7.3802   -0.0000 </r>
       <r>   10.0851   -0.0000 </r>
       <r>   10.6504   -0.0000 </r>
       <r>   12.3663    0.0000 </r>
       <r>   13.9500    0.0000 </r>
       <r>   19.1282    0.0000 </r>
      </set>
      <set comment="kpoint 194">
       <r>    0.1770    1.0000 </r>
       <r>    1.2511    1.0000 </r>
       <r>    2.0324    1.0000 </r>
       <r>    2.9542    1.0000 </r>
       <r>    3.4795    1.0000 </r>
       <r>    3.5003    1.0000 </r>
       <r>    3.8064    1.0000 </r>
       <r>    4.0849    1.0000 </r>
       <r>    4.1540    1.0000 </r>
       <r>    4.2093    1.0000 </r>
       <r>    4.5838    1.0000 </r>
       <r>    5.0126    1.0000 </r>
       <r>    5.1290    1.0000 </r>
       <r>    5.2792    1.0000 </r>
       <r>    5.4912    1.0002 </r>
       <r>    5.5356    1.0005 </r>
       <r>    5.9731    0.8677 </r>
       <r>    7.1495   -0.0000 </r>
       <r>    7.3681   -0.0000 </r>
       <r>   10.0314   -0.0000 </r>
       <r>   10.5033   -0.0000 </r>
       <r>   12.5862    0.0000 </r>
       <r>   13.6718    0.0000 </r>
       <r>   19.2031    0.0000 </r>
      </set>
      <set comment="kpoint 195">
       <r>    0.0257    1.0000 </r>
       <r>    1.5913    1.0000 </r>
       <r>    2.0539    1.0000 </r>
       <r>    2.7583    1.0000 </r>
       <r>    3.4882    1.0000 </r>
       <r>    3.6169    1.0000 </r>
       <r>    3.6711    1.0000 </r>
       <r>    4.1577    1.0000 </r>
       <r>    4.1844    1.0000 </r>
       <r>    4.1881    1.0000 </r>
       <r>    4.5667    1.0000 </r>
       <r>    5.0357    1.0000 </r>
       <r>    5.0505    1.0000 </r>
       <r>    5.2767    1.0000 </r>
       <r>    5.3573    1.0000 </r>
       <r>    5.9791    0.8506 </r>
       <r>    5.9841    0.8357 </r>
       <r>    6.7676   -0.0000 </r>
       <r>    7.2435   -0.0000 </r>
       <r>   10.1145   -0.0000 </r>
       <r>   11.3801   -0.0000 </r>
       <r>   11.3916   -0.0000 </r>
       <r>   13.8361    0.0000 </r>
       <r>   19.2350    0.0000 </r>
      </set>
      <set comment="kpoint 196">
       <r>    0.2598    1.0000 </r>
       <r>    1.5527    1.0000 </r>
       <r>    1.9718    1.0000 </r>
       <r>    2.7567    1.0000 </r>
       <r>    3.5208    1.0000 </r>
       <r>    3.6075    1.0000 </r>
       <r>    3.7279    1.0000 </r>
       <r>    4.2049    1.0000 </r>
       <r>    4.2100    1.0000 </r>
       <r>    4.2448    1.0000 </r>
       <r>    4.5143    1.0000 </r>
       <r>    5.0398    1.0000 </r>
       <r>    5.0694    1.0000 </r>
       <r>    5.2744    1.0000 </r>
       <r>    5.3995    1.0000 </r>
       <r>    5.7426    1.0209 </r>
       <r>    5.9463    0.9328 </r>
       <r>    6.7761   -0.0000 </r>
       <r>    7.0748   -0.0000 </r>
       <r>   10.1218   -0.0000 </r>
       <r>   10.9335   -0.0000 </r>
       <r>   11.7608    0.0000 </r>
       <r>   13.2661    0.0000 </r>
       <r>   19.4511    0.0000 </r>
      </set>
      <set comment="kpoint 197">
       <r>    0.3599    1.0000 </r>
       <r>    1.5135    1.0000 </r>
       <r>    1.9441    1.0000 </r>
       <r>    2.7627    1.0000 </r>
       <r>    3.5403    1.0000 </r>
       <r>    3.5900    1.0000 </r>
       <r>    3.7591    1.0000 </r>
       <r>    4.2145    1.0000 </r>
       <r>    4.2190    1.0000 </r>
       <r>    4.2707    1.0000 </r>
       <r>    4.4958    1.0000 </r>
       <r>    5.0504    1.0000 </r>
       <r>    5.0830    1.0000 </r>
       <r>    5.2703    1.0000 </r>
       <r>    5.5059    1.0002 </r>
       <r>    5.5372    1.0005 </r>
       <r>    5.9302    0.9634 </r>
       <r>    6.8557   -0.0000 </r>
       <r>    6.9537   -0.0000 </r>
       <r>   10.1828   -0.0000 </r>
       <r>   10.7272   -0.0000 </r>
       <r>   11.9770    0.0000 </r>
       <r>   12.9852    0.0000 </r>
       <r>   19.5337    0.0000 </r>
      </set>
      <set comment="kpoint 198">
       <r>    0.4301    1.0000 </r>
       <r>    1.6917    1.0000 </r>
       <r>    1.9008    1.0000 </r>
       <r>    2.6353    1.0000 </r>
       <r>    3.5515    1.0000 </r>
       <r>    3.6827    1.0000 </r>
       <r>    3.7068    1.0000 </r>
       <r>    4.2446    1.0000 </r>
       <r>    4.2450    1.0000 </r>
       <r>    4.3469    1.0000 </r>
       <r>    4.4545    1.0000 </r>
       <r>    5.0701    1.0000 </r>
       <r>    5.0809    1.0000 </r>
       <r>    5.2534    1.0000 </r>
       <r>    5.4170    1.0000 </r>
       <r>    5.6401    1.0046 </r>
       <r>    5.8860    1.0164 </r>
       <r>    6.6393   -0.0002 </r>
       <r>    6.8294   -0.0000 </r>
       <r>   10.2830   -0.0000 </r>
       <r>   11.2612   -0.0000 </r>
       <r>   11.2824   -0.0000 </r>
       <r>   12.6998    0.0000 </r>
       <r>   19.6773    0.0000 </r>
      </set>
      <set comment="kpoint 199">
       <r>    0.4967    1.0000 </r>
       <r>    1.7414    1.0000 </r>
       <r>    1.8746    1.0000 </r>
       <r>    2.5875    1.0000 </r>
       <r>    3.5620    1.0000 </r>
       <r>    3.6832    1.0000 </r>
       <r>    3.7307    1.0000 </r>
       <r>    4.2581    1.0000 </r>
       <r>    4.2582    1.0000 </r>
       <r>    4.3834    1.0000 </r>
       <r>    4.4321    1.0000 </r>
       <r>    5.0965    1.0000 </r>
       <r>    5.1027    1.0000 </r>
       <r>    5.2382    1.0000 </r>
       <r>    5.4730    1.0001 </r>
       <r>    5.5028    1.0002 </r>
       <r>    5.8659    1.0281 </r>
       <r>    6.6660   -0.0001 </r>
       <r>    6.6861   -0.0001 </r>
       <r>   10.4170   -0.0000 </r>
       <r>   11.0311   -0.0000 </r>
       <r>   11.4763   -0.0000 </r>
       <r>   12.4208    0.0000 </r>
       <r>   19.7633    0.0000 </r>
      </set>
      <set comment="kpoint 200">
       <r>    0.5488    1.0000 </r>
       <r>    1.8469    1.0000 </r>
       <r>    1.8469    1.0000 </r>
       <r>    2.5016    1.0000 </r>
       <r>    3.5684    1.0000 </r>
       <r>    3.7216    1.0000 </r>
       <r>    3.7216    1.0000 </r>
       <r>    4.2741    1.0000 </r>
       <r>    4.2741    1.0000 </r>
       <r>    4.4067    1.0000 </r>
       <r>    4.4222    1.0000 </r>
       <r>    5.1454    1.0000 </r>
       <r>    5.1454    1.0000 </r>
       <r>    5.2033    1.0000 </r>
       <r>    5.4347    1.0000 </r>
       <r>    5.4575    1.0001 </r>
       <r>    5.8398    1.0348 </r>
       <r>    6.6019   -0.0006 </r>
       <r>    6.6019   -0.0006 </r>
       <r>   10.5831   -0.0000 </r>
       <r>   11.2224   -0.0000 </r>
       <r>   11.2224   -0.0000 </r>
       <r>   12.1449    0.0000 </r>
       <r>   19.8503    0.0000 </r>
      </set>
      <set comment="kpoint 201">
       <r>   -0.2992    1.0000 </r>
       <r>    1.6488    1.0000 </r>
       <r>    2.4785    1.0000 </r>
       <r>    2.4785    1.0000 </r>
       <r>    3.5073    1.0000 </r>
       <r>    3.5952    1.0000 </r>
       <r>    3.5952    1.0000 </r>
       <r>    4.0898    1.0000 </r>
       <r>    4.1530    1.0000 </r>
       <r>    4.1530    1.0000 </r>
       <r>    4.6255    1.0000 </r>
       <r>    5.0414    1.0000 </r>
       <r>    5.0414    1.0000 </r>
       <r>    5.3017    1.0000 </r>
       <r>    5.3017    1.0000 </r>
       <r>    6.0746    0.4900 </r>
       <r>    6.3987   -0.0216 </r>
       <r>    6.9555   -0.0000 </r>
       <r>    6.9555   -0.0000 </r>
       <r>   10.8430   -0.0000 </r>
       <r>   11.0428   -0.0000 </r>
       <r>   11.0428   -0.0000 </r>
       <r>   14.4444    0.0000 </r>
       <r>   19.7135    0.0000 </r>
      </set>
      <set comment="kpoint 202">
       <r>   -0.0191    1.0000 </r>
       <r>    1.5965    1.0000 </r>
       <r>    2.2531    1.0000 </r>
       <r>    2.6546    1.0000 </r>
       <r>    3.5423    1.0000 </r>
       <r>    3.5853    1.0000 </r>
       <r>    3.6746    1.0000 </r>
       <r>    4.1696    1.0000 </r>
       <r>    4.1753    1.0000 </r>
       <r>    4.2066    1.0000 </r>
       <r>    4.5524    1.0000 </r>
       <r>    5.0204    1.0000 </r>
       <r>    5.0509    1.0000 </r>
       <r>    5.3115    1.0000 </r>
       <r>    5.3117    1.0000 </r>
       <r>    6.0539    0.5774 </r>
       <r>    6.1468    0.2075 </r>
       <r>    6.9118   -0.0000 </r>
       <r>    6.9129   -0.0000 </r>
       <r>   10.3703   -0.0000 </r>
       <r>   10.6496   -0.0000 </r>
       <r>   11.3442   -0.0000 </r>
       <r>   13.7600    0.0000 </r>
       <r>   19.9498    0.0000 </r>
      </set>
      <set comment="kpoint 203">
       <r>    0.2173    1.0000 </r>
       <r>    1.5281    1.0000 </r>
       <r>    2.0851    1.0000 </r>
       <r>    2.7751    1.0000 </r>
       <r>    3.5440    1.0000 </r>
       <r>    3.5893    1.0000 </r>
       <r>    3.7561    1.0000 </r>
       <r>    4.1804    1.0000 </r>
       <r>    4.1970    1.0000 </r>
       <r>    4.2802    1.0000 </r>
       <r>    4.5051    1.0000 </r>
       <r>    5.0222    1.0000 </r>
       <r>    5.0692    1.0000 </r>
       <r>    5.3038    1.0000 </r>
       <r>    5.3732    1.0000 </r>
       <r>    5.8123    1.0347 </r>
       <r>    6.0201    0.7125 </r>
       <r>    6.8845   -0.0000 </r>
       <r>    7.0109   -0.0000 </r>
       <r>   10.0185   -0.0000 </r>
       <r>   10.4141   -0.0000 </r>
       <r>   11.7188    0.0000 </r>
       <r>   13.1871    0.0000 </r>
       <r>   20.1236    0.0000 </r>
      </set>
      <set comment="kpoint 204">
       <r>    0.3181    1.0000 </r>
       <r>    1.4869    1.0000 </r>
       <r>    2.0251    1.0000 </r>
       <r>    2.8176    1.0000 </r>
       <r>    3.5428    1.0000 </r>
       <r>    3.5936    1.0000 </r>
       <r>    3.7898    1.0000 </r>
       <r>    4.1843    1.0000 </r>
       <r>    4.2042    1.0000 </r>
       <r>    4.3021    1.0000 </r>
       <r>    4.4885    1.0000 </r>
       <r>    5.0304    1.0000 </r>
       <r>    5.0804    1.0000 </r>
       <r>    5.2956    1.0000 </r>
       <r>    5.4860    1.0001 </r>
       <r>    5.5937    1.0018 </r>
       <r>    6.0040    0.7709 </r>
       <r>    6.8755   -0.0000 </r>
       <r>    7.0577   -0.0000 </r>
       <r>    9.8915   -0.0000 </r>
       <r>   10.3360   -0.0000 </r>
       <r>   11.9397    0.0000 </r>
       <r>   12.9009    0.0000 </r>
       <r>   20.1886    0.0000 </r>
      </set>
      <set comment="kpoint 205">
       <r>    0.2037    1.0000 </r>
       <r>    1.6332    1.0000 </r>
       <r>    2.2468    1.0000 </r>
       <r>    2.5930    1.0000 </r>
       <r>    3.5946    1.0000 </r>
       <r>    3.6609    1.0000 </r>
       <r>    3.6730    1.0000 </r>
       <r>    4.1989    1.0000 </r>
       <r>    4.2044    1.0000 </r>
       <r>    4.3536    1.0000 </r>
       <r>    4.4778    1.0000 </r>
       <r>    5.0244    1.0000 </r>
       <r>    5.0296    1.0000 </r>
       <r>    5.2985    1.0000 </r>
       <r>    5.3298    1.0000 </r>
       <r>    6.0425    0.6244 </r>
       <r>    6.0898    0.4259 </r>
       <r>    6.6225   -0.0004 </r>
       <r>    6.8226   -0.0000 </r>
       <r>   10.1333   -0.0000 </r>
       <r>   10.8027   -0.0000 </r>
       <r>   10.8847   -0.0000 </r>
       <r>   13.0801    0.0000 </r>
       <r>   20.4200    0.0000 </r>
      </set>
      <set comment="kpoint 206">
       <r>    0.3733    1.0000 </r>
       <r>    1.6844    1.0000 </r>
       <r>    2.1099    1.0000 </r>
       <r>    2.6380    1.0000 </r>
       <r>    3.6267    1.0000 </r>
       <r>    3.6656    1.0000 </r>
       <r>    3.7460    1.0000 </r>
       <r>    4.2175    1.0000 </r>
       <r>    4.2246    1.0000 </r>
       <r>    4.4279    1.0000 </r>
       <r>    4.4566    1.0000 </r>
       <r>    5.0353    1.0000 </r>
       <r>    5.0395    1.0000 </r>
       <r>    5.2918    1.0000 </r>
       <r>    5.3649    1.0000 </r>
       <r>    5.8353    1.0352 </r>
       <r>    6.0121    0.7420 </r>
       <r>    6.5978   -0.0006 </r>
       <r>    6.7520   -0.0000 </r>
       <r>    9.9588   -0.0000 </r>
       <r>   10.5097   -0.0000 </r>
       <r>   11.1769   -0.0000 </r>
       <r>   12.5124    0.0000 </r>
       <r>   20.6427    0.0000 </r>
      </set>
      <set comment="kpoint 207">
       <r>    0.4385    1.0000 </r>
       <r>    1.7227    1.0000 </r>
       <r>    2.0262    1.0000 </r>
       <r>    2.6633    1.0000 </r>
       <r>    3.6377    1.0000 </r>
       <r>    3.6688    1.0000 </r>
       <r>    3.7786    1.0000 </r>
       <r>    4.2250    1.0000 </r>
       <r>    4.2301    1.0000 </r>
       <r>    4.4099    1.0000 </r>
       <r>    4.4877    1.0000 </r>
       <r>    5.0433    1.0000 </r>
       <r>    5.0546    1.0000 </r>
       <r>    5.2856    1.0000 </r>
       <r>    5.4326    1.0000 </r>
       <r>    5.6586    1.0064 </r>
       <r>    5.9963    0.7972 </r>
       <r>    6.6240   -0.0003 </r>
       <r>    6.7171   -0.0000 </r>
       <r>    9.9059   -0.0000 </r>
       <r>   10.3906   -0.0000 </r>
       <r>   11.3880   -0.0000 </r>
       <r>   12.2239    0.0000 </r>
       <r>   20.7211    0.0000 </r>
      </set>
      <set comment="kpoint 208">
       <r>    0.4810    1.0000 </r>
       <r>    1.8310    1.0000 </r>
       <r>    2.0894    1.0000 </r>
       <r>    2.5420    1.0000 </r>
       <r>    3.6913    1.0000 </r>
       <r>    3.7359    1.0000 </r>
       <r>    3.7416    1.0000 </r>
       <r>    4.2441    1.0000 </r>
       <r>    4.2475    1.0000 </r>
       <r>    4.3737    1.0000 </r>
       <r>    4.5743    1.0000 </r>
       <r>    5.0541    1.0000 </r>
       <r>    5.0673    1.0000 </r>
       <r>    5.2589    1.0000 </r>
       <r>    5.3677    1.0000 </r>
       <r>    5.7547    1.0236 </r>
       <r>    5.9702    0.8757 </r>
       <r>    6.4446   -0.0122 </r>
       <r>    6.5751   -0.0011 </r>
       <r>    9.9764   -0.0000 </r>
       <r>   10.7424   -0.0000 </r>
       <r>   10.7964   -0.0000 </r>
       <r>   11.9542    0.0000 </r>
       <r>   20.8996    0.0000 </r>
      </set>
      <set comment="kpoint 209">
       <r>    0.5195    1.0000 </r>
       <r>    1.9303    1.0000 </r>
       <r>    2.0313    1.0000 </r>
       <r>    2.5115    1.0000 </r>
       <r>    3.7203    1.0000 </r>
       <r>    3.7301    1.0000 </r>
       <r>    3.7734    1.0000 </r>
       <r>    4.2543    1.0000 </r>
       <r>    4.2568    1.0000 </r>
       <r>    4.3526    1.0000 </r>
       <r>    4.6038    1.0000 </r>
       <r>    5.0787    1.0000 </r>
       <r>    5.0969    1.0000 </r>
       <r>    5.2398    1.0000 </r>
       <r>    5.3901    1.0000 </r>
       <r>    5.6510    1.0056 </r>
       <r>    5.9520    0.9206 </r>
       <r>    6.4556   -0.0104 </r>
       <r>    6.4740   -0.0078 </r>
       <r>   10.0201   -0.0000 </r>
       <r>   10.5944   -0.0000 </r>
       <r>   10.9610   -0.0000 </r>
       <r>   11.6678    0.0000 </r>
       <r>   20.9884    0.0000 </r>
      </set>
      <set comment="kpoint 210">
       <r>    0.5480    1.0000 </r>
       <r>    2.0341    1.0000 </r>
       <r>    2.0341    1.0000 </r>
       <r>    2.4277    1.0000 </r>
       <r>    3.7405    1.0000 </r>
       <r>    3.7708    1.0000 </r>
       <r>    3.7708    1.0000 </r>
       <r>    4.2682    1.0000 </r>
       <r>    4.2682    1.0000 </r>
       <r>    4.3284    1.0000 </r>
       <r>    4.6265    1.0000 </r>
       <r>    5.1441    1.0000 </r>
       <r>    5.1441    1.0000 </r>
       <r>    5.1868    1.0000 </r>
       <r>    5.3747    1.0000 </r>
       <r>    5.5997    1.0021 </r>
       <r>    5.9281    0.9669 </r>
       <r>    6.3981   -0.0217 </r>
       <r>    6.3981   -0.0217 </r>
       <r>   10.1103   -0.0000 </r>
       <r>   10.7680   -0.0000 </r>
       <r>   10.7680   -0.0000 </r>
       <r>   11.3802   -0.0000 </r>
       <r>   21.0804    0.0000 </r>
      </set>
      <set comment="kpoint 211">
       <r>    0.3578    1.0000 </r>
       <r>    1.7109    1.0000 </r>
       <r>    2.4111    1.0000 </r>
       <r>    2.4111    1.0000 </r>
       <r>    3.6876    1.0000 </r>
       <r>    3.7063    1.0000 </r>
       <r>    3.7063    1.0000 </r>
       <r>    4.2227    1.0000 </r>
       <r>    4.2227    1.0000 </r>
       <r>    4.4075    1.0000 </r>
       <r>    4.5432    1.0000 </r>
       <r>    5.0106    1.0000 </r>
       <r>    5.0106    1.0000 </r>
       <r>    5.3026    1.0000 </r>
       <r>    5.3026    1.0000 </r>
       <r>    6.0607    0.5488 </r>
       <r>    6.1092    0.3466 </r>
       <r>    6.4964   -0.0053 </r>
       <r>    6.4964   -0.0053 </r>
       <r>   10.1063   -0.0000 </r>
       <r>   10.5354   -0.0000 </r>
       <r>   10.5354   -0.0000 </r>
       <r>   12.4121    0.0000 </r>
       <r>   21.4881    0.0000 </r>
      </set>
      <set comment="kpoint 212">
       <r>    0.4618    1.0000 </r>
       <r>    1.8270    1.0000 </r>
       <r>    2.2272    1.0000 </r>
       <r>    2.5189    1.0000 </r>
       <r>    3.7175    1.0000 </r>
       <r>    3.7552    1.0000 </r>
       <r>    3.7842    1.0000 </r>
       <r>    4.2373    1.0000 </r>
       <r>    4.2379    1.0000 </r>
       <r>    4.3594    1.0000 </r>
       <r>    4.6666    1.0000 </r>
       <r>    4.9988    1.0000 </r>
       <r>    5.0298    1.0000 </r>
       <r>    5.2896    1.0000 </r>
       <r>    5.3093    1.0000 </r>
       <r>    5.8993    1.0048 </r>
       <r>    6.0426    0.6241 </r>
       <r>    6.4264   -0.0156 </r>
       <r>    6.4419   -0.0126 </r>
       <r>    9.8750   -0.0000 </r>
       <r>   10.3306   -0.0000 </r>
       <r>   10.7274   -0.0000 </r>
       <r>   11.8587    0.0000 </r>
       <r>   21.6681    0.0000 </r>
      </set>
      <set comment="kpoint 213">
       <r>    0.4983    1.0000 </r>
       <r>    1.9234    1.0000 </r>
       <r>    2.1077    1.0000 </r>
       <r>    2.5559    1.0000 </r>
       <r>    3.7256    1.0000 </r>
       <r>    3.7800    1.0000 </r>
       <r>    3.8198    1.0000 </r>
       <r>    4.2392    1.0000 </r>
       <r>    4.2446    1.0000 </r>
       <r>    4.3413    1.0000 </r>
       <r>    4.6987    1.0000 </r>
       <r>    4.9938    1.0000 </r>
       <r>    5.0545    1.0000 </r>
       <r>    5.2800    1.0000 </r>
       <r>    5.3475    1.0000 </r>
       <r>    5.7498    1.0225 </r>
       <r>    6.0278    0.6828 </r>
       <r>    6.4078   -0.0195 </r>
       <r>    6.4558   -0.0103 </r>
       <r>    9.7752   -0.0000 </r>
       <r>   10.2635   -0.0000 </r>
       <r>   10.9130   -0.0000 </r>
       <r>   11.5713    0.0000 </r>
       <r>   21.7349    0.0000 </r>
      </set>
      <set comment="kpoint 214">
       <r>    0.5166    1.0000 </r>
       <r>    1.9777    1.0000 </r>
       <r>    2.2477    1.0000 </r>
       <r>    2.4480    1.0000 </r>
       <r>    3.8021    1.0000 </r>
       <r>    3.8207    1.0000 </r>
       <r>    3.8385    1.0000 </r>
       <r>    4.2505    1.0000 </r>
       <r>    4.2511    1.0000 </r>
       <r>    4.3118    1.0000 </r>
       <r>    4.7860    1.0000 </r>
       <r>    5.0119    1.0000 </r>
       <r>    5.0303    1.0000 </r>
       <r>    5.2455    1.0000 </r>
       <r>    5.2898    1.0000 </r>
       <r>    5.8612    1.0300 </r>
       <r>    6.0295    0.6763 </r>
       <r>    6.2641   -0.0204 </r>
       <r>    6.3207   -0.0354 </r>
       <r>    9.7876   -0.0000 </r>
       <r>   10.3875   -0.0000 </r>
       <r>   10.4732   -0.0000 </r>
       <r>   11.3280   -0.0000 </r>
       <r>   22.1066    0.0000 </r>
      </set>
      <set comment="kpoint 215">
       <r>    0.5349    1.0000 </r>
       <r>    2.0961    1.0000 </r>
       <r>    2.1682    1.0000 </r>
       <r>    2.4452    1.0000 </r>
       <r>    3.8249    1.0000 </r>
       <r>    3.8544    1.0000 </r>
       <r>    3.8733    1.0000 </r>
       <r>    4.2513    1.0000 </r>
       <r>    4.2587    1.0000 </r>
       <r>    4.2926    1.0000 </r>
       <r>    4.7964    1.0000 </r>
       <r>    5.0207    1.0000 </r>
       <r>    5.0657    1.0000 </r>
       <r>    5.2255    1.0000 </r>
       <r>    5.2927    1.0000 </r>
       <r>    5.7864    1.0307 </r>
       <r>    6.0141    0.7349 </r>
       <r>    6.2615   -0.0186 </r>
       <r>    6.2649   -0.0209 </r>
       <r>    9.7505   -0.0000 </r>
       <r>   10.3237   -0.0000 </r>
       <r>   10.5813   -0.0000 </r>
       <r>   11.0495   -0.0000 </r>
       <r>   22.2087    0.0000 </r>
      </set>
      <set comment="kpoint 216">
       <r>    0.5471    1.0000 </r>
       <r>    2.1906    1.0000 </r>
       <r>    2.1906    1.0000 </r>
       <r>    2.3723    1.0000 </r>
       <r>    3.8725    1.0000 </r>
       <r>    3.8725    1.0000 </r>
       <r>    3.9095    1.0000 </r>
       <r>    4.2607    1.0000 </r>
       <r>    4.2607    1.0000 </r>
       <r>    4.2704    1.0000 </r>
       <r>    4.7869    1.0000 </r>
       <r>    5.0853    1.0000 </r>
       <r>    5.0853    1.0000 </r>
       <r>    5.1734    1.0000 </r>
       <r>    5.2808    1.0000 </r>
       <r>    5.7735    1.0279 </r>
       <r>    5.9942    0.8041 </r>
       <r>    6.2117    0.0411 </r>
       <r>    6.2117    0.0411 </r>
       <r>    9.7608   -0.0000 </r>
       <r>   10.4534   -0.0000 </r>
       <r>   10.4534   -0.0000 </r>
       <r>   10.7672   -0.0000 </r>
       <r>   22.3268    0.0000 </r>
      </set>
      <set comment="kpoint 217">
       <r>    0.5370    1.0000 </r>
       <r>    2.1162    1.0000 </r>
       <r>    2.3505    1.0000 </r>
       <r>    2.3505    1.0000 </r>
       <r>    3.9080    1.0000 </r>
       <r>    3.9228    1.0000 </r>
       <r>    3.9228    1.0000 </r>
       <r>    4.2535    1.0000 </r>
       <r>    4.2535    1.0000 </r>
       <r>    4.2699    1.0000 </r>
       <r>    4.9326    1.0000 </r>
       <r>    4.9730    1.0000 </r>
       <r>    4.9730    1.0000 </r>
       <r>    5.2215    1.0000 </r>
       <r>    5.2215    1.0000 </r>
       <r>    5.9028    1.0012 </r>
       <r>    6.0519    0.5857 </r>
       <r>    6.1541    0.1835 </r>
       <r>    6.1541    0.1835 </r>
       <r>    9.6540   -0.0000 </r>
       <r>   10.2857   -0.0000 </r>
       <r>   10.2857   -0.0000 </r>
       <r>   10.8439   -0.0000 </r>
       <r>   23.1763    0.0000 </r>
      </set>
      <set comment="kpoint 218">
       <r>    0.5436    1.0000 </r>
       <r>    2.2219    1.0000 </r>
       <r>    2.2600    1.0000 </r>
       <r>    2.3855    1.0000 </r>
       <r>    3.9449    1.0000 </r>
       <r>    3.9717    1.0000 </r>
       <r>    3.9762    1.0000 </r>
       <r>    4.2472    1.0000 </r>
       <r>    4.2525    1.0000 </r>
       <r>    4.2555    1.0000 </r>
       <r>    4.9273    1.0000 </r>
       <r>    4.9385    1.0000 </r>
       <r>    5.0130    1.0000 </r>
       <r>    5.1976    1.0000 </r>
       <r>    5.2105    1.0000 </r>
       <r>    5.8847    1.0174 </r>
       <r>    6.0435    0.6203 </r>
       <r>    6.1201    0.3038 </r>
       <r>    6.1324    0.2578 </r>
       <r>    9.5961   -0.0000 </r>
       <r>   10.2246   -0.0000 </r>
       <r>   10.3494   -0.0000 </r>
       <r>   10.5944   -0.0000 </r>
       <r>   23.2515    0.0000 </r>
      </set>
      <set comment="kpoint 219">
       <r>    0.5464    1.0000 </r>
       <r>    2.2920    1.0000 </r>
       <r>    2.2920    1.0000 </r>
       <r>    2.3381    1.0000 </r>
       <r>    4.0099    1.0000 </r>
       <r>    4.0099    1.0000 </r>
       <r>    4.0430    1.0000 </r>
       <r>    4.2349    1.0000 </r>
       <r>    4.2448    1.0000 </r>
       <r>    4.2448    1.0000 </r>
       <r>    4.8863    1.0000 </r>
       <r>    4.9807    1.0000 </r>
       <r>    4.9807    1.0000 </r>
       <r>    5.1646    1.0000 </r>
       <r>    5.1972    1.0000 </r>
       <r>    5.9175    0.9830 </r>
       <r>    6.0350    0.6545 </r>
       <r>    6.0893    0.4282 </r>
       <r>    6.0893    0.4282 </r>
       <r>    9.5459   -0.0000 </r>
       <r>   10.2715   -0.0000 </r>
       <r>   10.2715   -0.0000 </r>
       <r>   10.3583   -0.0000 </r>
       <r>   23.5237    0.0000 </r>
      </set>
      <set comment="kpoint 220">
       <r>    0.5461    1.0000 </r>
       <r>    2.3265    1.0000 </r>
       <r>    2.3265    1.0000 </r>
       <r>    2.3265    1.0000 </r>
       <r>    4.0961    1.0000 </r>
       <r>    4.0961    1.0000 </r>
       <r>    4.0961    1.0000 </r>
       <r>    4.2229    1.0000 </r>
       <r>    4.2229    1.0000 </r>
       <r>    4.2229    1.0000 </r>
       <r>    4.9194    1.0000 </r>
       <r>    4.9194    1.0000 </r>
       <r>    4.9194    1.0000 </r>
       <r>    5.1616    1.0000 </r>
       <r>    5.1616    1.0000 </r>
       <r>    5.9752    0.8617 </r>
       <r>    6.0488    0.5983 </r>
       <r>    6.0488    0.5983 </r>
       <r>    6.0488    0.5983 </r>
       <r>    9.4734   -0.0000 </r>
       <r>   10.2124   -0.0000 </r>
       <r>   10.2124   -0.0000 </r>
       <r>   10.2124   -0.0000 </r>
       <r>   24.2394    0.0000 </r>
      </set>
     </set>
    </set>
   </array>
  </eigenvalues>
  <separator name="orbital magnetization" >
   <v name="MAGDIPOLOUT">      0.00000000      0.00000000      0.00000000</v>
  </separator>
  <dos>
   <i name="efermi">      6.07223669 </i>
   <total>
    <array>
     <dimension dim="1">gridpoints</dimension>
     <dimension dim="2">spin</dimension>
     <field>energy</field>
     <field>total</field>
     <field>integrated</field>
     <set>
      <set comment="spin 1">
       <r>    -5.7888     0.0000     0.0000 </r>
       <r>    -5.7727     0.0000     0.0000 </r>
       <r>    -5.7567     0.0000     0.0000 </r>
       <r>    -5.7407     0.0000     0.0000 </r>
       <r>    -5.7247     0.0000     0.0000 </r>
       <r>    -5.7086     0.0000     0.0000 </r>
       <r>    -5.6926     0.0000     0.0000 </r>
       <r>    -5.6766     0.0000     0.0000 </r>
       <r>    -5.6606     0.0000     0.0000 </r>
       <r>    -5.6446     0.0000     0.0000 </r>
       <r>    -5.6285     0.0000     0.0000 </r>
       <r>    -5.6125     0.0000     0.0000 </r>
       <r>    -5.5965     0.0000     0.0000 </r>
       <r>    -5.5805     0.0000     0.0000 </r>
       <r>    -5.5644     0.0000     0.0000 </r>
       <r>    -5.5484     0.0000     0.0000 </r>
       <r>    -5.5324     0.0000     0.0000 </r>
       <r>    -5.5164     0.0000     0.0000 </r>
       <r>    -5.5004     0.0000     0.0000 </r>
       <r>    -5.4843     0.0000     0.0000 </r>
       <r>    -5.4683     0.0000     0.0000 </r>
       <r>    -5.4523     0.0000     0.0000 </r>
       <r>    -5.4363     0.0000     0.0000 </r>
       <r>    -5.4202     0.0000     0.0000 </r>
       <r>    -5.4042    -0.0000    -0.0000 </r>
       <r>    -5.3882    -0.0000    -0.0000 </r>
       <r>    -5.3722    -0.0000    -0.0000 </r>
       <r>    -5.3562    -0.0000    -0.0000 </r>
       <r>    -5.3401    -0.0000    -0.0000 </r>
       <r>    -5.3241    -0.0000    -0.0000 </r>
       <r>    -5.3081    -0.0000    -0.0000 </r>
       <r>    -5.2921    -0.0000    -0.0000 </r>
       <r>    -5.2760    -0.0000    -0.0000 </r>
       <r>    -5.2600    -0.0000    -0.0000 </r>
       <r>    -5.2440    -0.0000    -0.0000 </r>
       <r>    -5.2280    -0.0000    -0.0000 </r>
       <r>    -5.2120    -0.0000    -0.0000 </r>
       <r>    -5.1959    -0.0000    -0.0000 </r>
       <r>    -5.1799    -0.0000    -0.0000 </r>
       <r>    -5.1639    -0.0000    -0.0000 </r>
       <r>    -5.1479    -0.0000    -0.0000 </r>
       <r>    -5.1319    -0.0000    -0.0000 </r>
       <r>    -5.1158    -0.0000    -0.0000 </r>
       <r>    -5.0998    -0.0000    -0.0000 </r>
       <r>    -5.0838    -0.0000    -0.0000 </r>
       <r>    -5.0678    -0.0000    -0.0000 </r>
       <r>    -5.0517    -0.0000    -0.0000 </r>
       <r>    -5.0357    -0.0000    -0.0000 </r>
       <r>    -5.0197    -0.0000    -0.0000 </r>
       <r>    -5.0037    -0.0000    -0.0000 </r>
       <r>    -4.9877    -0.0000    -0.0000 </r>
       <r>    -4.9716    -0.0000    -0.0000 </r>
       <r>    -4.9556    -0.0000    -0.0000 </r>
       <r>    -4.9396    -0.0000    -0.0000 </r>
       <r>    -4.9236    -0.0000    -0.0000 </r>
       <r>    -4.9075    -0.0000    -0.0000 </r>
       <r>    -4.8915    -0.0000    -0.0000 </r>
       <r>    -4.8755    -0.0000    -0.0000 </r>
       <r>    -4.8595    -0.0000    -0.0000 </r>
       <r>    -4.8435    -0.0000    -0.0000 </r>
       <r>    -4.8274    -0.0000    -0.0000 </r>
       <r>    -4.8114    -0.0000    -0.0000 </r>
       <r>    -4.7954    -0.0000    -0.0000 </r>
       <r>    -4.7794    -0.0000    -0.0000 </r>
       <r>    -4.7633    -0.0000    -0.0000 </r>
       <r>    -4.7473    -0.0000    -0.0000 </r>
       <r>    -4.7313    -0.0000    -0.0000 </r>
       <r>    -4.7153    -0.0000    -0.0000 </r>
       <r>    -4.6993    -0.0000    -0.0000 </r>
       <r>    -4.6832    -0.0000    -0.0000 </r>
       <r>    -4.6672    -0.0000    -0.0000 </r>
       <r>    -4.6512    -0.0000    -0.0000 </r>
       <r>    -4.6352    -0.0000    -0.0000 </r>
       <r>    -4.6191    -0.0000    -0.0000 </r>
       <r>    -4.6031    -0.0000    -0.0000 </r>
       <r>    -4.5871    -0.0000    -0.0000 </r>
       <r>    -4.5711    -0.0000    -0.0000 </r>
       <r>    -4.5551    -0.0000    -0.0000 </r>
       <r>    -4.5390    -0.0000    -0.0000 </r>
       <r>    -4.5230    -0.0000    -0.0000 </r>
       <r>    -4.5070    -0.0000    -0.0000 </r>
       <r>    -4.4910    -0.0000    -0.0000 </r>
       <r>    -4.4749    -0.0000    -0.0000 </r>
       <r>    -4.4589    -0.0000    -0.0000 </r>
       <r>    -4.4429    -0.0000    -0.0000 </r>
       <r>    -4.4269    -0.0000    -0.0000 </r>
       <r>    -4.4109    -0.0000    -0.0000 </r>
       <r>    -4.3948    -0.0000    -0.0000 </r>
       <r>    -4.3788    -0.0000    -0.0000 </r>
       <r>    -4.3628    -0.0000    -0.0000 </r>
       <r>    -4.3468    -0.0000    -0.0000 </r>
       <r>    -4.3307    -0.0000    -0.0000 </r>
       <r>    -4.3147    -0.0000    -0.0000 </r>
       <r>    -4.2987    -0.0000    -0.0000 </r>
       <r>    -4.2827    -0.0000    -0.0000 </r>
       <r>    -4.2667    -0.0000    -0.0000 </r>
       <r>    -4.2506    -0.0001    -0.0000 </r>
       <r>    -4.2346    -0.0001    -0.0000 </r>
       <r>    -4.2186    -0.0001    -0.0000 </r>
       <r>    -4.2026    -0.0002    -0.0000 </r>
       <r>    -4.1865    -0.0002    -0.0000 </r>
       <r>    -4.1705    -0.0003    -0.0000 </r>
       <r>    -4.1545    -0.0004    -0.0000 </r>
       <r>    -4.1385    -0.0005    -0.0000 </r>
       <r>    -4.1225    -0.0006    -0.0000 </r>
       <r>    -4.1064    -0.0008    -0.0001 </r>
       <r>    -4.0904    -0.0009    -0.0001 </r>
       <r>    -4.0744    -0.0011    -0.0001 </r>
       <r>    -4.0584    -0.0013    -0.0001 </r>
       <r>    -4.0423    -0.0015    -0.0001 </r>
       <r>    -4.0263    -0.0017    -0.0002 </r>
       <r>    -4.0103    -0.0018    -0.0002 </r>
       <r>    -3.9943    -0.0019    -0.0002 </r>
       <r>    -3.9783    -0.0019    -0.0002 </r>
       <r>    -3.9622    -0.0017    -0.0003 </r>
       <r>    -3.9462    -0.0015    -0.0003 </r>
       <r>    -3.9302    -0.0010    -0.0003 </r>
       <r>    -3.9142    -0.0003    -0.0003 </r>
       <r>    -3.8981     0.0006    -0.0003 </r>
       <r>    -3.8821     0.0019    -0.0003 </r>
       <r>    -3.8661     0.0034    -0.0002 </r>
       <r>    -3.8501     0.0053    -0.0001 </r>
       <r>    -3.8341     0.0075    -0.0000 </r>
       <r>    -3.8180     0.0101     0.0001 </r>
       <r>    -3.8020     0.0130     0.0004 </r>
       <r>    -3.7860     0.0162     0.0006 </r>
       <r>    -3.7700     0.0196     0.0009 </r>
       <r>    -3.7540     0.0233     0.0013 </r>
       <r>    -3.7379     0.0272     0.0017 </r>
       <r>    -3.7219     0.0312     0.0022 </r>
       <r>    -3.7059     0.0353     0.0028 </r>
       <r>    -3.6899     0.0394     0.0034 </r>
       <r>    -3.6738     0.0435     0.0041 </r>
       <r>    -3.6578     0.0475     0.0049 </r>
       <r>    -3.6418     0.0515     0.0057 </r>
       <r>    -3.6258     0.0553     0.0066 </r>
       <r>    -3.6098     0.0589     0.0075 </r>
       <r>    -3.5937     0.0624     0.0085 </r>
       <r>    -3.5777     0.0658     0.0096 </r>
       <r>    -3.5617     0.0690     0.0107 </r>
       <r>    -3.5457     0.0720     0.0119 </r>
       <r>    -3.5296     0.0750     0.0131 </r>
       <r>    -3.5136     0.0778     0.0143 </r>
       <r>    -3.4976     0.0805     0.0156 </r>
       <r>    -3.4816     0.0831     0.0169 </r>
       <r>    -3.4656     0.0855     0.0183 </r>
       <r>    -3.4495     0.0878     0.0197 </r>
       <r>    -3.4335     0.0900     0.0211 </r>
       <r>    -3.4175     0.0921     0.0226 </r>
       <r>    -3.4015     0.0940     0.0241 </r>
       <r>    -3.3854     0.0958     0.0257 </r>
       <r>    -3.3694     0.0975     0.0272 </r>
       <r>    -3.3534     0.0991     0.0288 </r>
       <r>    -3.3374     0.1007     0.0304 </r>
       <r>    -3.3214     0.1023     0.0321 </r>
       <r>    -3.3053     0.1040     0.0337 </r>
       <r>    -3.2893     0.1057     0.0354 </r>
       <r>    -3.2733     0.1076     0.0371 </r>
       <r>    -3.2573     0.1096     0.0389 </r>
       <r>    -3.2412     0.1118     0.0407 </r>
       <r>    -3.2252     0.1141     0.0425 </r>
       <r>    -3.2092     0.1165     0.0444 </r>
       <r>    -3.1932     0.1189     0.0463 </r>
       <r>    -3.1772     0.1212     0.0482 </r>
       <r>    -3.1611     0.1235     0.0502 </r>
       <r>    -3.1451     0.1256     0.0522 </r>
       <r>    -3.1291     0.1274     0.0543 </r>
       <r>    -3.1131     0.1289     0.0563 </r>
       <r>    -3.0970     0.1301     0.0584 </r>
       <r>    -3.0810     0.1311     0.0605 </r>
       <r>    -3.0650     0.1317     0.0626 </r>
       <r>    -3.0490     0.1322     0.0647 </r>
       <r>    -3.0330     0.1326     0.0669 </r>
       <r>    -3.0169     0.1330     0.0690 </r>
       <r>    -3.0009     0.1336     0.0711 </r>
       <r>    -2.9849     0.1344     0.0733 </r>
       <r>    -2.9689     0.1355     0.0755 </r>
       <r>    -2.9528     0.1371     0.0777 </r>
       <r>    -2.9368     0.1391     0.0799 </r>
       <r>    -2.9208     0.1415     0.0822 </r>
       <r>    -2.9048     0.1443     0.0845 </r>
       <r>    -2.8888     0.1474     0.0868 </r>
       <r>    -2.8727     0.1505     0.0892 </r>
       <r>    -2.8567     0.1537     0.0917 </r>
       <r>    -2.8407     0.1568     0.0942 </r>
       <r>    -2.8247     0.1595     0.0968 </r>
       <r>    -2.8086     0.1618     0.0994 </r>
       <r>    -2.7926     0.1637     0.1020 </r>
       <r>    -2.7766     0.1650     0.1046 </r>
       <r>    -2.7606     0.1659     0.1073 </r>
       <r>    -2.7446     0.1662     0.1100 </r>
       <r>    -2.7285     0.1662     0.1126 </r>
       <r>    -2.7125     0.1660     0.1153 </r>
       <r>    -2.6965     0.1656     0.1179 </r>
       <r>    -2.6805     0.1653     0.1206 </r>
       <r>    -2.6644     0.1650     0.1232 </r>
       <r>    -2.6484     0.1651     0.1259 </r>
       <r>    -2.6324     0.1655     0.1285 </r>
       <r>    -2.6164     0.1662     0.1312 </r>
       <r>    -2.6004     0.1673     0.1339 </r>
       <r>    -2.5843     0.1688     0.1366 </r>
       <r>    -2.5683     0.1707     0.1393 </r>
       <r>    -2.5523     0.1728     0.1421 </r>
       <r>    -2.5363     0.1752     0.1449 </r>
       <r>    -2.5202     0.1777     0.1477 </r>
       <r>    -2.5042     0.1804     0.1506 </r>
       <r>    -2.4882     0.1831     0.1535 </r>
       <r>    -2.4722     0.1858     0.1565 </r>
       <r>    -2.4562     0.1886     0.1595 </r>
       <r>    -2.4401     0.1914     0.1626 </r>
       <r>    -2.4241     0.1941     0.1657 </r>
       <r>    -2.4081     0.1968     0.1689 </r>
       <r>    -2.3921     0.1994     0.1721 </r>
       <r>    -2.3761     0.2018     0.1753 </r>
       <r>    -2.3600     0.2040     0.1786 </r>
       <r>    -2.3440     0.2059     0.1819 </r>
       <r>    -2.3280     0.2074     0.1852 </r>
       <r>    -2.3120     0.2085     0.1885 </r>
       <r>    -2.2959     0.2090     0.1919 </r>
       <r>    -2.2799     0.2089     0.1952 </r>
       <r>    -2.2639     0.2083     0.1986 </r>
       <r>    -2.2479     0.2072     0.2019 </r>
       <r>    -2.2319     0.2058     0.2052 </r>
       <r>    -2.2158     0.2041     0.2085 </r>
       <r>    -2.1998     0.2024     0.2117 </r>
       <r>    -2.1838     0.2008     0.2149 </r>
       <r>    -2.1678     0.1996     0.2181 </r>
       <r>    -2.1517     0.1991     0.2213 </r>
       <r>    -2.1357     0.1993     0.2245 </r>
       <r>    -2.1197     0.2004     0.2277 </r>
       <r>    -2.1037     0.2025     0.2310 </r>
       <r>    -2.0877     0.2056     0.2342 </r>
       <r>    -2.0716     0.2097     0.2376 </r>
       <r>    -2.0556     0.2147     0.2410 </r>
       <r>    -2.0396     0.2203     0.2446 </r>
       <r>    -2.0236     0.2262     0.2482 </r>
       <r>    -2.0075     0.2323     0.2519 </r>
       <r>    -1.9915     0.2382     0.2557 </r>
       <r>    -1.9755     0.2436     0.2596 </r>
       <r>    -1.9595     0.2482     0.2636 </r>
       <r>    -1.9435     0.2519     0.2677 </r>
       <r>    -1.9274     0.2545     0.2717 </r>
       <r>    -1.9114     0.2559     0.2758 </r>
       <r>    -1.8954     0.2562     0.2799 </r>
       <r>    -1.8794     0.2554     0.2840 </r>
       <r>    -1.8633     0.2536     0.2881 </r>
       <r>    -1.8473     0.2512     0.2921 </r>
       <r>    -1.8313     0.2483     0.2961 </r>
       <r>    -1.8153     0.2452     0.3000 </r>
       <r>    -1.7993     0.2421     0.3039 </r>
       <r>    -1.7832     0.2395     0.3077 </r>
       <r>    -1.7672     0.2374     0.3115 </r>
       <r>    -1.7512     0.2362     0.3153 </r>
       <r>    -1.7352     0.2359     0.3191 </r>
       <r>    -1.7191     0.2367     0.3229 </r>
       <r>    -1.7031     0.2385     0.3267 </r>
       <r>    -1.6871     0.2414     0.3306 </r>
       <r>    -1.6711     0.2453     0.3345 </r>
       <r>    -1.6551     0.2500     0.3385 </r>
       <r>    -1.6390     0.2553     0.3426 </r>
       <r>    -1.6230     0.2612     0.3468 </r>
       <r>    -1.6070     0.2673     0.3511 </r>
       <r>    -1.5910     0.2734     0.3555 </r>
       <r>    -1.5749     0.2793     0.3599 </r>
       <r>    -1.5589     0.2848     0.3645 </r>
       <r>    -1.5429     0.2897     0.3691 </r>
       <r>    -1.5269     0.2939     0.3738 </r>
       <r>    -1.5109     0.2974     0.3786 </r>
       <r>    -1.4948     0.3000     0.3834 </r>
       <r>    -1.4788     0.3018     0.3883 </r>
       <r>    -1.4628     0.3030     0.3931 </r>
       <r>    -1.4468     0.3036     0.3980 </r>
       <r>    -1.4307     0.3040     0.4028 </r>
       <r>    -1.4147     0.3042     0.4077 </r>
       <r>    -1.3987     0.3046     0.4126 </r>
       <r>    -1.3827     0.3053     0.4175 </r>
       <r>    -1.3667     0.3066     0.4224 </r>
       <r>    -1.3506     0.3086     0.4274 </r>
       <r>    -1.3346     0.3114     0.4323 </r>
       <r>    -1.3186     0.3149     0.4374 </r>
       <r>    -1.3026     0.3191     0.4425 </r>
       <r>    -1.2865     0.3238     0.4477 </r>
       <r>    -1.2705     0.3287     0.4530 </r>
       <r>    -1.2545     0.3337     0.4583 </r>
       <r>    -1.2385     0.3383     0.4637 </r>
       <r>    -1.2225     0.3424     0.4692 </r>
       <r>    -1.2064     0.3457     0.4747 </r>
       <r>    -1.1904     0.3479     0.4803 </r>
       <r>    -1.1744     0.3489     0.4859 </r>
       <r>    -1.1584     0.3487     0.4915 </r>
       <r>    -1.1423     0.3472     0.4971 </r>
       <r>    -1.1263     0.3446     0.5026 </r>
       <r>    -1.1103     0.3411     0.5080 </r>
       <r>    -1.0943     0.3368     0.5134 </r>
       <r>    -1.0783     0.3320     0.5188 </r>
       <r>    -1.0622     0.3271     0.5240 </r>
       <r>    -1.0462     0.3223     0.5292 </r>
       <r>    -1.0302     0.3180     0.5343 </r>
       <r>    -1.0142     0.3145     0.5393 </r>
       <r>    -0.9982     0.3118     0.5443 </r>
       <r>    -0.9821     0.3103     0.5493 </r>
       <r>    -0.9661     0.3099     0.5542 </r>
       <r>    -0.9501     0.3106     0.5592 </r>
       <r>    -0.9341     0.3124     0.5642 </r>
       <r>    -0.9180     0.3149     0.5693 </r>
       <r>    -0.9020     0.3180     0.5744 </r>
       <r>    -0.8860     0.3212     0.5795 </r>
       <r>    -0.8700     0.3242     0.5847 </r>
       <r>    -0.8540     0.3267     0.5899 </r>
       <r>    -0.8379     0.3282     0.5952 </r>
       <r>    -0.8219     0.3286     0.6004 </r>
       <r>    -0.8059     0.3276     0.6057 </r>
       <r>    -0.7899     0.3251     0.6109 </r>
       <r>    -0.7738     0.3213     0.6161 </r>
       <r>    -0.7578     0.3164     0.6211 </r>
       <r>    -0.7418     0.3105     0.6261 </r>
       <r>    -0.7258     0.3042     0.6310 </r>
       <r>    -0.7098     0.2978     0.6357 </r>
       <r>    -0.6937     0.2919     0.6404 </r>
       <r>    -0.6777     0.2868     0.6450 </r>
       <r>    -0.6617     0.2831     0.6495 </r>
       <r>    -0.6457     0.2809     0.6540 </r>
       <r>    -0.6296     0.2804     0.6585 </r>
       <r>    -0.6136     0.2817     0.6631 </r>
       <r>    -0.5976     0.2846     0.6676 </r>
       <r>    -0.5816     0.2890     0.6722 </r>
       <r>    -0.5656     0.2944     0.6770 </r>
       <r>    -0.5495     0.3004     0.6818 </r>
       <r>    -0.5335     0.3067     0.6867 </r>
       <r>    -0.5175     0.3127     0.6917 </r>
       <r>    -0.5015     0.3181     0.6968 </r>
       <r>    -0.4854     0.3225     0.7020 </r>
       <r>    -0.4694     0.3257     0.7072 </r>
       <r>    -0.4534     0.3275     0.7124 </r>
       <r>    -0.4374     0.3281     0.7177 </r>
       <r>    -0.4214     0.3275     0.7229 </r>
       <r>    -0.4053     0.3261     0.7282 </r>
       <r>    -0.3893     0.3240     0.7334 </r>
       <r>    -0.3733     0.3218     0.7385 </r>
       <r>    -0.3573     0.3197     0.7436 </r>
       <r>    -0.3412     0.3182     0.7487 </r>
       <r>    -0.3252     0.3175     0.7538 </r>
       <r>    -0.3092     0.3181     0.7589 </r>
       <r>    -0.2932     0.3199     0.7640 </r>
       <r>    -0.2772     0.3231     0.7692 </r>
       <r>    -0.2611     0.3277     0.7745 </r>
       <r>    -0.2451     0.3334     0.7798 </r>
       <r>    -0.2291     0.3402     0.7853 </r>
       <r>    -0.2131     0.3478     0.7908 </r>
       <r>    -0.1970     0.3558     0.7965 </r>
       <r>    -0.1810     0.3640     0.8024 </r>
       <r>    -0.1650     0.3720     0.8083 </r>
       <r>    -0.1490     0.3797     0.8144 </r>
       <r>    -0.1330     0.3869     0.8206 </r>
       <r>    -0.1169     0.3933     0.8269 </r>
       <r>    -0.1009     0.3989     0.8333 </r>
       <r>    -0.0849     0.4037     0.8398 </r>
       <r>    -0.0689     0.4076     0.8463 </r>
       <r>    -0.0528     0.4107     0.8529 </r>
       <r>    -0.0368     0.4130     0.8595 </r>
       <r>    -0.0208     0.4147     0.8661 </r>
       <r>    -0.0048     0.4157     0.8728 </r>
       <r>     0.0112     0.4162     0.8795 </r>
       <r>     0.0273     0.4162     0.8861 </r>
       <r>     0.0433     0.4159     0.8928 </r>
       <r>     0.0593     0.4153     0.8994 </r>
       <r>     0.0753     0.4145     0.9061 </r>
       <r>     0.0914     0.4138     0.9127 </r>
       <r>     0.1074     0.4131     0.9193 </r>
       <r>     0.1234     0.4127     0.9260 </r>
       <r>     0.1394     0.4128     0.9326 </r>
       <r>     0.1554     0.4136     0.9392 </r>
       <r>     0.1715     0.4153     0.9458 </r>
       <r>     0.1875     0.4181     0.9525 </r>
       <r>     0.2035     0.4221     0.9593 </r>
       <r>     0.2195     0.4276     0.9662 </r>
       <r>     0.2356     0.4345     0.9731 </r>
       <r>     0.2516     0.4428     0.9802 </r>
       <r>     0.2676     0.4525     0.9875 </r>
       <r>     0.2836     0.4636     0.9949 </r>
       <r>     0.2996     0.4756     1.0025 </r>
       <r>     0.3157     0.4884     1.0103 </r>
       <r>     0.3317     0.5015     1.0184 </r>
       <r>     0.3477     0.5146     1.0266 </r>
       <r>     0.3637     0.5272     1.0351 </r>
       <r>     0.3797     0.5389     1.0437 </r>
       <r>     0.3958     0.5492     1.0525 </r>
       <r>     0.4118     0.5577     1.0614 </r>
       <r>     0.4278     0.5638     1.0705 </r>
       <r>     0.4438     0.5674     1.0796 </r>
       <r>     0.4599     0.5682     1.0887 </r>
       <r>     0.4759     0.5659     1.0977 </r>
       <r>     0.4919     0.5604     1.1067 </r>
       <r>     0.5079     0.5518     1.1156 </r>
       <r>     0.5239     0.5401     1.1242 </r>
       <r>     0.5400     0.5257     1.1326 </r>
       <r>     0.5560     0.5088     1.1408 </r>
       <r>     0.5720     0.4899     1.1486 </r>
       <r>     0.5880     0.4694     1.1562 </r>
       <r>     0.6041     0.4480     1.1633 </r>
       <r>     0.6201     0.4263     1.1702 </r>
       <r>     0.6361     0.4049     1.1766 </r>
       <r>     0.6521     0.3845     1.1828 </r>
       <r>     0.6681     0.3656     1.1887 </r>
       <r>     0.6842     0.3488     1.1943 </r>
       <r>     0.7002     0.3344     1.1996 </r>
       <r>     0.7162     0.3228     1.2048 </r>
       <r>     0.7322     0.3142     1.2098 </r>
       <r>     0.7483     0.3085     1.2148 </r>
       <r>     0.7643     0.3059     1.2197 </r>
       <r>     0.7803     0.3061     1.2246 </r>
       <r>     0.7963     0.3089     1.2295 </r>
       <r>     0.8123     0.3141     1.2345 </r>
       <r>     0.8284     0.3212     1.2397 </r>
       <r>     0.8444     0.3299     1.2450 </r>
       <r>     0.8604     0.3399     1.2504 </r>
       <r>     0.8764     0.3509     1.2560 </r>
       <r>     0.8925     0.3625     1.2619 </r>
       <r>     0.9085     0.3745     1.2679 </r>
       <r>     0.9245     0.3868     1.2741 </r>
       <r>     0.9405     0.3990     1.2804 </r>
       <r>     0.9565     0.4112     1.2870 </r>
       <r>     0.9726     0.4232     1.2938 </r>
       <r>     0.9886     0.4349     1.3008 </r>
       <r>     1.0046     0.4463     1.3079 </r>
       <r>     1.0206     0.4574     1.3153 </r>
       <r>     1.0367     0.4682     1.3228 </r>
       <r>     1.0527     0.4786     1.3304 </r>
       <r>     1.0687     0.4886     1.3383 </r>
       <r>     1.0847     0.4983     1.3462 </r>
       <r>     1.1007     0.5076     1.3544 </r>
       <r>     1.1168     0.5167     1.3627 </r>
       <r>     1.1328     0.5255     1.3711 </r>
       <r>     1.1488     0.5341     1.3796 </r>
       <r>     1.1648     0.5427     1.3883 </r>
       <r>     1.1809     0.5513     1.3972 </r>
       <r>     1.1969     0.5601     1.4061 </r>
       <r>     1.2129     0.5692     1.4153 </r>
       <r>     1.2289     0.5787     1.4245 </r>
       <r>     1.2449     0.5889     1.4340 </r>
       <r>     1.2610     0.5997     1.4436 </r>
       <r>     1.2770     0.6115     1.4534 </r>
       <r>     1.2930     0.6242     1.4634 </r>
       <r>     1.3090     0.6379     1.4736 </r>
       <r>     1.3251     0.6528     1.4841 </r>
       <r>     1.3411     0.6687     1.4948 </r>
       <r>     1.3571     0.6857     1.5058 </r>
       <r>     1.3731     0.7036     1.5170 </r>
       <r>     1.3891     0.7224     1.5286 </r>
       <r>     1.4052     0.7417     1.5405 </r>
       <r>     1.4212     0.7613     1.5527 </r>
       <r>     1.4372     0.7809     1.5652 </r>
       <r>     1.4532     0.8003     1.5780 </r>
       <r>     1.4693     0.8190     1.5911 </r>
       <r>     1.4853     0.8367     1.6045 </r>
       <r>     1.5013     0.8531     1.6182 </r>
       <r>     1.5173     0.8679     1.6321 </r>
       <r>     1.5333     0.8809     1.6462 </r>
       <r>     1.5494     0.8918     1.6605 </r>
       <r>     1.5654     0.9006     1.6750 </r>
       <r>     1.5814     0.9073     1.6895 </r>
       <r>     1.5974     0.9118     1.7041 </r>
       <r>     1.6135     0.9145     1.7187 </r>
       <r>     1.6295     0.9154     1.7334 </r>
       <r>     1.6455     0.9148     1.7481 </r>
       <r>     1.6615     0.9132     1.7627 </r>
       <r>     1.6775     0.9109     1.7773 </r>
       <r>     1.6936     0.9084     1.7919 </r>
       <r>     1.7096     0.9062     1.8064 </r>
       <r>     1.7256     0.9050     1.8209 </r>
       <r>     1.7416     0.9053     1.8354 </r>
       <r>     1.7577     0.9079     1.8499 </r>
       <r>     1.7737     0.9133     1.8646 </r>
       <r>     1.7897     0.9222     1.8793 </r>
       <r>     1.8057     0.9351     1.8943 </r>
       <r>     1.8217     0.9523     1.9096 </r>
       <r>     1.8378     0.9741     1.9252 </r>
       <r>     1.8538     1.0003     1.9412 </r>
       <r>     1.8698     1.0307     1.9577 </r>
       <r>     1.8858     1.0645     1.9748 </r>
       <r>     1.9018     1.1009     1.9924 </r>
       <r>     1.9179     1.1386     2.0107 </r>
       <r>     1.9339     1.1764     2.0295 </r>
       <r>     1.9499     1.2127     2.0489 </r>
       <r>     1.9659     1.2459     2.0689 </r>
       <r>     1.9820     1.2747     2.0893 </r>
       <r>     1.9980     1.2976     2.1101 </r>
       <r>     2.0140     1.3136     2.1312 </r>
       <r>     2.0300     1.3222     2.1523 </r>
       <r>     2.0460     1.3229     2.1735 </r>
       <r>     2.0621     1.3161     2.1946 </r>
       <r>     2.0781     1.3023     2.2155 </r>
       <r>     2.0941     1.2825     2.2360 </r>
       <r>     2.1101     1.2583     2.2562 </r>
       <r>     2.1262     1.2313     2.2759 </r>
       <r>     2.1422     1.2034     2.2952 </r>
       <r>     2.1582     1.1766     2.3141 </r>
       <r>     2.1742     1.1527     2.3325 </r>
       <r>     2.1902     1.1335     2.3507 </r>
       <r>     2.2063     1.1203     2.3686 </r>
       <r>     2.2223     1.1142     2.3865 </r>
       <r>     2.2383     1.1158     2.4044 </r>
       <r>     2.2543     1.1252     2.4224 </r>
       <r>     2.2704     1.1421     2.4407 </r>
       <r>     2.2864     1.1656     2.4594 </r>
       <r>     2.3024     1.1947     2.4785 </r>
       <r>     2.3184     1.2277     2.4982 </r>
       <r>     2.3344     1.2629     2.5184 </r>
       <r>     2.3505     1.2985     2.5392 </r>
       <r>     2.3665     1.3326     2.5606 </r>
       <r>     2.3825     1.3635     2.5824 </r>
       <r>     2.3985     1.3898     2.6047 </r>
       <r>     2.4146     1.4103     2.6273 </r>
       <r>     2.4306     1.4240     2.6501 </r>
       <r>     2.4466     1.4307     2.6730 </r>
       <r>     2.4626     1.4304     2.6959 </r>
       <r>     2.4786     1.4234     2.7187 </r>
       <r>     2.4947     1.4103     2.7413 </r>
       <r>     2.5107     1.3923     2.7636 </r>
       <r>     2.5267     1.3703     2.7856 </r>
       <r>     2.5427     1.3456     2.8072 </r>
       <r>     2.5588     1.3195     2.8283 </r>
       <r>     2.5748     1.2931     2.8490 </r>
       <r>     2.5908     1.2674     2.8693 </r>
       <r>     2.6068     1.2435     2.8893 </r>
       <r>     2.6228     1.2222     2.9088 </r>
       <r>     2.6389     1.2044     2.9281 </r>
       <r>     2.6549     1.1910     2.9472 </r>
       <r>     2.6709     1.1830     2.9662 </r>
       <r>     2.6869     1.1814     2.9851 </r>
       <r>     2.7030     1.1877     3.0041 </r>
       <r>     2.7190     1.2034     3.0234 </r>
       <r>     2.7350     1.2305     3.0431 </r>
       <r>     2.7510     1.2711     3.0635 </r>
       <r>     2.7670     1.3275     3.0848 </r>
       <r>     2.7831     1.4021     3.1072 </r>
       <r>     2.7991     1.4971     3.1312 </r>
       <r>     2.8151     1.6145     3.1571 </r>
       <r>     2.8311     1.7556     3.1852 </r>
       <r>     2.8472     1.9212     3.2160 </r>
       <r>     2.8632     2.1111     3.2498 </r>
       <r>     2.8792     2.3243     3.2870 </r>
       <r>     2.8952     2.5582     3.3280 </r>
       <r>     2.9112     2.8097     3.3731 </r>
       <r>     2.9273     3.0741     3.4223 </r>
       <r>     2.9433     3.3461     3.4759 </r>
       <r>     2.9593     3.6195     3.5339 </r>
       <r>     2.9753     3.8875     3.5962 </r>
       <r>     2.9914     4.1433     3.6626 </r>
       <r>     3.0074     4.3799     3.7328 </r>
       <r>     3.0234     4.5910     3.8063 </r>
       <r>     3.0394     4.7707     3.8828 </r>
       <r>     3.0554     4.9144     3.9615 </r>
       <r>     3.0715     5.0184     4.0419 </r>
       <r>     3.0875     5.0806     4.1233 </r>
       <r>     3.1035     5.1004     4.2050 </r>
       <r>     3.1195     5.0786     4.2864 </r>
       <r>     3.1356     5.0177     4.3668 </r>
       <r>     3.1516     4.9217     4.4456 </r>
       <r>     3.1676     4.7955     4.5225 </r>
       <r>     3.1836     4.6456     4.5969 </r>
       <r>     3.1996     4.4788     4.6687 </r>
       <r>     3.2157     4.3026     4.7376 </r>
       <r>     3.2317     4.1246     4.8037 </r>
       <r>     3.2477     3.9521     4.8670 </r>
       <r>     3.2637     3.7920     4.9278 </r>
       <r>     3.2797     3.6502     4.9862 </r>
       <r>     3.2958     3.5315     5.0428 </r>
       <r>     3.3118     3.4393     5.0979 </r>
       <r>     3.3278     3.3757     5.1520 </r>
       <r>     3.3438     3.3411     5.2055 </r>
       <r>     3.3599     3.3348     5.2590 </r>
       <r>     3.3759     3.3544     5.3127 </r>
       <r>     3.3919     3.3968     5.3671 </r>
       <r>     3.4079     3.4578     5.4225 </r>
       <r>     3.4239     3.5330     5.4792 </r>
       <r>     3.4400     3.6173     5.5371 </r>
       <r>     3.4560     3.7062     5.5965 </r>
       <r>     3.4720     3.7952     5.6573 </r>
       <r>     3.4880     3.8805     5.7195 </r>
       <r>     3.5041     3.9589     5.7829 </r>
       <r>     3.5201     4.0278     5.8474 </r>
       <r>     3.5361     4.0856     5.9129 </r>
       <r>     3.5521     4.1312     5.9791 </r>
       <r>     3.5681     4.1639     6.0458 </r>
       <r>     3.5842     4.1837     6.1128 </r>
       <r>     3.6002     4.1907     6.1800 </r>
       <r>     3.6162     4.1852     6.2470 </r>
       <r>     3.6322     4.1676     6.3138 </r>
       <r>     3.6483     4.1384     6.3801 </r>
       <r>     3.6643     4.0978     6.4458 </r>
       <r>     3.6803     4.0462     6.5106 </r>
       <r>     3.6963     3.9842     6.5744 </r>
       <r>     3.7123     3.9123     6.6371 </r>
       <r>     3.7284     3.8313     6.6985 </r>
       <r>     3.7444     3.7422     6.7585 </r>
       <r>     3.7604     3.6463     6.8169 </r>
       <r>     3.7764     3.5455     6.8737 </r>
       <r>     3.7925     3.4418     6.9288 </r>
       <r>     3.8085     3.3378     6.9823 </r>
       <r>     3.8245     3.2363     7.0342 </r>
       <r>     3.8405     3.1405     7.0845 </r>
       <r>     3.8565     3.0538     7.1334 </r>
       <r>     3.8726     2.9799     7.1811 </r>
       <r>     3.8886     2.9222     7.2280 </r>
       <r>     3.9046     2.8844     7.2742 </r>
       <r>     3.9206     2.8697     7.3202 </r>
       <r>     3.9367     2.8809     7.3663 </r>
       <r>     3.9527     2.9203     7.4131 </r>
       <r>     3.9687     2.9893     7.4610 </r>
       <r>     3.9847     3.0885     7.5105 </r>
       <r>     4.0007     3.2170     7.5620 </r>
       <r>     4.0168     3.3731     7.6161 </r>
       <r>     4.0328     3.5533     7.6730 </r>
       <r>     4.0488     3.7531     7.7331 </r>
       <r>     4.0648     3.9665     7.7967 </r>
       <r>     4.0809     4.1866     7.8638 </r>
       <r>     4.0969     4.4055     7.9343 </r>
       <r>     4.1129     4.6151     8.0083 </r>
       <r>     4.1289     4.8070     8.0853 </r>
       <r>     4.1449     4.9734     8.1650 </r>
       <r>     4.1610     5.1073     8.2468 </r>
       <r>     4.1770     5.2028     8.3302 </r>
       <r>     4.1930     5.2559     8.4144 </r>
       <r>     4.2090     5.2640     8.4987 </r>
       <r>     4.2251     5.2270     8.5825 </r>
       <r>     4.2411     5.1465     8.6649 </r>
       <r>     4.2571     5.0259     8.7455 </r>
       <r>     4.2731     4.8704     8.8235 </r>
       <r>     4.2891     4.6863     8.8986 </r>
       <r>     4.3052     4.4808     8.9704 </r>
       <r>     4.3212     4.2616     9.0387 </r>
       <r>     4.3372     4.0361     9.1033 </r>
       <r>     4.3532     3.8115     9.1644 </r>
       <r>     4.3693     3.5938     9.2220 </r>
       <r>     4.3853     3.3883     9.2763 </r>
       <r>     4.4013     3.1987     9.3275 </r>
       <r>     4.4173     3.0276     9.3760 </r>
       <r>     4.4333     2.8762     9.4221 </r>
       <r>     4.4494     2.7447     9.4661 </r>
       <r>     4.4654     2.6324     9.5083 </r>
       <r>     4.4814     2.5378     9.5489 </r>
       <r>     4.4974     2.4591     9.5883 </r>
       <r>     4.5135     2.3943     9.6267 </r>
       <r>     4.5295     2.3417     9.6642 </r>
       <r>     4.5455     2.2998     9.7010 </r>
       <r>     4.5615     2.2675     9.7374 </r>
       <r>     4.5775     2.2443     9.7733 </r>
       <r>     4.5936     2.2304     9.8091 </r>
       <r>     4.6096     2.2262     9.8447 </r>
       <r>     4.6256     2.2328     9.8805 </r>
       <r>     4.6416     2.2515     9.9166 </r>
       <r>     4.6576     2.2838     9.9532 </r>
       <r>     4.6737     2.3312     9.9905 </r>
       <r>     4.6897     2.3951    10.0289 </r>
       <r>     4.7057     2.4766    10.0686 </r>
       <r>     4.7217     2.5765    10.1099 </r>
       <r>     4.7378     2.6952    10.1530 </r>
       <r>     4.7538     2.8327    10.1984 </r>
       <r>     4.7698     2.9886    10.2463 </r>
       <r>     4.7858     3.1621    10.2970 </r>
       <r>     4.8018     3.3522    10.3507 </r>
       <r>     4.8179     3.5574    10.4077 </r>
       <r>     4.8339     3.7762    10.4682 </r>
       <r>     4.8499     4.0071    10.5324 </r>
       <r>     4.8659     4.2483    10.6005 </r>
       <r>     4.8820     4.4980    10.6725 </r>
       <r>     4.8980     4.7543    10.7487 </r>
       <r>     4.9140     5.0152    10.8291 </r>
       <r>     4.9300     5.2787    10.9136 </r>
       <r>     4.9460     5.5424    11.0024 </r>
       <r>     4.9621     5.8039    11.0954 </r>
       <r>     4.9781     6.0606    11.1925 </r>
       <r>     4.9941     6.3095    11.2936 </r>
       <r>     5.0101     6.5478    11.3985 </r>
       <r>     5.0262     6.7724    11.5070 </r>
       <r>     5.0422     6.9800    11.6189 </r>
       <r>     5.0582     7.1677    11.7337 </r>
       <r>     5.0742     7.3325    11.8512 </r>
       <r>     5.0902     7.4716    11.9709 </r>
       <r>     5.1063     7.5829    12.0924 </r>
       <r>     5.1223     7.6641    12.2152 </r>
       <r>     5.1383     7.7139    12.3388 </r>
       <r>     5.1543     7.7312    12.4626 </r>
       <r>     5.1704     7.7154    12.5863 </r>
       <r>     5.1864     7.6668    12.7091 </r>
       <r>     5.2024     7.5859    12.8306 </r>
       <r>     5.2184     7.4743    12.9504 </r>
       <r>     5.2344     7.3339    13.0679 </r>
       <r>     5.2505     7.1675    13.1827 </r>
       <r>     5.2665     6.9783    13.2946 </r>
       <r>     5.2825     6.7703    13.4030 </r>
       <r>     5.2985     6.5480    13.5079 </r>
       <r>     5.3146     6.3162    13.6091 </r>
       <r>     5.3306     6.0800    13.7066 </r>
       <r>     5.3466     5.8447    13.8002 </r>
       <r>     5.3626     5.6153    13.8902 </r>
       <r>     5.3786     5.3966    13.9766 </r>
       <r>     5.3947     5.1928    14.0598 </r>
       <r>     5.4107     5.0074    14.1401 </r>
       <r>     5.4267     4.8430    14.2177 </r>
       <r>     5.4427     4.7011    14.2930 </r>
       <r>     5.4588     4.5822    14.3664 </r>
       <r>     5.4748     4.4856    14.4383 </r>
       <r>     5.4908     4.4094    14.5089 </r>
       <r>     5.5068     4.3507    14.5786 </r>
       <r>     5.5228     4.3060    14.6476 </r>
       <r>     5.5389     4.2709    14.7160 </r>
       <r>     5.5549     4.2410    14.7840 </r>
       <r>     5.5709     4.2115    14.8515 </r>
       <r>     5.5869     4.1784    14.9184 </r>
       <r>     5.6030     4.1377    14.9847 </r>
       <r>     5.6190     4.0866    15.0502 </r>
       <r>     5.6350     4.0233    15.1146 </r>
       <r>     5.6510     3.9469    15.1779 </r>
       <r>     5.6670     3.8579    15.2397 </r>
       <r>     5.6831     3.7578    15.2999 </r>
       <r>     5.6991     3.6492    15.3584 </r>
       <r>     5.7151     3.5356    15.4150 </r>
       <r>     5.7311     3.4208    15.4698 </r>
       <r>     5.7472     3.3091    15.5228 </r>
       <r>     5.7632     3.2047    15.5742 </r>
       <r>     5.7792     3.1114    15.6240 </r>
       <r>     5.7952     3.0324    15.6726 </r>
       <r>     5.8112     2.9701    15.7202 </r>
       <r>     5.8273     2.9260    15.7671 </r>
       <r>     5.8433     2.9005    15.8136 </r>
       <r>     5.8593     2.8926    15.8599 </r>
       <r>     5.8753     2.9006    15.9064 </r>
       <r>     5.8914     2.9217    15.9532 </r>
       <r>     5.9074     2.9524    16.0005 </r>
       <r>     5.9234     2.9886    16.0484 </r>
       <r>     5.9394     3.0258    16.0969 </r>
       <r>     5.9554     3.0596    16.1459 </r>
       <r>     5.9715     3.0856    16.1953 </r>
       <r>     5.9875     3.0999    16.2450 </r>
       <r>     6.0035     3.0991    16.2946 </r>
       <r>     6.0195     3.0807    16.3440 </r>
       <r>     6.0355     3.0427    16.3928 </r>
       <r>     6.0516     2.9844    16.4406 </r>
       <r>     6.0676     2.9055    16.4871 </r>
       <r>     6.0836     2.8069    16.5321 </r>
       <r>     6.0996     2.6902    16.5752 </r>
       <r>     6.1157     2.5575    16.6162 </r>
       <r>     6.1317     2.4115    16.6548 </r>
       <r>     6.1477     2.2551    16.6909 </r>
       <r>     6.1637     2.0917    16.7245 </r>
       <r>     6.1797     1.9244    16.7553 </r>
       <r>     6.1958     1.7567    16.7834 </r>
       <r>     6.2118     1.5915    16.8089 </r>
       <r>     6.2278     1.4316    16.8319 </r>
       <r>     6.2438     1.2795    16.8524 </r>
       <r>     6.2599     1.1371    16.8706 </r>
       <r>     6.2759     1.0062    16.8867 </r>
       <r>     6.2919     0.8878    16.9009 </r>
       <r>     6.3079     0.7825    16.9135 </r>
       <r>     6.3239     0.6908    16.9245 </r>
       <r>     6.3400     0.6123    16.9343 </r>
       <r>     6.3560     0.5466    16.9431 </r>
       <r>     6.3720     0.4929    16.9510 </r>
       <r>     6.3880     0.4500    16.9582 </r>
       <r>     6.4041     0.4169    16.9649 </r>
       <r>     6.4201     0.3920    16.9712 </r>
       <r>     6.4361     0.3742    16.9772 </r>
       <r>     6.4521     0.3621    16.9830 </r>
       <r>     6.4681     0.3544    16.9886 </r>
       <r>     6.4842     0.3501    16.9943 </r>
       <r>     6.5002     0.3482    16.9998 </r>
       <r>     6.5162     0.3480    17.0054 </r>
       <r>     6.5322     0.3488    17.0110 </r>
       <r>     6.5483     0.3501    17.0166 </r>
       <r>     6.5643     0.3517    17.0222 </r>
       <r>     6.5803     0.3533    17.0279 </r>
       <r>     6.5963     0.3547    17.0336 </r>
       <r>     6.6123     0.3560    17.0393 </r>
       <r>     6.6284     0.3570    17.0450 </r>
       <r>     6.6444     0.3580    17.0507 </r>
       <r>     6.6604     0.3588    17.0565 </r>
       <r>     6.6764     0.3595    17.0623 </r>
       <r>     6.6925     0.3604    17.0680 </r>
       <r>     6.7085     0.3614    17.0738 </r>
       <r>     6.7245     0.3628    17.0796 </r>
       <r>     6.7405     0.3647    17.0855 </r>
       <r>     6.7565     0.3673    17.0914 </r>
       <r>     6.7726     0.3709    17.0973 </r>
       <r>     6.7886     0.3758    17.1033 </r>
       <r>     6.8046     0.3822    17.1094 </r>
       <r>     6.8206     0.3906    17.1157 </r>
       <r>     6.8367     0.4013    17.1221 </r>
       <r>     6.8527     0.4145    17.1288 </r>
       <r>     6.8687     0.4307    17.1357 </r>
       <r>     6.8847     0.4499    17.1429 </r>
       <r>     6.9007     0.4725    17.1505 </r>
       <r>     6.9168     0.4983    17.1584 </r>
       <r>     6.9328     0.5273    17.1669 </r>
       <r>     6.9488     0.5593    17.1758 </r>
       <r>     6.9648     0.5938    17.1854 </r>
       <r>     6.9809     0.6304    17.1955 </r>
       <r>     6.9969     0.6685    17.2062 </r>
       <r>     7.0129     0.7073    17.2175 </r>
       <r>     7.0289     0.7460    17.2295 </r>
       <r>     7.0449     0.7840    17.2420 </r>
       <r>     7.0610     0.8205    17.2552 </r>
       <r>     7.0770     0.8550    17.2689 </r>
       <r>     7.0930     0.8868    17.2831 </r>
       <r>     7.1090     0.9159    17.2977 </r>
       <r>     7.1251     0.9419    17.3128 </r>
       <r>     7.1411     0.9648    17.3283 </r>
       <r>     7.1571     0.9848    17.3441 </r>
       <r>     7.1731     1.0020    17.3601 </r>
       <r>     7.1891     1.0168    17.3764 </r>
       <r>     7.2052     1.0295    17.3929 </r>
       <r>     7.2212     1.0401    17.4096 </r>
       <r>     7.2372     1.0491    17.4264 </r>
       <r>     7.2532     1.0563    17.4433 </r>
       <r>     7.2693     1.0619    17.4603 </r>
       <r>     7.2853     1.0656    17.4774 </r>
       <r>     7.3013     1.0675    17.4945 </r>
       <r>     7.3173     1.0671    17.5116 </r>
       <r>     7.3333     1.0643    17.5287 </r>
       <r>     7.3494     1.0589    17.5456 </r>
       <r>     7.3654     1.0507    17.5625 </r>
       <r>     7.3814     1.0396    17.5791 </r>
       <r>     7.3974     1.0257    17.5955 </r>
       <r>     7.4134     1.0090    17.6117 </r>
       <r>     7.4295     0.9898    17.6276 </r>
       <r>     7.4455     0.9684    17.6431 </r>
       <r>     7.4615     0.9453    17.6582 </r>
       <r>     7.4775     0.9210    17.6730 </r>
       <r>     7.4936     0.8959    17.6873 </r>
       <r>     7.5096     0.8708    17.7013 </r>
       <r>     7.5256     0.8460    17.7148 </r>
       <r>     7.5416     0.8223    17.7280 </r>
       <r>     7.5576     0.7999    17.7408 </r>
       <r>     7.5737     0.7794    17.7533 </r>
       <r>     7.5897     0.7611    17.7655 </r>
       <r>     7.6057     0.7452    17.7775 </r>
       <r>     7.6217     0.7317    17.7892 </r>
       <r>     7.6378     0.7208    17.8007 </r>
       <r>     7.6538     0.7122    17.8121 </r>
       <r>     7.6698     0.7058    17.8235 </r>
       <r>     7.6858     0.7013    17.8347 </r>
       <r>     7.7018     0.6983    17.8459 </r>
       <r>     7.7179     0.6964    17.8570 </r>
       <r>     7.7339     0.6953    17.8682 </r>
       <r>     7.7499     0.6946    17.8793 </r>
       <r>     7.7659     0.6939    17.8904 </r>
       <r>     7.7820     0.6930    17.9015 </r>
       <r>     7.7980     0.6917    17.9126 </r>
       <r>     7.8140     0.6901    17.9237 </r>
       <r>     7.8300     0.6881    17.9347 </r>
       <r>     7.8460     0.6859    17.9457 </r>
       <r>     7.8621     0.6835    17.9566 </r>
       <r>     7.8781     0.6810    17.9675 </r>
       <r>     7.8941     0.6788    17.9784 </r>
       <r>     7.9101     0.6767    17.9893 </r>
       <r>     7.9262     0.6749    18.0001 </r>
       <r>     7.9422     0.6733    18.0109 </r>
       <r>     7.9582     0.6718    18.0216 </r>
       <r>     7.9742     0.6700    18.0324 </r>
       <r>     7.9902     0.6678    18.0431 </r>
       <r>     8.0063     0.6648    18.0537 </r>
       <r>     8.0223     0.6607    18.0643 </r>
       <r>     8.0383     0.6553    18.0748 </r>
       <r>     8.0543     0.6484    18.0852 </r>
       <r>     8.0704     0.6399    18.0954 </r>
       <r>     8.0864     0.6299    18.1055 </r>
       <r>     8.1024     0.6186    18.1154 </r>
       <r>     8.1184     0.6063    18.1252 </r>
       <r>     8.1344     0.5934    18.1347 </r>
       <r>     8.1505     0.5803    18.1440 </r>
       <r>     8.1665     0.5676    18.1531 </r>
       <r>     8.1825     0.5558    18.1620 </r>
       <r>     8.1985     0.5450    18.1707 </r>
       <r>     8.2146     0.5358    18.1793 </r>
       <r>     8.2306     0.5281    18.1877 </r>
       <r>     8.2466     0.5221    18.1961 </r>
       <r>     8.2626     0.5178    18.2044 </r>
       <r>     8.2786     0.5148    18.2126 </r>
       <r>     8.2947     0.5130    18.2209 </r>
       <r>     8.3107     0.5122    18.2291 </r>
       <r>     8.3267     0.5121    18.2373 </r>
       <r>     8.3427     0.5124    18.2455 </r>
       <r>     8.3588     0.5131    18.2537 </r>
       <r>     8.3748     0.5141    18.2619 </r>
       <r>     8.3908     0.5152    18.2702 </r>
       <r>     8.4068     0.5167    18.2785 </r>
       <r>     8.4228     0.5185    18.2868 </r>
       <r>     8.4389     0.5207    18.2951 </r>
       <r>     8.4549     0.5235    18.3035 </r>
       <r>     8.4709     0.5268    18.3120 </r>
       <r>     8.4869     0.5306    18.3205 </r>
       <r>     8.5030     0.5346    18.3290 </r>
       <r>     8.5190     0.5388    18.3377 </r>
       <r>     8.5350     0.5428    18.3464 </r>
       <r>     8.5510     0.5463    18.3551 </r>
       <r>     8.5670     0.5487    18.3639 </r>
       <r>     8.5831     0.5498    18.3727 </r>
       <r>     8.5991     0.5491    18.3815 </r>
       <r>     8.6151     0.5464    18.3903 </r>
       <r>     8.6311     0.5414    18.3989 </r>
       <r>     8.6472     0.5341    18.4075 </r>
       <r>     8.6632     0.5246    18.4159 </r>
       <r>     8.6792     0.5129    18.4241 </r>
       <r>     8.6952     0.4995    18.4321 </r>
       <r>     8.7112     0.4847    18.4399 </r>
       <r>     8.7273     0.4691    18.4474 </r>
       <r>     8.7433     0.4532    18.4547 </r>
       <r>     8.7593     0.4376    18.4617 </r>
       <r>     8.7753     0.4229    18.4684 </r>
       <r>     8.7913     0.4096    18.4750 </r>
       <r>     8.8074     0.3980    18.4814 </r>
       <r>     8.8234     0.3886    18.4876 </r>
       <r>     8.8394     0.3815    18.4937 </r>
       <r>     8.8554     0.3767    18.4998 </r>
       <r>     8.8715     0.3741    18.5057 </r>
       <r>     8.8875     0.3737    18.5117 </r>
       <r>     8.9035     0.3749    18.5177 </r>
       <r>     8.9195     0.3775    18.5238 </r>
       <r>     8.9355     0.3810    18.5299 </r>
       <r>     8.9516     0.3850    18.5361 </r>
       <r>     8.9676     0.3888    18.5423 </r>
       <r>     8.9836     0.3922    18.5486 </r>
       <r>     8.9996     0.3949    18.5549 </r>
       <r>     9.0157     0.3965    18.5613 </r>
       <r>     9.0317     0.3971    18.5676 </r>
       <r>     9.0477     0.3967    18.5740 </r>
       <r>     9.0637     0.3954    18.5803 </r>
       <r>     9.0797     0.3936    18.5866 </r>
       <r>     9.0958     0.3915    18.5929 </r>
       <r>     9.1118     0.3896    18.5991 </r>
       <r>     9.1278     0.3883    18.6054 </r>
       <r>     9.1438     0.3877    18.6116 </r>
       <r>     9.1599     0.3883    18.6178 </r>
       <r>     9.1759     0.3900    18.6240 </r>
       <r>     9.1919     0.3928    18.6303 </r>
       <r>     9.2079     0.3967    18.6367 </r>
       <r>     9.2239     0.4012    18.6431 </r>
       <r>     9.2400     0.4061    18.6496 </r>
       <r>     9.2560     0.4108    18.6562 </r>
       <r>     9.2720     0.4148    18.6628 </r>
       <r>     9.2880     0.4178    18.6695 </r>
       <r>     9.3041     0.4192    18.6763 </r>
       <r>     9.3201     0.4187    18.6830 </r>
       <r>     9.3361     0.4161    18.6896 </r>
       <r>     9.3521     0.4113    18.6962 </r>
       <r>     9.3681     0.4043    18.7027 </r>
       <r>     9.3842     0.3952    18.7090 </r>
       <r>     9.4002     0.3841    18.7152 </r>
       <r>     9.4162     0.3713    18.7211 </r>
       <r>     9.4322     0.3571    18.7269 </r>
       <r>     9.4483     0.3419    18.7323 </r>
       <r>     9.4643     0.3260    18.7376 </r>
       <r>     9.4803     0.3098    18.7425 </r>
       <r>     9.4963     0.2937    18.7472 </r>
       <r>     9.5123     0.2781    18.7517 </r>
       <r>     9.5284     0.2633    18.7559 </r>
       <r>     9.5444     0.2499    18.7599 </r>
       <r>     9.5604     0.2382    18.7637 </r>
       <r>     9.5764     0.2287    18.7674 </r>
       <r>     9.5925     0.2218    18.7709 </r>
       <r>     9.6085     0.2177    18.7744 </r>
       <r>     9.6245     0.2169    18.7779 </r>
       <r>     9.6405     0.2195    18.7814 </r>
       <r>     9.6565     0.2255    18.7850 </r>
       <r>     9.6726     0.2350    18.7888 </r>
       <r>     9.6886     0.2475    18.7928 </r>
       <r>     9.7046     0.2629    18.7970 </r>
       <r>     9.7206     0.2805    18.8015 </r>
       <r>     9.7367     0.2999    18.8063 </r>
       <r>     9.7527     0.3202    18.8114 </r>
       <r>     9.7687     0.3409    18.8169 </r>
       <r>     9.7847     0.3613    18.8227 </r>
       <r>     9.8007     0.3805    18.8288 </r>
       <r>     9.8168     0.3982    18.8351 </r>
       <r>     9.8328     0.4139    18.8418 </r>
       <r>     9.8488     0.4271    18.8486 </r>
       <r>     9.8648     0.4379    18.8556 </r>
       <r>     9.8809     0.4461    18.8628 </r>
       <r>     9.8969     0.4518    18.8700 </r>
       <r>     9.9129     0.4552    18.8773 </r>
       <r>     9.9289     0.4568    18.8846 </r>
       <r>     9.9449     0.4567    18.8919 </r>
       <r>     9.9610     0.4556    18.8992 </r>
       <r>     9.9770     0.4538    18.9065 </r>
       <r>     9.9930     0.4518    18.9138 </r>
       <r>    10.0090     0.4501    18.9210 </r>
       <r>    10.0251     0.4489    18.9282 </r>
       <r>    10.0411     0.4487    18.9353 </r>
       <r>    10.0571     0.4496    18.9425 </r>
       <r>    10.0731     0.4519    18.9498 </r>
       <r>    10.0891     0.4556    18.9571 </r>
       <r>    10.1052     0.4606    18.9645 </r>
       <r>    10.1212     0.4669    18.9719 </r>
       <r>    10.1372     0.4744    18.9795 </r>
       <r>    10.1532     0.4826    18.9873 </r>
       <r>    10.1693     0.4916    18.9952 </r>
       <r>    10.1853     0.5008    19.0032 </r>
       <r>    10.2013     0.5102    19.0114 </r>
       <r>    10.2173     0.5196    19.0197 </r>
       <r>    10.2333     0.5287    19.0282 </r>
       <r>    10.2494     0.5376    19.0368 </r>
       <r>    10.2654     0.5463    19.0455 </r>
       <r>    10.2814     0.5548    19.0544 </r>
       <r>    10.2974     0.5633    19.0634 </r>
       <r>    10.3134     0.5718    19.0726 </r>
       <r>    10.3295     0.5807    19.0819 </r>
       <r>    10.3455     0.5898    19.0914 </r>
       <r>    10.3615     0.5994    19.1010 </r>
       <r>    10.3775     0.6094    19.1107 </r>
       <r>    10.3936     0.6198    19.1206 </r>
       <r>    10.4096     0.6305    19.1308 </r>
       <r>    10.4256     0.6414    19.1410 </r>
       <r>    10.4416     0.6524    19.1515 </r>
       <r>    10.4576     0.6632    19.1621 </r>
       <r>    10.4737     0.6738    19.1729 </r>
       <r>    10.4897     0.6840    19.1839 </r>
       <r>    10.5057     0.6939    19.1950 </r>
       <r>    10.5217     0.7032    19.2062 </r>
       <r>    10.5378     0.7121    19.2177 </r>
       <r>    10.5538     0.7204    19.2292 </r>
       <r>    10.5698     0.7283    19.2409 </r>
       <r>    10.5858     0.7355    19.2527 </r>
       <r>    10.6018     0.7421    19.2645 </r>
       <r>    10.6179     0.7480    19.2765 </r>
       <r>    10.6339     0.7531    19.2886 </r>
       <r>    10.6499     0.7573    19.3007 </r>
       <r>    10.6659     0.7605    19.3129 </r>
       <r>    10.6820     0.7628    19.3251 </r>
       <r>    10.6980     0.7641    19.3374 </r>
       <r>    10.7140     0.7645    19.3496 </r>
       <r>    10.7300     0.7642    19.3619 </r>
       <r>    10.7460     0.7631    19.3741 </r>
       <r>    10.7621     0.7615    19.3863 </r>
       <r>    10.7781     0.7595    19.3985 </r>
       <r>    10.7941     0.7572    19.4106 </r>
       <r>    10.8101     0.7546    19.4227 </r>
       <r>    10.8262     0.7517    19.4347 </r>
       <r>    10.8422     0.7486    19.4467 </r>
       <r>    10.8582     0.7449    19.4587 </r>
       <r>    10.8742     0.7407    19.4705 </r>
       <r>    10.8902     0.7357    19.4823 </r>
       <r>    10.9063     0.7298    19.4940 </r>
       <r>    10.9223     0.7228    19.5056 </r>
       <r>    10.9383     0.7147    19.5170 </r>
       <r>    10.9543     0.7055    19.5283 </r>
       <r>    10.9704     0.6952    19.5395 </r>
       <r>    10.9864     0.6841    19.5504 </r>
       <r>    11.0024     0.6723    19.5612 </r>
       <r>    11.0184     0.6603    19.5718 </r>
       <r>    11.0344     0.6485    19.5822 </r>
       <r>    11.0505     0.6373    19.5924 </r>
       <r>    11.0665     0.6273    19.6024 </r>
       <r>    11.0825     0.6187    19.6124 </r>
       <r>    11.0985     0.6121    19.6222 </r>
       <r>    11.1146     0.6077    19.6319 </r>
       <r>    11.1306     0.6056    19.6416 </r>
       <r>    11.1466     0.6058    19.6513 </r>
       <r>    11.1626     0.6082    19.6611 </r>
       <r>    11.1786     0.6125    19.6709 </r>
       <r>    11.1947     0.6181    19.6808 </r>
       <r>    11.2107     0.6245    19.6908 </r>
       <r>    11.2267     0.6309    19.7009 </r>
       <r>    11.2427     0.6367    19.7111 </r>
       <r>    11.2588     0.6411    19.7214 </r>
       <r>    11.2748     0.6437    19.7317 </r>
       <r>    11.2908     0.6441    19.7420 </r>
       <r>    11.3068     0.6419    19.7523 </r>
       <r>    11.3228     0.6373    19.7625 </r>
       <r>    11.3389     0.6305    19.7726 </r>
       <r>    11.3549     0.6220    19.7826 </r>
       <r>    11.3709     0.6123    19.7924 </r>
       <r>    11.3869     0.6023    19.8020 </r>
       <r>    11.4030     0.5926    19.8115 </r>
       <r>    11.4190     0.5840    19.8209 </r>
       <r>    11.4350     0.5772    19.8301 </r>
       <r>    11.4510     0.5725    19.8393 </r>
       <r>    11.4670     0.5701    19.8484 </r>
       <r>    11.4831     0.5701    19.8576 </r>
       <r>    11.4991     0.5721    19.8667 </r>
       <r>    11.5151     0.5758    19.8759 </r>
       <r>    11.5311     0.5804    19.8852 </r>
       <r>    11.5472     0.5853    19.8946 </r>
       <r>    11.5632     0.5897    19.9041 </r>
       <r>    11.5792     0.5929    19.9136 </r>
       <r>    11.5952     0.5944    19.9231 </r>
       <r>    11.6112     0.5937    19.9326 </r>
       <r>    11.6273     0.5907    19.9421 </r>
       <r>    11.6433     0.5854    19.9515 </r>
       <r>    11.6593     0.5783    19.9607 </r>
       <r>    11.6753     0.5698    19.9698 </r>
       <r>    11.6913     0.5605    19.9788 </r>
       <r>    11.7074     0.5514    19.9877 </r>
       <r>    11.7234     0.5431    19.9964 </r>
       <r>    11.7394     0.5365    20.0050 </r>
       <r>    11.7554     0.5323    20.0135 </r>
       <r>    11.7715     0.5308    20.0220 </r>
       <r>    11.7875     0.5323    20.0305 </r>
       <r>    11.8035     0.5367    20.0391 </r>
       <r>    11.8195     0.5438    20.0478 </r>
       <r>    11.8355     0.5530    20.0567 </r>
       <r>    11.8516     0.5634    20.0657 </r>
       <r>    11.8676     0.5742    20.0749 </r>
       <r>    11.8836     0.5843    20.0843 </r>
       <r>    11.8996     0.5927    20.0938 </r>
       <r>    11.9157     0.5985    20.1034 </r>
       <r>    11.9317     0.6008    20.1130 </r>
       <r>    11.9477     0.5993    20.1226 </r>
       <r>    11.9637     0.5935    20.1321 </r>
       <r>    11.9797     0.5835    20.1415 </r>
       <r>    11.9958     0.5696    20.1506 </r>
       <r>    12.0118     0.5525    20.1594 </r>
       <r>    12.0278     0.5330    20.1680 </r>
       <r>    12.0438     0.5122    20.1762 </r>
       <r>    12.0599     0.4911    20.1840 </r>
       <r>    12.0759     0.4711    20.1916 </r>
       <r>    12.0919     0.4533    20.1989 </r>
       <r>    12.1079     0.4385    20.2059 </r>
       <r>    12.1239     0.4278    20.2127 </r>
       <r>    12.1400     0.4217    20.2195 </r>
       <r>    12.1560     0.4205    20.2262 </r>
       <r>    12.1720     0.4241    20.2330 </r>
       <r>    12.1880     0.4324    20.2400 </r>
       <r>    12.2041     0.4448    20.2471 </r>
       <r>    12.2201     0.4606    20.2545 </r>
       <r>    12.2361     0.4787    20.2621 </r>
       <r>    12.2521     0.4981    20.2701 </r>
       <r>    12.2681     0.5178    20.2784 </r>
       <r>    12.2842     0.5367    20.2870 </r>
       <r>    12.3002     0.5538    20.2959 </r>
       <r>    12.3162     0.5683    20.3050 </r>
       <r>    12.3322     0.5796    20.3143 </r>
       <r>    12.3483     0.5872    20.3237 </r>
       <r>    12.3643     0.5911    20.3332 </r>
       <r>    12.3803     0.5914    20.3426 </r>
       <r>    12.3963     0.5884    20.3521 </r>
       <r>    12.4123     0.5827    20.3614 </r>
       <r>    12.4284     0.5751    20.3706 </r>
       <r>    12.4444     0.5664    20.3797 </r>
       <r>    12.4604     0.5576    20.3886 </r>
       <r>    12.4764     0.5495    20.3974 </r>
       <r>    12.4925     0.5429    20.4061 </r>
       <r>    12.5085     0.5386    20.4147 </r>
       <r>    12.5245     0.5371    20.4234 </r>
       <r>    12.5405     0.5386    20.4320 </r>
       <r>    12.5565     0.5433    20.4407 </r>
       <r>    12.5726     0.5511    20.4495 </r>
       <r>    12.5886     0.5616    20.4585 </r>
       <r>    12.6046     0.5743    20.4677 </r>
       <r>    12.6206     0.5887    20.4771 </r>
       <r>    12.6367     0.6040    20.4868 </r>
       <r>    12.6527     0.6195    20.4968 </r>
       <r>    12.6687     0.6345    20.5069 </r>
       <r>    12.6847     0.6484    20.5173 </r>
       <r>    12.7007     0.6605    20.5279 </r>
       <r>    12.7168     0.6705    20.5386 </r>
       <r>    12.7328     0.6781    20.5495 </r>
       <r>    12.7488     0.6831    20.5604 </r>
       <r>    12.7648     0.6855    20.5714 </r>
       <r>    12.7809     0.6854    20.5824 </r>
       <r>    12.7969     0.6832    20.5933 </r>
       <r>    12.8129     0.6790    20.6042 </r>
       <r>    12.8289     0.6735    20.6150 </r>
       <r>    12.8449     0.6669    20.6257 </r>
       <r>    12.8610     0.6598    20.6363 </r>
       <r>    12.8770     0.6526    20.6467 </r>
       <r>    12.8930     0.6458    20.6571 </r>
       <r>    12.9090     0.6396    20.6673 </r>
       <r>    12.9251     0.6343    20.6775 </r>
       <r>    12.9411     0.6300    20.6876 </r>
       <r>    12.9571     0.6269    20.6976 </r>
       <r>    12.9731     0.6248    20.7076 </r>
       <r>    12.9891     0.6238    20.7176 </r>
       <r>    13.0052     0.6234    20.7276 </r>
       <r>    13.0212     0.6237    20.7376 </r>
       <r>    13.0372     0.6242    20.7476 </r>
       <r>    13.0532     0.6249    20.7576 </r>
       <r>    13.0692     0.6255    20.7677 </r>
       <r>    13.0853     0.6259    20.7777 </r>
       <r>    13.1013     0.6261    20.7877 </r>
       <r>    13.1173     0.6261    20.7977 </r>
       <r>    13.1333     0.6260    20.8078 </r>
       <r>    13.1494     0.6260    20.8178 </r>
       <r>    13.1654     0.6263    20.8278 </r>
       <r>    13.1814     0.6270    20.8379 </r>
       <r>    13.1974     0.6284    20.8480 </r>
       <r>    13.2134     0.6306    20.8581 </r>
       <r>    13.2295     0.6338    20.8682 </r>
       <r>    13.2455     0.6381    20.8784 </r>
       <r>    13.2615     0.6433    20.8887 </r>
       <r>    13.2775     0.6496    20.8991 </r>
       <r>    13.2936     0.6567    20.9097 </r>
       <r>    13.3096     0.6645    20.9203 </r>
       <r>    13.3256     0.6729    20.9311 </r>
       <r>    13.3416     0.6817    20.9420 </r>
       <r>    13.3576     0.6907    20.9531 </r>
       <r>    13.3737     0.6996    20.9643 </r>
       <r>    13.3897     0.7084    20.9756 </r>
       <r>    13.4057     0.7168    20.9871 </r>
       <r>    13.4217     0.7248    20.9987 </r>
       <r>    13.4378     0.7323    21.0105 </r>
       <r>    13.4538     0.7392    21.0223 </r>
       <r>    13.4698     0.7454    21.0343 </r>
       <r>    13.4858     0.7510    21.0463 </r>
       <r>    13.5018     0.7559    21.0584 </r>
       <r>    13.5179     0.7601    21.0706 </r>
       <r>    13.5339     0.7637    21.0828 </r>
       <r>    13.5499     0.7668    21.0951 </r>
       <r>    13.5659     0.7695    21.1074 </r>
       <r>    13.5820     0.7718    21.1198 </r>
       <r>    13.5980     0.7740    21.1322 </r>
       <r>    13.6140     0.7761    21.1446 </r>
       <r>    13.6300     0.7786    21.1571 </r>
       <r>    13.6460     0.7814    21.1696 </r>
       <r>    13.6621     0.7849    21.1822 </r>
       <r>    13.6781     0.7892    21.1948 </r>
       <r>    13.6941     0.7944    21.2076 </r>
       <r>    13.7101     0.8006    21.2204 </r>
       <r>    13.7262     0.8079    21.2333 </r>
       <r>    13.7422     0.8160    21.2464 </r>
       <r>    13.7582     0.8248    21.2596 </r>
       <r>    13.7742     0.8341    21.2730 </r>
       <r>    13.7902     0.8433    21.2865 </r>
       <r>    13.8063     0.8522    21.3002 </r>
       <r>    13.8223     0.8603    21.3140 </r>
       <r>    13.8383     0.8671    21.3278 </r>
       <r>    13.8543     0.8721    21.3418 </r>
       <r>    13.8704     0.8752    21.3558 </r>
       <r>    13.8864     0.8758    21.3699 </r>
       <r>    13.9024     0.8741    21.3839 </r>
       <r>    13.9184     0.8697    21.3978 </r>
       <r>    13.9344     0.8630    21.4116 </r>
       <r>    13.9505     0.8541    21.4253 </r>
       <r>    13.9665     0.8433    21.4388 </r>
       <r>    13.9825     0.8311    21.4521 </r>
       <r>    13.9985     0.8179    21.4653 </r>
       <r>    14.0146     0.8044    21.4781 </r>
       <r>    14.0306     0.7909    21.4908 </r>
       <r>    14.0466     0.7780    21.5033 </r>
       <r>    14.0626     0.7661    21.5156 </r>
       <r>    14.0786     0.7555    21.5277 </r>
       <r>    14.0947     0.7463    21.5396 </r>
       <r>    14.1107     0.7386    21.5515 </r>
       <r>    14.1267     0.7322    21.5632 </r>
       <r>    14.1427     0.7270    21.5748 </r>
       <r>    14.1588     0.7226    21.5864 </r>
       <r>    14.1748     0.7187    21.5979 </r>
       <r>    14.1908     0.7149    21.6094 </r>
       <r>    14.2068     0.7109    21.6208 </r>
       <r>    14.2228     0.7064    21.6321 </r>
       <r>    14.2389     0.7013    21.6433 </r>
       <r>    14.2549     0.6955    21.6545 </r>
       <r>    14.2709     0.6892    21.6655 </r>
       <r>    14.2869     0.6827    21.6764 </r>
       <r>    14.3030     0.6764    21.6873 </r>
       <r>    14.3190     0.6707    21.6980 </r>
       <r>    14.3350     0.6662    21.7087 </r>
       <r>    14.3510     0.6635    21.7193 </r>
       <r>    14.3670     0.6630    21.7300 </r>
       <r>    14.3831     0.6652    21.7406 </r>
       <r>    14.3991     0.6703    21.7514 </r>
       <r>    14.4151     0.6784    21.7622 </r>
       <r>    14.4311     0.6895    21.7733 </r>
       <r>    14.4471     0.7032    21.7845 </r>
       <r>    14.4632     0.7192    21.7961 </r>
       <r>    14.4792     0.7368    21.8079 </r>
       <r>    14.4952     0.7553    21.8200 </r>
       <r>    14.5112     0.7737    21.8324 </r>
       <r>    14.5273     0.7913    21.8450 </r>
       <r>    14.5433     0.8071    21.8580 </r>
       <r>    14.5593     0.8202    21.8711 </r>
       <r>    14.5753     0.8300    21.8844 </r>
       <r>    14.5913     0.8358    21.8978 </r>
       <r>    14.6074     0.8373    21.9112 </r>
       <r>    14.6234     0.8342    21.9246 </r>
       <r>    14.6394     0.8265    21.9378 </r>
       <r>    14.6554     0.8146    21.9509 </r>
       <r>    14.6715     0.7988    21.9637 </r>
       <r>    14.6875     0.7801    21.9762 </r>
       <r>    14.7035     0.7590    21.9883 </r>
       <r>    14.7195     0.7367    22.0001 </r>
       <r>    14.7355     0.7140    22.0116 </r>
       <r>    14.7516     0.6919    22.0227 </r>
       <r>    14.7676     0.6711    22.0334 </r>
       <r>    14.7836     0.6524    22.0439 </r>
       <r>    14.7996     0.6362    22.0541 </r>
       <r>    14.8157     0.6226    22.0640 </r>
       <r>    14.8317     0.6118    22.0738 </r>
       <r>    14.8477     0.6034    22.0835 </r>
       <r>    14.8637     0.5972    22.0931 </r>
       <r>    14.8797     0.5925    22.1026 </r>
       <r>    14.8958     0.5889    22.1120 </r>
       <r>    14.9118     0.5858    22.1214 </r>
       <r>    14.9278     0.5829    22.1307 </r>
       <r>    14.9438     0.5798    22.1400 </r>
       <r>    14.9599     0.5763    22.1492 </r>
       <r>    14.9759     0.5726    22.1584 </r>
       <r>    14.9919     0.5689    22.1675 </r>
       <r>    15.0079     0.5655    22.1766 </r>
       <r>    15.0239     0.5630    22.1856 </r>
       <r>    15.0400     0.5619    22.1946 </r>
       <r>    15.0560     0.5628    22.2036 </r>
       <r>    15.0720     0.5661    22.2127 </r>
       <r>    15.0880     0.5720    22.2219 </r>
       <r>    15.1041     0.5809    22.2312 </r>
       <r>    15.1201     0.5925    22.2407 </r>
       <r>    15.1361     0.6067    22.2504 </r>
       <r>    15.1521     0.6230    22.2604 </r>
       <r>    15.1681     0.6407    22.2706 </r>
       <r>    15.1842     0.6592    22.2812 </r>
       <r>    15.2002     0.6777    22.2921 </r>
       <r>    15.2162     0.6954    22.3032 </r>
       <r>    15.2322     0.7115    22.3146 </r>
       <r>    15.2483     0.7255    22.3262 </r>
       <r>    15.2643     0.7369    22.3380 </r>
       <r>    15.2803     0.7454    22.3500 </r>
       <r>    15.2963     0.7507    22.3620 </r>
       <r>    15.3123     0.7530    22.3741 </r>
       <r>    15.3284     0.7523    22.3861 </r>
       <r>    15.3444     0.7489    22.3981 </r>
       <r>    15.3604     0.7431    22.4100 </r>
       <r>    15.3764     0.7355    22.4218 </r>
       <r>    15.3925     0.7263    22.4334 </r>
       <r>    15.4085     0.7161    22.4449 </r>
       <r>    15.4245     0.7053    22.4562 </r>
       <r>    15.4405     0.6944    22.4673 </r>
       <r>    15.4565     0.6837    22.4783 </r>
       <r>    15.4726     0.6737    22.4891 </r>
       <r>    15.4886     0.6646    22.4997 </r>
       <r>    15.5046     0.6569    22.5103 </r>
       <r>    15.5206     0.6508    22.5207 </r>
       <r>    15.5367     0.6464    22.5311 </r>
       <r>    15.5527     0.6439    22.5414 </r>
       <r>    15.5687     0.6433    22.5517 </r>
       <r>    15.5847     0.6445    22.5620 </r>
       <r>    15.6007     0.6473    22.5724 </r>
       <r>    15.6168     0.6515    22.5828 </r>
       <r>    15.6328     0.6568    22.5933 </r>
       <r>    15.6488     0.6628    22.6040 </r>
       <r>    15.6648     0.6690    22.6147 </r>
       <r>    15.6809     0.6751    22.6255 </r>
       <r>    15.6969     0.6806    22.6364 </r>
       <r>    15.7129     0.6852    22.6474 </r>
       <r>    15.7289     0.6887    22.6584 </r>
       <r>    15.7449     0.6910    22.6695 </r>
       <r>    15.7610     0.6920    22.6806 </r>
       <r>    15.7770     0.6919    22.6917 </r>
       <r>    15.7930     0.6910    22.7027 </r>
       <r>    15.8090     0.6897    22.7138 </r>
       <r>    15.8250     0.6884    22.7248 </r>
       <r>    15.8411     0.6877    22.7358 </r>
       <r>    15.8571     0.6881    22.7469 </r>
       <r>    15.8731     0.6902    22.7579 </r>
       <r>    15.8891     0.6943    22.7690 </r>
       <r>    15.9052     0.7009    22.7803 </r>
       <r>    15.9212     0.7101    22.7916 </r>
       <r>    15.9372     0.7219    22.8032 </r>
       <r>    15.9532     0.7361    22.8150 </r>
       <r>    15.9692     0.7525    22.8271 </r>
       <r>    15.9853     0.7705    22.8394 </r>
       <r>    16.0013     0.7895    22.8521 </r>
       <r>    16.0173     0.8089    22.8650 </r>
       <r>    16.0333     0.8279    22.8783 </r>
       <r>    16.0494     0.8459    22.8918 </r>
       <r>    16.0654     0.8622    22.9056 </r>
       <r>    16.0814     0.8763    22.9197 </r>
       <r>    16.0974     0.8878    22.9339 </r>
       <r>    16.1134     0.8964    22.9483 </r>
       <r>    16.1295     0.9020    22.9627 </r>
       <r>    16.1455     0.9045    22.9772 </r>
       <r>    16.1615     0.9039    22.9917 </r>
       <r>    16.1775     0.9005    23.0061 </r>
       <r>    16.1936     0.8944    23.0205 </r>
       <r>    16.2096     0.8858    23.0347 </r>
       <r>    16.2256     0.8749    23.0487 </r>
       <r>    16.2416     0.8619    23.0625 </r>
       <r>    16.2576     0.8470    23.0761 </r>
       <r>    16.2737     0.8304    23.0894 </r>
       <r>    16.2897     0.8122    23.1024 </r>
       <r>    16.3057     0.7928    23.1151 </r>
       <r>    16.3217     0.7722    23.1274 </r>
       <r>    16.3378     0.7510    23.1395 </r>
       <r>    16.3538     0.7293    23.1512 </r>
       <r>    16.3698     0.7077    23.1625 </r>
       <r>    16.3858     0.6867    23.1735 </r>
       <r>    16.4018     0.6667    23.1842 </r>
       <r>    16.4179     0.6485    23.1946 </r>
       <r>    16.4339     0.6324    23.2047 </r>
       <r>    16.4499     0.6191    23.2146 </r>
       <r>    16.4659     0.6089    23.2244 </r>
       <r>    16.4820     0.6022    23.2340 </r>
       <r>    16.4980     0.5992    23.2436 </r>
       <r>    16.5140     0.6000    23.2532 </r>
       <r>    16.5300     0.6045    23.2629 </r>
       <r>    16.5460     0.6124    23.2727 </r>
       <r>    16.5621     0.6234    23.2827 </r>
       <r>    16.5781     0.6369    23.2929 </r>
       <r>    16.5941     0.6524    23.3034 </r>
       <r>    16.6101     0.6692    23.3141 </r>
       <r>    16.6262     0.6867    23.3251 </r>
       <r>    16.6422     0.7041    23.3364 </r>
       <r>    16.6582     0.7209    23.3479 </r>
       <r>    16.6742     0.7365    23.3597 </r>
       <r>    16.6902     0.7503    23.3718 </r>
       <r>    16.7063     0.7621    23.3840 </r>
       <r>    16.7223     0.7716    23.3963 </r>
       <r>    16.7383     0.7785    23.4088 </r>
       <r>    16.7543     0.7829    23.4214 </r>
       <r>    16.7704     0.7846    23.4339 </r>
       <r>    16.7864     0.7839    23.4465 </r>
       <r>    16.8024     0.7809    23.4590 </r>
       <r>    16.8184     0.7759    23.4714 </r>
       <r>    16.8344     0.7691    23.4838 </r>
       <r>    16.8505     0.7608    23.4959 </r>
       <r>    16.8665     0.7515    23.5080 </r>
       <r>    16.8825     0.7413    23.5199 </r>
       <r>    16.8985     0.7305    23.5316 </r>
       <r>    16.9146     0.7194    23.5431 </r>
       <r>    16.9306     0.7082    23.5544 </r>
       <r>    16.9466     0.6968    23.5656 </r>
       <r>    16.9626     0.6853    23.5766 </r>
       <r>    16.9786     0.6735    23.5874 </r>
       <r>    16.9947     0.6613    23.5980 </r>
       <r>    17.0107     0.6484    23.6084 </r>
       <r>    17.0267     0.6344    23.6185 </r>
       <r>    17.0427     0.6190    23.6284 </r>
       <r>    17.0588     0.6020    23.6381 </r>
       <r>    17.0748     0.5830    23.6474 </r>
       <r>    17.0908     0.5618    23.6564 </r>
       <r>    17.1068     0.5383    23.6651 </r>
       <r>    17.1228     0.5126    23.6733 </r>
       <r>    17.1389     0.4848    23.6810 </r>
       <r>    17.1549     0.4553    23.6883 </r>
       <r>    17.1709     0.4244    23.6951 </r>
       <r>    17.1869     0.3929    23.7014 </r>
       <r>    17.2030     0.3612    23.7072 </r>
       <r>    17.2190     0.3302    23.7125 </r>
       <r>    17.2350     0.3004    23.7173 </r>
       <r>    17.2510     0.2727    23.7217 </r>
       <r>    17.2670     0.2477    23.7257 </r>
       <r>    17.2831     0.2259    23.7293 </r>
       <r>    17.2991     0.2077    23.7326 </r>
       <r>    17.3151     0.1934    23.7357 </r>
       <r>    17.3311     0.1831    23.7386 </r>
       <r>    17.3471     0.1766    23.7415 </r>
       <r>    17.3632     0.1739    23.7442 </r>
       <r>    17.3792     0.1745    23.7470 </r>
       <r>    17.3952     0.1779    23.7499 </r>
       <r>    17.4112     0.1836    23.7528 </r>
       <r>    17.4273     0.1909    23.7559 </r>
       <r>    17.4433     0.1992    23.7591 </r>
       <r>    17.4593     0.2079    23.7624 </r>
       <r>    17.4753     0.2163    23.7659 </r>
       <r>    17.4913     0.2239    23.7695 </r>
       <r>    17.5074     0.2303    23.7732 </r>
       <r>    17.5234     0.2352    23.7769 </r>
       <r>    17.5394     0.2383    23.7807 </r>
       <r>    17.5554     0.2394    23.7846 </r>
       <r>    17.5715     0.2385    23.7884 </r>
       <r>    17.5875     0.2355    23.7922 </r>
       <r>    17.6035     0.2307    23.7959 </r>
       <r>    17.6195     0.2240    23.7995 </r>
       <r>    17.6355     0.2156    23.8029 </r>
       <r>    17.6516     0.2058    23.8062 </r>
       <r>    17.6676     0.1948    23.8093 </r>
       <r>    17.6836     0.1828    23.8123 </r>
       <r>    17.6996     0.1701    23.8150 </r>
       <r>    17.7157     0.1569    23.8175 </r>
       <r>    17.7317     0.1436    23.8198 </r>
       <r>    17.7477     0.1305    23.8219 </r>
       <r>    17.7637     0.1180    23.8238 </r>
       <r>    17.7797     0.1062    23.8255 </r>
       <r>    17.7958     0.0955    23.8270 </r>
       <r>    17.8118     0.0862    23.8284 </r>
       <r>    17.8278     0.0784    23.8297 </r>
       <r>    17.8438     0.0723    23.8308 </r>
       <r>    17.8599     0.0679    23.8319 </r>
       <r>    17.8759     0.0652    23.8329 </r>
       <r>    17.8919     0.0640    23.8340 </r>
       <r>    17.9079     0.0642    23.8350 </r>
       <r>    17.9239     0.0656    23.8361 </r>
       <r>    17.9400     0.0678    23.8371 </r>
       <r>    17.9560     0.0705    23.8383 </r>
       <r>    17.9720     0.0735    23.8394 </r>
       <r>    17.9880     0.0764    23.8407 </r>
       <r>    18.0041     0.0790    23.8419 </r>
       <r>    18.0201     0.0812    23.8432 </r>
       <r>    18.0361     0.0828    23.8446 </r>
       <r>    18.0521     0.0838    23.8459 </r>
       <r>    18.0681     0.0843    23.8473 </r>
       <r>    18.0842     0.0842    23.8486 </r>
       <r>    18.1002     0.0837    23.8499 </r>
       <r>    18.1162     0.0828    23.8513 </r>
       <r>    18.1322     0.0818    23.8526 </r>
       <r>    18.1483     0.0807    23.8539 </r>
       <r>    18.1643     0.0795    23.8551 </r>
       <r>    18.1803     0.0784    23.8564 </r>
       <r>    18.1963     0.0774    23.8576 </r>
       <r>    18.2123     0.0764    23.8589 </r>
       <r>    18.2284     0.0755    23.8601 </r>
       <r>    18.2444     0.0745    23.8613 </r>
       <r>    18.2604     0.0735    23.8625 </r>
       <r>    18.2764     0.0724    23.8636 </r>
       <r>    18.2925     0.0713    23.8648 </r>
       <r>    18.3085     0.0701    23.8659 </r>
       <r>    18.3245     0.0689    23.8670 </r>
       <r>    18.3405     0.0676    23.8681 </r>
       <r>    18.3565     0.0665    23.8691 </r>
       <r>    18.3726     0.0655    23.8702 </r>
       <r>    18.3886     0.0648    23.8712 </r>
       <r>    18.4046     0.0643    23.8722 </r>
       <r>    18.4206     0.0641    23.8733 </r>
       <r>    18.4367     0.0643    23.8743 </r>
       <r>    18.4527     0.0648    23.8753 </r>
       <r>    18.4687     0.0656    23.8764 </r>
       <r>    18.4847     0.0666    23.8775 </r>
       <r>    18.5007     0.0678    23.8785 </r>
       <r>    18.5168     0.0689    23.8797 </r>
       <r>    18.5328     0.0699    23.8808 </r>
       <r>    18.5488     0.0706    23.8819 </r>
       <r>    18.5648     0.0710    23.8830 </r>
       <r>    18.5809     0.0708    23.8842 </r>
       <r>    18.5969     0.0700    23.8853 </r>
       <r>    18.6129     0.0686    23.8864 </r>
       <r>    18.6289     0.0665    23.8875 </r>
       <r>    18.6449     0.0637    23.8885 </r>
       <r>    18.6610     0.0603    23.8894 </r>
       <r>    18.6770     0.0565    23.8904 </r>
       <r>    18.6930     0.0523    23.8912 </r>
       <r>    18.7090     0.0480    23.8920 </r>
       <r>    18.7250     0.0436    23.8927 </r>
       <r>    18.7411     0.0395    23.8933 </r>
       <r>    18.7571     0.0358    23.8939 </r>
       <r>    18.7731     0.0326    23.8944 </r>
       <r>    18.7891     0.0300    23.8949 </r>
       <r>    18.8052     0.0281    23.8953 </r>
       <r>    18.8212     0.0270    23.8958 </r>
       <r>    18.8372     0.0265    23.8962 </r>
       <r>    18.8532     0.0267    23.8966 </r>
       <r>    18.8692     0.0274    23.8970 </r>
       <r>    18.8853     0.0286    23.8975 </r>
       <r>    18.9013     0.0301    23.8980 </r>
       <r>    18.9173     0.0319    23.8985 </r>
       <r>    18.9333     0.0339    23.8990 </r>
       <r>    18.9494     0.0360    23.8996 </r>
       <r>    18.9654     0.0382    23.9002 </r>
       <r>    18.9814     0.0405    23.9009 </r>
       <r>    18.9974     0.0428    23.9016 </r>
       <r>    19.0134     0.0452    23.9023 </r>
       <r>    19.0295     0.0476    23.9030 </r>
       <r>    19.0455     0.0500    23.9039 </r>
       <r>    19.0615     0.0524    23.9047 </r>
       <r>    19.0775     0.0547    23.9056 </r>
       <r>    19.0936     0.0568    23.9065 </r>
       <r>    19.1096     0.0587    23.9074 </r>
       <r>    19.1256     0.0602    23.9084 </r>
       <r>    19.1416     0.0612    23.9094 </r>
       <r>    19.1576     0.0616    23.9104 </r>
       <r>    19.1737     0.0615    23.9113 </r>
       <r>    19.1897     0.0607    23.9123 </r>
       <r>    19.2057     0.0594    23.9133 </r>
       <r>    19.2217     0.0575    23.9142 </r>
       <r>    19.2378     0.0553    23.9151 </r>
       <r>    19.2538     0.0528    23.9159 </r>
       <r>    19.2698     0.0502    23.9167 </r>
       <r>    19.2858     0.0477    23.9175 </r>
       <r>    19.3018     0.0455    23.9182 </r>
       <r>    19.3179     0.0436    23.9189 </r>
       <r>    19.3339     0.0423    23.9196 </r>
       <r>    19.3499     0.0415    23.9203 </r>
       <r>    19.3659     0.0412    23.9209 </r>
       <r>    19.3820     0.0414    23.9216 </r>
       <r>    19.3980     0.0421    23.9222 </r>
       <r>    19.4140     0.0430    23.9229 </r>
       <r>    19.4300     0.0442    23.9236 </r>
       <r>    19.4460     0.0453    23.9244 </r>
       <r>    19.4621     0.0465    23.9251 </r>
       <r>    19.4781     0.0474    23.9259 </r>
       <r>    19.4941     0.0481    23.9266 </r>
       <r>    19.5101     0.0485    23.9274 </r>
       <r>    19.5262     0.0486    23.9282 </r>
       <r>    19.5422     0.0485    23.9290 </r>
       <r>    19.5582     0.0481    23.9297 </r>
       <r>    19.5742     0.0476    23.9305 </r>
       <r>    19.5902     0.0469    23.9313 </r>
       <r>    19.6063     0.0463    23.9320 </r>
       <r>    19.6223     0.0456    23.9327 </r>
       <r>    19.6383     0.0450    23.9335 </r>
       <r>    19.6543     0.0444    23.9342 </r>
       <r>    19.6704     0.0439    23.9349 </r>
       <r>    19.6864     0.0433    23.9356 </r>
       <r>    19.7024     0.0428    23.9363 </r>
       <r>    19.7184     0.0421    23.9369 </r>
       <r>    19.7344     0.0414    23.9376 </r>
       <r>    19.7505     0.0405    23.9382 </r>
       <r>    19.7665     0.0395    23.9389 </r>
       <r>    19.7825     0.0383    23.9395 </r>
       <r>    19.7985     0.0370    23.9401 </r>
       <r>    19.8146     0.0356    23.9406 </r>
       <r>    19.8306     0.0342    23.9412 </r>
       <r>    19.8466     0.0328    23.9417 </r>
       <r>    19.8626     0.0314    23.9422 </r>
       <r>    19.8786     0.0301    23.9427 </r>
       <r>    19.8947     0.0289    23.9432 </r>
       <r>    19.9107     0.0279    23.9436 </r>
       <r>    19.9267     0.0271    23.9441 </r>
       <r>    19.9427     0.0265    23.9445 </r>
       <r>    19.9588     0.0261    23.9449 </r>
       <r>    19.9748     0.0259    23.9453 </r>
       <r>    19.9908     0.0258    23.9457 </r>
       <r>    20.0068     0.0259    23.9461 </r>
       <r>    20.0228     0.0261    23.9466 </r>
       <r>    20.0389     0.0263    23.9470 </r>
       <r>    20.0549     0.0266    23.9474 </r>
       <r>    20.0709     0.0268    23.9478 </r>
       <r>    20.0869     0.0269    23.9483 </r>
       <r>    20.1029     0.0268    23.9487 </r>
       <r>    20.1190     0.0266    23.9491 </r>
       <r>    20.1350     0.0262    23.9495 </r>
       <r>    20.1510     0.0255    23.9499 </r>
       <r>    20.1670     0.0247    23.9503 </r>
       <r>    20.1831     0.0237    23.9507 </r>
       <r>    20.1991     0.0225    23.9511 </r>
       <r>    20.2151     0.0212    23.9514 </r>
       <r>    20.2311     0.0199    23.9517 </r>
       <r>    20.2471     0.0186    23.9520 </r>
       <r>    20.2632     0.0174    23.9523 </r>
       <r>    20.2792     0.0164    23.9526 </r>
       <r>    20.2952     0.0155    23.9528 </r>
       <r>    20.3112     0.0149    23.9531 </r>
       <r>    20.3273     0.0145    23.9533 </r>
       <r>    20.3433     0.0143    23.9535 </r>
       <r>    20.3593     0.0144    23.9538 </r>
       <r>    20.3753     0.0147    23.9540 </r>
       <r>    20.3913     0.0152    23.9542 </r>
       <r>    20.4074     0.0159    23.9545 </r>
       <r>    20.4234     0.0169    23.9548 </r>
       <r>    20.4394     0.0181    23.9551 </r>
       <r>    20.4554     0.0196    23.9554 </r>
       <r>    20.4715     0.0213    23.9557 </r>
       <r>    20.4875     0.0233    23.9561 </r>
       <r>    20.5035     0.0255    23.9565 </r>
       <r>    20.5195     0.0280    23.9569 </r>
       <r>    20.5355     0.0306    23.9574 </r>
       <r>    20.5516     0.0334    23.9580 </r>
       <r>    20.5676     0.0363    23.9585 </r>
       <r>    20.5836     0.0391    23.9592 </r>
       <r>    20.5996     0.0417    23.9598 </r>
       <r>    20.6157     0.0440    23.9605 </r>
       <r>    20.6317     0.0460    23.9613 </r>
       <r>    20.6477     0.0474    23.9620 </r>
       <r>    20.6637     0.0483    23.9628 </r>
       <r>    20.6797     0.0486    23.9636 </r>
       <r>    20.6958     0.0483    23.9644 </r>
       <r>    20.7118     0.0475    23.9651 </r>
       <r>    20.7278     0.0463    23.9659 </r>
       <r>    20.7438     0.0447    23.9666 </r>
       <r>    20.7599     0.0430    23.9673 </r>
       <r>    20.7759     0.0412    23.9679 </r>
       <r>    20.7919     0.0394    23.9686 </r>
       <r>    20.8079     0.0378    23.9692 </r>
       <r>    20.8239     0.0365    23.9698 </r>
       <r>    20.8400     0.0354    23.9703 </r>
       <r>    20.8560     0.0346    23.9709 </r>
       <r>    20.8720     0.0341    23.9714 </r>
       <r>    20.8880     0.0338    23.9720 </r>
       <r>    20.9041     0.0336    23.9725 </r>
       <r>    20.9201     0.0334    23.9730 </r>
       <r>    20.9361     0.0332    23.9736 </r>
       <r>    20.9521     0.0329    23.9741 </r>
       <r>    20.9681     0.0323    23.9746 </r>
       <r>    20.9842     0.0314    23.9751 </r>
       <r>    21.0002     0.0302    23.9756 </r>
       <r>    21.0162     0.0286    23.9761 </r>
       <r>    21.0322     0.0267    23.9765 </r>
       <r>    21.0483     0.0246    23.9769 </r>
       <r>    21.0643     0.0222    23.9772 </r>
       <r>    21.0803     0.0197    23.9776 </r>
       <r>    21.0963     0.0171    23.9778 </r>
       <r>    21.1123     0.0144    23.9781 </r>
       <r>    21.1284     0.0119    23.9783 </r>
       <r>    21.1444     0.0095    23.9784 </r>
       <r>    21.1604     0.0073    23.9785 </r>
       <r>    21.1764     0.0053    23.9786 </r>
       <r>    21.1925     0.0036    23.9787 </r>
       <r>    21.2085     0.0021    23.9787 </r>
       <r>    21.2245     0.0009    23.9787 </r>
       <r>    21.2405     0.0000    23.9787 </r>
       <r>    21.2565    -0.0006    23.9787 </r>
       <r>    21.2726    -0.0010    23.9787 </r>
       <r>    21.2886    -0.0012    23.9787 </r>
       <r>    21.3046    -0.0012    23.9786 </r>
       <r>    21.3206    -0.0010    23.9786 </r>
       <r>    21.3367    -0.0007    23.9786 </r>
       <r>    21.3527    -0.0002    23.9786 </r>
       <r>    21.3687     0.0004    23.9786 </r>
       <r>    21.3847     0.0011    23.9786 </r>
       <r>    21.4007     0.0019    23.9787 </r>
       <r>    21.4168     0.0028    23.9787 </r>
       <r>    21.4328     0.0039    23.9788 </r>
       <r>    21.4488     0.0050    23.9789 </r>
       <r>    21.4648     0.0063    23.9790 </r>
       <r>    21.4808     0.0077    23.9791 </r>
       <r>    21.4969     0.0092    23.9792 </r>
       <r>    21.5129     0.0108    23.9794 </r>
       <r>    21.5289     0.0125    23.9796 </r>
       <r>    21.5449     0.0143    23.9798 </r>
       <r>    21.5610     0.0162    23.9801 </r>
       <r>    21.5770     0.0180    23.9804 </r>
       <r>    21.5930     0.0198    23.9807 </r>
       <r>    21.6090     0.0215    23.9810 </r>
       <r>    21.6250     0.0229    23.9814 </r>
       <r>    21.6411     0.0241    23.9818 </r>
       <r>    21.6571     0.0249    23.9822 </r>
       <r>    21.6731     0.0254    23.9826 </r>
       <r>    21.6891     0.0254    23.9830 </r>
       <r>    21.7052     0.0250    23.9834 </r>
       <r>    21.7212     0.0241    23.9838 </r>
       <r>    21.7372     0.0228    23.9842 </r>
       <r>    21.7532     0.0211    23.9845 </r>
       <r>    21.7692     0.0191    23.9848 </r>
       <r>    21.7853     0.0169    23.9851 </r>
       <r>    21.8013     0.0145    23.9853 </r>
       <r>    21.8173     0.0122    23.9855 </r>
       <r>    21.8333     0.0099    23.9857 </r>
       <r>    21.8494     0.0079    23.9858 </r>
       <r>    21.8654     0.0061    23.9859 </r>
       <r>    21.8814     0.0047    23.9860 </r>
       <r>    21.8974     0.0038    23.9860 </r>
       <r>    21.9134     0.0033    23.9861 </r>
       <r>    21.9295     0.0034    23.9861 </r>
       <r>    21.9455     0.0040    23.9862 </r>
       <r>    21.9615     0.0051    23.9863 </r>
       <r>    21.9775     0.0067    23.9864 </r>
       <r>    21.9936     0.0087    23.9865 </r>
       <r>    22.0096     0.0110    23.9867 </r>
       <r>    22.0256     0.0136    23.9869 </r>
       <r>    22.0416     0.0164    23.9872 </r>
       <r>    22.0576     0.0192    23.9875 </r>
       <r>    22.0737     0.0220    23.9878 </r>
       <r>    22.0897     0.0246    23.9882 </r>
       <r>    22.1057     0.0269    23.9887 </r>
       <r>    22.1217     0.0289    23.9891 </r>
       <r>    22.1378     0.0304    23.9896 </r>
       <r>    22.1538     0.0315    23.9901 </r>
       <r>    22.1698     0.0321    23.9906 </r>
       <r>    22.1858     0.0321    23.9911 </r>
       <r>    22.2018     0.0316    23.9917 </r>
       <r>    22.2179     0.0306    23.9921 </r>
       <r>    22.2339     0.0292    23.9926 </r>
       <r>    22.2499     0.0274    23.9931 </r>
       <r>    22.2659     0.0253    23.9935 </r>
       <r>    22.2820     0.0230    23.9938 </r>
       <r>    22.2980     0.0205    23.9942 </r>
       <r>    22.3140     0.0180    23.9944 </r>
       <r>    22.3300     0.0155    23.9947 </r>
       <r>    22.3460     0.0131    23.9949 </r>
       <r>    22.3621     0.0108    23.9951 </r>
       <r>    22.3781     0.0087    23.9952 </r>
       <r>    22.3941     0.0068    23.9953 </r>
       <r>    22.4101     0.0051    23.9954 </r>
       <r>    22.4262     0.0037    23.9955 </r>
       <r>    22.4422     0.0025    23.9955 </r>
       <r>    22.4582     0.0015    23.9955 </r>
       <r>    22.4742     0.0007    23.9955 </r>
       <r>    22.4902     0.0001    23.9955 </r>
       <r>    22.5063    -0.0004    23.9955 </r>
       <r>    22.5223    -0.0007    23.9955 </r>
       <r>    22.5383    -0.0009    23.9955 </r>
       <r>    22.5543    -0.0010    23.9955 </r>
       <r>    22.5704    -0.0010    23.9955 </r>
       <r>    22.5864    -0.0010    23.9955 </r>
       <r>    22.6024    -0.0009    23.9954 </r>
       <r>    22.6184    -0.0008    23.9954 </r>
       <r>    22.6344    -0.0007    23.9954 </r>
       <r>    22.6505    -0.0006    23.9954 </r>
       <r>    22.6665    -0.0006    23.9954 </r>
       <r>    22.6825    -0.0005    23.9954 </r>
       <r>    22.6985    -0.0004    23.9954 </r>
       <r>    22.7146    -0.0004    23.9954 </r>
       <r>    22.7306    -0.0003    23.9954 </r>
       <r>    22.7466    -0.0003    23.9954 </r>
       <r>    22.7626    -0.0003    23.9954 </r>
       <r>    22.7786    -0.0003    23.9954 </r>
       <r>    22.7947    -0.0004    23.9954 </r>
       <r>    22.8107    -0.0004    23.9953 </r>
       <r>    22.8267    -0.0005    23.9953 </r>
       <r>    22.8427    -0.0005    23.9953 </r>
       <r>    22.8587    -0.0006    23.9953 </r>
       <r>    22.8748    -0.0006    23.9953 </r>
       <r>    22.8908    -0.0007    23.9953 </r>
       <r>    22.9068    -0.0007    23.9953 </r>
       <r>    22.9228    -0.0006    23.9953 </r>
       <r>    22.9389    -0.0005    23.9953 </r>
       <r>    22.9549    -0.0003    23.9953 </r>
       <r>    22.9709     0.0000    23.9953 </r>
       <r>    22.9869     0.0004    23.9953 </r>
       <r>    23.0029     0.0010    23.9953 </r>
       <r>    23.0190     0.0017    23.9953 </r>
       <r>    23.0350     0.0025    23.9954 </r>
       <r>    23.0510     0.0034    23.9954 </r>
       <r>    23.0670     0.0044    23.9955 </r>
       <r>    23.0831     0.0056    23.9956 </r>
       <r>    23.0991     0.0068    23.9957 </r>
       <r>    23.1151     0.0080    23.9958 </r>
       <r>    23.1311     0.0092    23.9960 </r>
       <r>    23.1471     0.0103    23.9961 </r>
       <r>    23.1632     0.0113    23.9963 </r>
       <r>    23.1792     0.0122    23.9965 </r>
       <r>    23.1952     0.0129    23.9967 </r>
       <r>    23.2112     0.0133    23.9969 </r>
       <r>    23.2273     0.0135    23.9971 </r>
       <r>    23.2433     0.0134    23.9973 </r>
       <r>    23.2593     0.0131    23.9976 </r>
       <r>    23.2753     0.0126    23.9978 </r>
       <r>    23.2913     0.0119    23.9979 </r>
       <r>    23.3074     0.0111    23.9981 </r>
       <r>    23.3234     0.0102    23.9983 </r>
       <r>    23.3394     0.0092    23.9984 </r>
       <r>    23.3554     0.0083    23.9986 </r>
       <r>    23.3715     0.0074    23.9987 </r>
       <r>    23.3875     0.0065    23.9988 </r>
       <r>    23.4035     0.0058    23.9989 </r>
       <r>    23.4195     0.0053    23.9990 </r>
       <r>    23.4355     0.0048    23.9990 </r>
       <r>    23.4516     0.0045    23.9991 </r>
       <r>    23.4676     0.0042    23.9992 </r>
       <r>    23.4836     0.0041    23.9993 </r>
       <r>    23.4996     0.0039    23.9993 </r>
       <r>    23.5157     0.0038    23.9994 </r>
       <r>    23.5317     0.0037    23.9994 </r>
       <r>    23.5477     0.0036    23.9995 </r>
       <r>    23.5637     0.0035    23.9995 </r>
       <r>    23.5797     0.0033    23.9996 </r>
       <r>    23.5958     0.0030    23.9997 </r>
       <r>    23.6118     0.0028    23.9997 </r>
       <r>    23.6278     0.0025    23.9997 </r>
       <r>    23.6438     0.0021    23.9998 </r>
       <r>    23.6599     0.0018    23.9998 </r>
       <r>    23.6759     0.0014    23.9998 </r>
       <r>    23.6919     0.0011    23.9998 </r>
       <r>    23.7079     0.0008    23.9999 </r>
       <r>    23.7239     0.0005    23.9999 </r>
       <r>    23.7400     0.0003    23.9999 </r>
       <r>    23.7560     0.0001    23.9999 </r>
       <r>    23.7720    -0.0000    23.9999 </r>
       <r>    23.7880    -0.0001    23.9999 </r>
       <r>    23.8041    -0.0002    23.9999 </r>
       <r>    23.8201    -0.0002    23.9999 </r>
       <r>    23.8361    -0.0003    23.9999 </r>
       <r>    23.8521    -0.0003    23.9998 </r>
       <r>    23.8681    -0.0003    23.9998 </r>
       <r>    23.8842    -0.0002    23.9998 </r>
       <r>    23.9002    -0.0002    23.9998 </r>
       <r>    23.9162    -0.0002    23.9998 </r>
       <r>    23.9322    -0.0002    23.9998 </r>
       <r>    23.9483    -0.0001    23.9998 </r>
       <r>    23.9643    -0.0001    23.9998 </r>
       <r>    23.9803    -0.0001    23.9998 </r>
       <r>    23.9963    -0.0001    23.9998 </r>
       <r>    24.0123    -0.0000    23.9998 </r>
       <r>    24.0284     0.0000    23.9998 </r>
       <r>    24.0444     0.0001    23.9998 </r>
       <r>    24.0604     0.0001    23.9998 </r>
       <r>    24.0764     0.0002    23.9998 </r>
       <r>    24.0925     0.0002    23.9998 </r>
       <r>    24.1085     0.0003    23.9998 </r>
       <r>    24.1245     0.0004    23.9998 </r>
       <r>    24.1405     0.0004    23.9999 </r>
       <r>    24.1565     0.0005    23.9999 </r>
       <r>    24.1726     0.0006    23.9999 </r>
       <r>    24.1886     0.0006    23.9999 </r>
       <r>    24.2046     0.0007    23.9999 </r>
       <r>    24.2206     0.0007    23.9999 </r>
       <r>    24.2366     0.0007    23.9999 </r>
       <r>    24.2527     0.0007    23.9999 </r>
       <r>    24.2687     0.0007    23.9999 </r>
       <r>    24.2847     0.0007    23.9999 </r>
       <r>    24.3007     0.0006    24.0000 </r>
       <r>    24.3168     0.0006    24.0000 </r>
       <r>    24.3328     0.0005    24.0000 </r>
       <r>    24.3488     0.0005    24.0000 </r>
       <r>    24.3648     0.0004    24.0000 </r>
       <r>    24.3808     0.0003    24.0000 </r>
       <r>    24.3969     0.0003    24.0000 </r>
       <r>    24.4129     0.0002    24.0000 </r>
       <r>    24.4289     0.0001    24.0000 </r>
       <r>    24.4449     0.0001    24.0000 </r>
       <r>    24.4610     0.0001    24.0000 </r>
       <r>    24.4770     0.0000    24.0000 </r>
       <r>    24.4930    -0.0000    24.0000 </r>
       <r>    24.5090    -0.0000    24.0000 </r>
       <r>    24.5250    -0.0000    24.0000 </r>
       <r>    24.5411    -0.0000    24.0000 </r>
       <r>    24.5571    -0.0000    24.0000 </r>
       <r>    24.5731    -0.0000    24.0000 </r>
       <r>    24.5891    -0.0000    24.0000 </r>
       <r>    24.6052    -0.0000    24.0000 </r>
       <r>    24.6212    -0.0000    24.0000 </r>
       <r>    24.6372    -0.0000    24.0000 </r>
       <r>    24.6532    -0.0000    24.0000 </r>
       <r>    24.6692    -0.0000    24.0000 </r>
       <r>    24.6853    -0.0000    24.0000 </r>
       <r>    24.7013    -0.0000    24.0000 </r>
       <r>    24.7173    -0.0000    24.0000 </r>
       <r>    24.7333    -0.0000    24.0000 </r>
       <r>    24.7494    -0.0000    24.0000 </r>
       <r>    24.7654    -0.0000    24.0000 </r>
       <r>    24.7814    -0.0000    24.0000 </r>
       <r>    24.7974    -0.0000    24.0000 </r>
       <r>    24.8134    -0.0000    24.0000 </r>
       <r>    24.8295    -0.0000    24.0000 </r>
       <r>    24.8455    -0.0000    24.0000 </r>
       <r>    24.8615    -0.0000    24.0000 </r>
       <r>    24.8775    -0.0000    24.0000 </r>
       <r>    24.8936    -0.0000    24.0000 </r>
       <r>    24.9096    -0.0000    24.0000 </r>
       <r>    24.9256    -0.0000    24.0000 </r>
       <r>    24.9416    -0.0000    24.0000 </r>
       <r>    24.9576    -0.0000    24.0000 </r>
       <r>    24.9737    -0.0000    24.0000 </r>
       <r>    24.9897    -0.0000    24.0000 </r>
       <r>    25.0057    -0.0000    24.0000 </r>
       <r>    25.0217    -0.0000    24.0000 </r>
       <r>    25.0378    -0.0000    24.0000 </r>
       <r>    25.0538    -0.0000    24.0000 </r>
       <r>    25.0698    -0.0000    24.0000 </r>
       <r>    25.0858    -0.0000    24.0000 </r>
       <r>    25.1018    -0.0000    24.0000 </r>
       <r>    25.1179    -0.0000    24.0000 </r>
       <r>    25.1339    -0.0000    24.0000 </r>
       <r>    25.1499    -0.0000    24.0000 </r>
       <r>    25.1659    -0.0000    24.0000 </r>
       <r>    25.1820    -0.0000    24.0000 </r>
       <r>    25.1980    -0.0000    24.0000 </r>
       <r>    25.2140    -0.0000    24.0000 </r>
       <r>    25.2300    -0.0000    24.0000 </r>
       <r>    25.2460    -0.0000    24.0000 </r>
       <r>    25.2621    -0.0000    24.0000 </r>
       <r>    25.2781    -0.0000    24.0000 </r>
       <r>    25.2941    -0.0000    24.0000 </r>
       <r>    25.3101    -0.0000    24.0000 </r>
       <r>    25.3262    -0.0000    24.0000 </r>
       <r>    25.3422    -0.0000    24.0000 </r>
       <r>    25.3582    -0.0000    24.0000 </r>
       <r>    25.3742    -0.0000    24.0000 </r>
       <r>    25.3902    -0.0000    24.0000 </r>
       <r>    25.4063    -0.0000    24.0000 </r>
       <r>    25.4223    -0.0000    24.0000 </r>
       <r>    25.4383    -0.0000    24.0000 </r>
       <r>    25.4543    -0.0000    24.0000 </r>
       <r>    25.4704    -0.0000    24.0000 </r>
       <r>    25.4864     0.0000    24.0000 </r>
       <r>    25.5024     0.0000    24.0000 </r>
       <r>    25.5184     0.0000    24.0000 </r>
       <r>    25.5344     0.0000    24.0000 </r>
       <r>    25.5505     0.0000    24.0000 </r>
       <r>    25.5665     0.0000    24.0000 </r>
       <r>    25.5825     0.0000    24.0000 </r>
       <r>    25.5985     0.0000    24.0000 </r>
       <r>    25.6146     0.0000    24.0000 </r>
       <r>    25.6306     0.0000    24.0000 </r>
       <r>    25.6466     0.0000    24.0000 </r>
       <r>    25.6626     0.0000    24.0000 </r>
       <r>    25.6786     0.0000    24.0000 </r>
       <r>    25.6947     0.0000    24.0000 </r>
       <r>    25.7107     0.0000    24.0000 </r>
       <r>    25.7267     0.0000    24.0000 </r>
       <r>    25.7427     0.0000    24.0000 </r>
       <r>    25.7587     0.0000    24.0000 </r>
       <r>    25.7748     0.0000    24.0000 </r>
       <r>    25.7908     0.0000    24.0000 </r>
       <r>    25.8068     0.0000    24.0000 </r>
       <r>    25.8228     0.0000    24.0000 </r>
       <r>    25.8389     0.0000    24.0000 </r>
       <r>    25.8549     0.0000    24.0000 </r>
       <r>    25.8709     0.0000    24.0000 </r>
       <r>    25.8869     0.0000    24.0000 </r>
       <r>    25.9029     0.0000    24.0000 </r>
       <r>    25.9190     0.0000    24.0000 </r>
       <r>    25.9350     0.0000    24.0000 </r>
       <r>    25.9510     0.0000    24.0000 </r>
       <r>    25.9670     0.0000    24.0000 </r>
       <r>    25.9831     0.0000    24.0000 </r>
       <r>    25.9991     0.0000    24.0000 </r>
       <r>    26.0151     0.0000    24.0000 </r>
       <r>    26.0311     0.0000    24.0000 </r>
       <r>    26.0471     0.0000    24.0000 </r>
       <r>    26.0632     0.0000    24.0000 </r>
       <r>    26.0792     0.0000    24.0000 </r>
       <r>    26.0952     0.0000    24.0000 </r>
       <r>    26.1112     0.0000    24.0000 </r>
       <r>    26.1273     0.0000    24.0000 </r>
       <r>    26.1433     0.0000    24.0000 </r>
       <r>    26.1593     0.0000    24.0000 </r>
       <r>    26.1753     0.0000    24.0000 </r>
       <r>    26.1913     0.0000    24.0000 </r>
       <r>    26.2074     0.0000    24.0000 </r>
       <r>    26.2234     0.0000    24.0000 </r>
       <r>    26.2394     0.0000    24.0000 </r>
      </set>
      <set comment="spin 2">
       <r>    -5.7888     0.0000     0.0000 </r>
       <r>    -5.7727     0.0000     0.0000 </r>
       <r>    -5.7567     0.0000     0.0000 </r>
       <r>    -5.7407     0.0000     0.0000 </r>
       <r>    -5.7247     0.0000     0.0000 </r>
       <r>    -5.7086     0.0000     0.0000 </r>
       <r>    -5.6926     0.0000     0.0000 </r>
       <r>    -5.6766     0.0000     0.0000 </r>
       <r>    -5.6606     0.0000     0.0000 </r>
       <r>    -5.6446     0.0000     0.0000 </r>
       <r>    -5.6285     0.0000     0.0000 </r>
       <r>    -5.6125     0.0000     0.0000 </r>
       <r>    -5.5965     0.0000     0.0000 </r>
       <r>    -5.5805     0.0000     0.0000 </r>
       <r>    -5.5644     0.0000     0.0000 </r>
       <r>    -5.5484     0.0000     0.0000 </r>
       <r>    -5.5324     0.0000     0.0000 </r>
       <r>    -5.5164     0.0000     0.0000 </r>
       <r>    -5.5004     0.0000     0.0000 </r>
       <r>    -5.4843     0.0000     0.0000 </r>
       <r>    -5.4683     0.0000     0.0000 </r>
       <r>    -5.4523     0.0000     0.0000 </r>
       <r>    -5.4363     0.0000     0.0000 </r>
       <r>    -5.4202     0.0000     0.0000 </r>
       <r>    -5.4042    -0.0000    -0.0000 </r>
       <r>    -5.3882    -0.0000    -0.0000 </r>
       <r>    -5.3722    -0.0000    -0.0000 </r>
       <r>    -5.3562    -0.0000    -0.0000 </r>
       <r>    -5.3401    -0.0000    -0.0000 </r>
       <r>    -5.3241    -0.0000    -0.0000 </r>
       <r>    -5.3081    -0.0000    -0.0000 </r>
       <r>    -5.2921    -0.0000    -0.0000 </r>
       <r>    -5.2760    -0.0000    -0.0000 </r>
       <r>    -5.2600    -0.0000    -0.0000 </r>
       <r>    -5.2440    -0.0000    -0.0000 </r>
       <r>    -5.2280    -0.0000    -0.0000 </r>
       <r>    -5.2120    -0.0000    -0.0000 </r>
       <r>    -5.1959    -0.0000    -0.0000 </r>
       <r>    -5.1799    -0.0000    -0.0000 </r>
       <r>    -5.1639    -0.0000    -0.0000 </r>
       <r>    -5.1479    -0.0000    -0.0000 </r>
       <r>    -5.1319    -0.0000    -0.0000 </r>
       <r>    -5.1158    -0.0000    -0.0000 </r>
       <r>    -5.0998    -0.0000    -0.0000 </r>
       <r>    -5.0838    -0.0000    -0.0000 </r>
       <r>    -5.0678    -0.0000    -0.0000 </r>
       <r>    -5.0517    -0.0000    -0.0000 </r>
       <r>    -5.0357    -0.0000    -0.0000 </r>
       <r>    -5.0197    -0.0000    -0.0000 </r>
       <r>    -5.0037    -0.0000    -0.0000 </r>
       <r>    -4.9877    -0.0000    -0.0000 </r>
       <r>    -4.9716    -0.0000    -0.0000 </r>
       <r>    -4.9556    -0.0000    -0.0000 </r>
       <r>    -4.9396    -0.0000    -0.0000 </r>
       <r>    -4.9236    -0.0000    -0.0000 </r>
       <r>    -4.9075    -0.0000    -0.0000 </r>
       <r>    -4.8915    -0.0000    -0.0000 </r>
       <r>    -4.8755    -0.0000    -0.0000 </r>
       <r>    -4.8595    -0.0000    -0.0000 </r>
       <r>    -4.8435    -0.0000    -0.0000 </r>
       <r>    -4.8274    -0.0000    -0.0000 </r>
       <r>    -4.8114    -0.0000    -0.0000 </r>
       <r>    -4.7954    -0.0000    -0.0000 </r>
       <r>    -4.7794    -0.0000    -0.0000 </r>
       <r>    -4.7633    -0.0000    -0.0000 </r>
       <r>    -4.7473    -0.0000    -0.0000 </r>
       <r>    -4.7313    -0.0000    -0.0000 </r>
       <r>    -4.7153    -0.0000    -0.0000 </r>
       <r>    -4.6993    -0.0000    -0.0000 </r>
       <r>    -4.6832    -0.0000    -0.0000 </r>
       <r>    -4.6672    -0.0000    -0.0000 </r>
       <r>    -4.6512    -0.0000    -0.0000 </r>
       <r>    -4.6352    -0.0000    -0.0000 </r>
       <r>    -4.6191    -0.0000    -0.0000 </r>
       <r>    -4.6031    -0.0000    -0.0000 </r>
       <r>    -4.5871    -0.0000    -0.0000 </r>
       <r>    -4.5711    -0.0000    -0.0000 </r>
       <r>    -4.5551    -0.0000    -0.0000 </r>
       <r>    -4.5390    -0.0000    -0.0000 </r>
       <r>    -4.5230    -0.0000    -0.0000 </r>
       <r>    -4.5070    -0.0000    -0.0000 </r>
       <r>    -4.4910    -0.0000    -0.0000 </r>
       <r>    -4.4749    -0.0000    -0.0000 </r>
       <r>    -4.4589    -0.0000    -0.0000 </r>
       <r>    -4.4429    -0.0000    -0.0000 </r>
       <r>    -4.4269    -0.0000    -0.0000 </r>
       <r>    -4.4109    -0.0000    -0.0000 </r>
       <r>    -4.3948    -0.0000    -0.0000 </r>
       <r>    -4.3788    -0.0000    -0.0000 </r>
       <r>    -4.3628    -0.0000    -0.0000 </r>
       <r>    -4.3468    -0.0000    -0.0000 </r>
       <r>    -4.3307    -0.0000    -0.0000 </r>
       <r>    -4.3147    -0.0000    -0.0000 </r>
       <r>    -4.2987    -0.0000    -0.0000 </r>
       <r>    -4.2827    -0.0000    -0.0000 </r>
       <r>    -4.2667    -0.0000    -0.0000 </r>
       <r>    -4.2506    -0.0001    -0.0000 </r>
       <r>    -4.2346    -0.0001    -0.0000 </r>
       <r>    -4.2186    -0.0001    -0.0000 </r>
       <r>    -4.2026    -0.0002    -0.0000 </r>
       <r>    -4.1865    -0.0002    -0.0000 </r>
       <r>    -4.1705    -0.0003    -0.0000 </r>
       <r>    -4.1545    -0.0004    -0.0000 </r>
       <r>    -4.1385    -0.0005    -0.0000 </r>
       <r>    -4.1225    -0.0006    -0.0000 </r>
       <r>    -4.1064    -0.0008    -0.0001 </r>
       <r>    -4.0904    -0.0009    -0.0001 </r>
       <r>    -4.0744    -0.0011    -0.0001 </r>
       <r>    -4.0584    -0.0013    -0.0001 </r>
       <r>    -4.0423    -0.0015    -0.0001 </r>
       <r>    -4.0263    -0.0017    -0.0002 </r>
       <r>    -4.0103    -0.0018    -0.0002 </r>
       <r>    -3.9943    -0.0019    -0.0002 </r>
       <r>    -3.9783    -0.0019    -0.0002 </r>
       <r>    -3.9622    -0.0017    -0.0003 </r>
       <r>    -3.9462    -0.0015    -0.0003 </r>
       <r>    -3.9302    -0.0010    -0.0003 </r>
       <r>    -3.9142    -0.0003    -0.0003 </r>
       <r>    -3.8981     0.0006    -0.0003 </r>
       <r>    -3.8821     0.0019    -0.0003 </r>
       <r>    -3.8661     0.0034    -0.0002 </r>
       <r>    -3.8501     0.0053    -0.0001 </r>
       <r>    -3.8341     0.0075    -0.0000 </r>
       <r>    -3.8180     0.0101     0.0001 </r>
       <r>    -3.8020     0.0130     0.0004 </r>
       <r>    -3.7860     0.0162     0.0006 </r>
       <r>    -3.7700     0.0196     0.0009 </r>
       <r>    -3.7540     0.0233     0.0013 </r>
       <r>    -3.7379     0.0272     0.0017 </r>
       <r>    -3.7219     0.0312     0.0022 </r>
       <r>    -3.7059     0.0353     0.0028 </r>
       <r>    -3.6899     0.0394     0.0034 </r>
       <r>    -3.6738     0.0435     0.0041 </r>
       <r>    -3.6578     0.0475     0.0049 </r>
       <r>    -3.6418     0.0515     0.0057 </r>
       <r>    -3.6258     0.0553     0.0066 </r>
       <r>    -3.6098     0.0589     0.0075 </r>
       <r>    -3.5937     0.0624     0.0085 </r>
       <r>    -3.5777     0.0658     0.0096 </r>
       <r>    -3.5617     0.0690     0.0107 </r>
       <r>    -3.5457     0.0720     0.0119 </r>
       <r>    -3.5296     0.0750     0.0131 </r>
       <r>    -3.5136     0.0778     0.0143 </r>
       <r>    -3.4976     0.0805     0.0156 </r>
       <r>    -3.4816     0.0831     0.0169 </r>
       <r>    -3.4656     0.0855     0.0183 </r>
       <r>    -3.4495     0.0878     0.0197 </r>
       <r>    -3.4335     0.0900     0.0211 </r>
       <r>    -3.4175     0.0921     0.0226 </r>
       <r>    -3.4015     0.0940     0.0241 </r>
       <r>    -3.3854     0.0958     0.0257 </r>
       <r>    -3.3694     0.0975     0.0272 </r>
       <r>    -3.3534     0.0991     0.0288 </r>
       <r>    -3.3374     0.1007     0.0304 </r>
       <r>    -3.3214     0.1023     0.0321 </r>
       <r>    -3.3053     0.1040     0.0337 </r>
       <r>    -3.2893     0.1057     0.0354 </r>
       <r>    -3.2733     0.1076     0.0371 </r>
       <r>    -3.2573     0.1096     0.0389 </r>
       <r>    -3.2412     0.1118     0.0407 </r>
       <r>    -3.2252     0.1141     0.0425 </r>
       <r>    -3.2092     0.1165     0.0444 </r>
       <r>    -3.1932     0.1189     0.0463 </r>
       <r>    -3.1772     0.1212     0.0482 </r>
       <r>    -3.1611     0.1235     0.0502 </r>
       <r>    -3.1451     0.1256     0.0522 </r>
       <r>    -3.1291     0.1274     0.0543 </r>
       <r>    -3.1131     0.1289     0.0563 </r>
       <r>    -3.0970     0.1301     0.0584 </r>
       <r>    -3.0810     0.1311     0.0605 </r>
       <r>    -3.0650     0.1317     0.0626 </r>
       <r>    -3.0490     0.1322     0.0647 </r>
       <r>    -3.0330     0.1326     0.0669 </r>
       <r>    -3.0169     0.1330     0.0690 </r>
       <r>    -3.0009     0.1336     0.0711 </r>
       <r>    -2.9849     0.1344     0.0733 </r>
       <r>    -2.9689     0.1355     0.0755 </r>
       <r>    -2.9528     0.1371     0.0777 </r>
       <r>    -2.9368     0.1391     0.0799 </r>
       <r>    -2.9208     0.1415     0.0822 </r>
       <r>    -2.9048     0.1443     0.0845 </r>
       <r>    -2.8888     0.1474     0.0868 </r>
       <r>    -2.8727     0.1505     0.0892 </r>
       <r>    -2.8567     0.1537     0.0917 </r>
       <r>    -2.8407     0.1568     0.0942 </r>
       <r>    -2.8247     0.1595     0.0968 </r>
       <r>    -2.8086     0.1618     0.0994 </r>
       <r>    -2.7926     0.1637     0.1020 </r>
       <r>    -2.7766     0.1650     0.1046 </r>
       <r>    -2.7606     0.1659     0.1073 </r>
       <r>    -2.7446     0.1662     0.1100 </r>
       <r>    -2.7285     0.1662     0.1126 </r>
       <r>    -2.7125     0.1660     0.1153 </r>
       <r>    -2.6965     0.1656     0.1179 </r>
       <r>    -2.6805     0.1653     0.1206 </r>
       <r>    -2.6644     0.1650     0.1232 </r>
       <r>    -2.6484     0.1651     0.1259 </r>
       <r>    -2.6324     0.1655     0.1285 </r>
       <r>    -2.6164     0.1662     0.1312 </r>
       <r>    -2.6004     0.1673     0.1339 </r>
       <r>    -2.5843     0.1688     0.1366 </r>
       <r>    -2.5683     0.1707     0.1393 </r>
       <r>    -2.5523     0.1728     0.1421 </r>
       <r>    -2.5363     0.1752     0.1449 </r>
       <r>    -2.5202     0.1777     0.1477 </r>
       <r>    -2.5042     0.1804     0.1506 </r>
       <r>    -2.4882     0.1831     0.1536 </r>
       <r>    -2.4722     0.1858     0.1565 </r>
       <r>    -2.4562     0.1886     0.1595 </r>
       <r>    -2.4401     0.1914     0.1626 </r>
       <r>    -2.4241     0.1941     0.1657 </r>
       <r>    -2.4081     0.1968     0.1689 </r>
       <r>    -2.3921     0.1994     0.1721 </r>
       <r>    -2.3761     0.2018     0.1753 </r>
       <r>    -2.3600     0.2040     0.1786 </r>
       <r>    -2.3440     0.2059     0.1819 </r>
       <r>    -2.3280     0.2074     0.1852 </r>
       <r>    -2.3120     0.2085     0.1885 </r>
       <r>    -2.2959     0.2090     0.1919 </r>
       <r>    -2.2799     0.2089     0.1952 </r>
       <r>    -2.2639     0.2083     0.1986 </r>
       <r>    -2.2479     0.2072     0.2019 </r>
       <r>    -2.2319     0.2058     0.2052 </r>
       <r>    -2.2158     0.2041     0.2085 </r>
       <r>    -2.1998     0.2024     0.2117 </r>
       <r>    -2.1838     0.2008     0.2149 </r>
       <r>    -2.1678     0.1996     0.2181 </r>
       <r>    -2.1517     0.1991     0.2213 </r>
       <r>    -2.1357     0.1993     0.2245 </r>
       <r>    -2.1197     0.2004     0.2277 </r>
       <r>    -2.1037     0.2025     0.2310 </r>
       <r>    -2.0877     0.2056     0.2342 </r>
       <r>    -2.0716     0.2097     0.2376 </r>
       <r>    -2.0556     0.2147     0.2410 </r>
       <r>    -2.0396     0.2203     0.2446 </r>
       <r>    -2.0236     0.2262     0.2482 </r>
       <r>    -2.0075     0.2323     0.2519 </r>
       <r>    -1.9915     0.2382     0.2557 </r>
       <r>    -1.9755     0.2436     0.2596 </r>
       <r>    -1.9595     0.2482     0.2636 </r>
       <r>    -1.9435     0.2519     0.2677 </r>
       <r>    -1.9274     0.2545     0.2717 </r>
       <r>    -1.9114     0.2559     0.2758 </r>
       <r>    -1.8954     0.2562     0.2799 </r>
       <r>    -1.8794     0.2554     0.2840 </r>
       <r>    -1.8633     0.2536     0.2881 </r>
       <r>    -1.8473     0.2512     0.2921 </r>
       <r>    -1.8313     0.2483     0.2961 </r>
       <r>    -1.8153     0.2451     0.3000 </r>
       <r>    -1.7993     0.2421     0.3039 </r>
       <r>    -1.7832     0.2395     0.3077 </r>
       <r>    -1.7672     0.2374     0.3115 </r>
       <r>    -1.7512     0.2362     0.3153 </r>
       <r>    -1.7352     0.2359     0.3191 </r>
       <r>    -1.7191     0.2367     0.3229 </r>
       <r>    -1.7031     0.2385     0.3267 </r>
       <r>    -1.6871     0.2414     0.3306 </r>
       <r>    -1.6711     0.2453     0.3345 </r>
       <r>    -1.6551     0.2500     0.3385 </r>
       <r>    -1.6390     0.2553     0.3426 </r>
       <r>    -1.6230     0.2612     0.3468 </r>
       <r>    -1.6070     0.2673     0.3511 </r>
       <r>    -1.5910     0.2734     0.3555 </r>
       <r>    -1.5749     0.2793     0.3599 </r>
       <r>    -1.5589     0.2848     0.3645 </r>
       <r>    -1.5429     0.2897     0.3691 </r>
       <r>    -1.5269     0.2939     0.3739 </r>
       <r>    -1.5109     0.2974     0.3786 </r>
       <r>    -1.4948     0.3000     0.3834 </r>
       <r>    -1.4788     0.3018     0.3883 </r>
       <r>    -1.4628     0.3030     0.3931 </r>
       <r>    -1.4468     0.3036     0.3980 </r>
       <r>    -1.4307     0.3040     0.4028 </r>
       <r>    -1.4147     0.3042     0.4077 </r>
       <r>    -1.3987     0.3046     0.4126 </r>
       <r>    -1.3827     0.3053     0.4175 </r>
       <r>    -1.3667     0.3066     0.4224 </r>
       <r>    -1.3506     0.3086     0.4274 </r>
       <r>    -1.3346     0.3114     0.4323 </r>
       <r>    -1.3186     0.3149     0.4374 </r>
       <r>    -1.3026     0.3191     0.4425 </r>
       <r>    -1.2865     0.3238     0.4477 </r>
       <r>    -1.2705     0.3287     0.4530 </r>
       <r>    -1.2545     0.3337     0.4583 </r>
       <r>    -1.2385     0.3383     0.4637 </r>
       <r>    -1.2225     0.3424     0.4692 </r>
       <r>    -1.2064     0.3457     0.4747 </r>
       <r>    -1.1904     0.3479     0.4803 </r>
       <r>    -1.1744     0.3489     0.4859 </r>
       <r>    -1.1584     0.3487     0.4915 </r>
       <r>    -1.1423     0.3472     0.4971 </r>
       <r>    -1.1263     0.3446     0.5026 </r>
       <r>    -1.1103     0.3411     0.5080 </r>
       <r>    -1.0943     0.3368     0.5134 </r>
       <r>    -1.0783     0.3320     0.5188 </r>
       <r>    -1.0622     0.3271     0.5240 </r>
       <r>    -1.0462     0.3223     0.5292 </r>
       <r>    -1.0302     0.3180     0.5343 </r>
       <r>    -1.0142     0.3145     0.5393 </r>
       <r>    -0.9982     0.3118     0.5443 </r>
       <r>    -0.9821     0.3103     0.5493 </r>
       <r>    -0.9661     0.3099     0.5542 </r>
       <r>    -0.9501     0.3106     0.5592 </r>
       <r>    -0.9341     0.3124     0.5642 </r>
       <r>    -0.9180     0.3149     0.5693 </r>
       <r>    -0.9020     0.3180     0.5744 </r>
       <r>    -0.8860     0.3212     0.5795 </r>
       <r>    -0.8700     0.3242     0.5847 </r>
       <r>    -0.8540     0.3267     0.5899 </r>
       <r>    -0.8379     0.3282     0.5952 </r>
       <r>    -0.8219     0.3286     0.6005 </r>
       <r>    -0.8059     0.3276     0.6057 </r>
       <r>    -0.7899     0.3251     0.6109 </r>
       <r>    -0.7738     0.3213     0.6161 </r>
       <r>    -0.7578     0.3164     0.6211 </r>
       <r>    -0.7418     0.3105     0.6261 </r>
       <r>    -0.7258     0.3042     0.6310 </r>
       <r>    -0.7098     0.2978     0.6357 </r>
       <r>    -0.6937     0.2919     0.6404 </r>
       <r>    -0.6777     0.2868     0.6450 </r>
       <r>    -0.6617     0.2831     0.6496 </r>
       <r>    -0.6457     0.2809     0.6541 </r>
       <r>    -0.6296     0.2804     0.6585 </r>
       <r>    -0.6136     0.2817     0.6631 </r>
       <r>    -0.5976     0.2846     0.6676 </r>
       <r>    -0.5816     0.2890     0.6722 </r>
       <r>    -0.5656     0.2944     0.6770 </r>
       <r>    -0.5495     0.3005     0.6818 </r>
       <r>    -0.5335     0.3067     0.6867 </r>
       <r>    -0.5175     0.3127     0.6917 </r>
       <r>    -0.5015     0.3181     0.6968 </r>
       <r>    -0.4854     0.3225     0.7020 </r>
       <r>    -0.4694     0.3257     0.7072 </r>
       <r>    -0.4534     0.3275     0.7124 </r>
       <r>    -0.4374     0.3281     0.7177 </r>
       <r>    -0.4214     0.3275     0.7229 </r>
       <r>    -0.4053     0.3261     0.7282 </r>
       <r>    -0.3893     0.3240     0.7334 </r>
       <r>    -0.3733     0.3218     0.7385 </r>
       <r>    -0.3573     0.3197     0.7436 </r>
       <r>    -0.3412     0.3182     0.7487 </r>
       <r>    -0.3252     0.3175     0.7538 </r>
       <r>    -0.3092     0.3181     0.7589 </r>
       <r>    -0.2932     0.3199     0.7640 </r>
       <r>    -0.2772     0.3231     0.7692 </r>
       <r>    -0.2611     0.3277     0.7745 </r>
       <r>    -0.2451     0.3334     0.7798 </r>
       <r>    -0.2291     0.3402     0.7853 </r>
       <r>    -0.2131     0.3478     0.7908 </r>
       <r>    -0.1970     0.3558     0.7965 </r>
       <r>    -0.1810     0.3640     0.8024 </r>
       <r>    -0.1650     0.3720     0.8083 </r>
       <r>    -0.1490     0.3797     0.8144 </r>
       <r>    -0.1330     0.3869     0.8206 </r>
       <r>    -0.1169     0.3933     0.8269 </r>
       <r>    -0.1009     0.3989     0.8333 </r>
       <r>    -0.0849     0.4037     0.8398 </r>
       <r>    -0.0689     0.4076     0.8463 </r>
       <r>    -0.0528     0.4107     0.8529 </r>
       <r>    -0.0368     0.4130     0.8595 </r>
       <r>    -0.0208     0.4147     0.8661 </r>
       <r>    -0.0048     0.4157     0.8728 </r>
       <r>     0.0112     0.4162     0.8795 </r>
       <r>     0.0273     0.4162     0.8861 </r>
       <r>     0.0433     0.4159     0.8928 </r>
       <r>     0.0593     0.4153     0.8995 </r>
       <r>     0.0753     0.4145     0.9061 </r>
       <r>     0.0914     0.4138     0.9127 </r>
       <r>     0.1074     0.4131     0.9193 </r>
       <r>     0.1234     0.4127     0.9260 </r>
       <r>     0.1394     0.4128     0.9326 </r>
       <r>     0.1554     0.4136     0.9392 </r>
       <r>     0.1715     0.4153     0.9459 </r>
       <r>     0.1875     0.4181     0.9526 </r>
       <r>     0.2035     0.4222     0.9593 </r>
       <r>     0.2195     0.4276     0.9662 </r>
       <r>     0.2356     0.4345     0.9731 </r>
       <r>     0.2516     0.4428     0.9802 </r>
       <r>     0.2676     0.4526     0.9875 </r>
       <r>     0.2836     0.4636     0.9949 </r>
       <r>     0.2996     0.4756     1.0025 </r>
       <r>     0.3157     0.4884     1.0103 </r>
       <r>     0.3317     0.5015     1.0184 </r>
       <r>     0.3477     0.5146     1.0266 </r>
       <r>     0.3637     0.5273     1.0351 </r>
       <r>     0.3797     0.5390     1.0437 </r>
       <r>     0.3958     0.5492     1.0525 </r>
       <r>     0.4118     0.5577     1.0614 </r>
       <r>     0.4278     0.5639     1.0705 </r>
       <r>     0.4438     0.5675     1.0796 </r>
       <r>     0.4599     0.5682     1.0887 </r>
       <r>     0.4759     0.5659     1.0977 </r>
       <r>     0.4919     0.5604     1.1067 </r>
       <r>     0.5079     0.5518     1.1156 </r>
       <r>     0.5239     0.5401     1.1242 </r>
       <r>     0.5400     0.5257     1.1326 </r>
       <r>     0.5560     0.5088     1.1408 </r>
       <r>     0.5720     0.4898     1.1486 </r>
       <r>     0.5880     0.4694     1.1562 </r>
       <r>     0.6041     0.4480     1.1633 </r>
       <r>     0.6201     0.4263     1.1702 </r>
       <r>     0.6361     0.4049     1.1766 </r>
       <r>     0.6521     0.3845     1.1828 </r>
       <r>     0.6681     0.3656     1.1887 </r>
       <r>     0.6842     0.3487     1.1943 </r>
       <r>     0.7002     0.3344     1.1996 </r>
       <r>     0.7162     0.3228     1.2048 </r>
       <r>     0.7322     0.3141     1.2098 </r>
       <r>     0.7483     0.3085     1.2148 </r>
       <r>     0.7643     0.3059     1.2197 </r>
       <r>     0.7803     0.3061     1.2246 </r>
       <r>     0.7963     0.3089     1.2295 </r>
       <r>     0.8123     0.3141     1.2345 </r>
       <r>     0.8284     0.3212     1.2397 </r>
       <r>     0.8444     0.3299     1.2450 </r>
       <r>     0.8604     0.3399     1.2504 </r>
       <r>     0.8764     0.3509     1.2560 </r>
       <r>     0.8925     0.3625     1.2619 </r>
       <r>     0.9085     0.3745     1.2679 </r>
       <r>     0.9245     0.3868     1.2741 </r>
       <r>     0.9405     0.3990     1.2804 </r>
       <r>     0.9565     0.4112     1.2870 </r>
       <r>     0.9726     0.4232     1.2938 </r>
       <r>     0.9886     0.4349     1.3008 </r>
       <r>     1.0046     0.4463     1.3079 </r>
       <r>     1.0206     0.4574     1.3153 </r>
       <r>     1.0367     0.4682     1.3228 </r>
       <r>     1.0527     0.4786     1.3304 </r>
       <r>     1.0687     0.4886     1.3383 </r>
       <r>     1.0847     0.4983     1.3462 </r>
       <r>     1.1007     0.5076     1.3544 </r>
       <r>     1.1168     0.5167     1.3627 </r>
       <r>     1.1328     0.5255     1.3711 </r>
       <r>     1.1488     0.5341     1.3796 </r>
       <r>     1.1648     0.5427     1.3883 </r>
       <r>     1.1809     0.5513     1.3972 </r>
       <r>     1.1969     0.5601     1.4061 </r>
       <r>     1.2129     0.5692     1.4153 </r>
       <r>     1.2289     0.5787     1.4245 </r>
       <r>     1.2449     0.5888     1.4340 </r>
       <r>     1.2610     0.5997     1.4436 </r>
       <r>     1.2770     0.6115     1.4534 </r>
       <r>     1.2930     0.6242     1.4634 </r>
       <r>     1.3090     0.6379     1.4736 </r>
       <r>     1.3251     0.6528     1.4840 </r>
       <r>     1.3411     0.6687     1.4948 </r>
       <r>     1.3571     0.6857     1.5057 </r>
       <r>     1.3731     0.7036     1.5170 </r>
       <r>     1.3891     0.7223     1.5286 </r>
       <r>     1.4052     0.7416     1.5405 </r>
       <r>     1.4212     0.7613     1.5527 </r>
       <r>     1.4372     0.7809     1.5652 </r>
       <r>     1.4532     0.8003     1.5780 </r>
       <r>     1.4693     0.8190     1.5911 </r>
       <r>     1.4853     0.8367     1.6045 </r>
       <r>     1.5013     0.8531     1.6182 </r>
       <r>     1.5173     0.8679     1.6321 </r>
       <r>     1.5333     0.8809     1.6462 </r>
       <r>     1.5494     0.8918     1.6605 </r>
       <r>     1.5654     0.9006     1.6749 </r>
       <r>     1.5814     0.9072     1.6895 </r>
       <r>     1.5974     0.9118     1.7041 </r>
       <r>     1.6135     0.9145     1.7187 </r>
       <r>     1.6295     0.9154     1.7334 </r>
       <r>     1.6455     0.9148     1.7481 </r>
       <r>     1.6615     0.9132     1.7627 </r>
       <r>     1.6775     0.9109     1.7773 </r>
       <r>     1.6936     0.9084     1.7918 </r>
       <r>     1.7096     0.9062     1.8064 </r>
       <r>     1.7256     0.9050     1.8209 </r>
       <r>     1.7416     0.9054     1.8354 </r>
       <r>     1.7577     0.9079     1.8499 </r>
       <r>     1.7737     0.9134     1.8645 </r>
       <r>     1.7897     0.9223     1.8793 </r>
       <r>     1.8057     0.9352     1.8943 </r>
       <r>     1.8217     0.9525     1.9096 </r>
       <r>     1.8378     0.9743     1.9252 </r>
       <r>     1.8538     1.0005     1.9412 </r>
       <r>     1.8698     1.0308     1.9577 </r>
       <r>     1.8858     1.0647     1.9748 </r>
       <r>     1.9018     1.1010     1.9924 </r>
       <r>     1.9179     1.1388     2.0107 </r>
       <r>     1.9339     1.1765     2.0295 </r>
       <r>     1.9499     1.2128     2.0489 </r>
       <r>     1.9659     1.2460     2.0689 </r>
       <r>     1.9820     1.2747     2.0893 </r>
       <r>     1.9980     1.2975     2.1101 </r>
       <r>     2.0140     1.3136     2.1312 </r>
       <r>     2.0300     1.3221     2.1524 </r>
       <r>     2.0460     1.3228     2.1735 </r>
       <r>     2.0621     1.3159     2.1946 </r>
       <r>     2.0781     1.3020     2.2155 </r>
       <r>     2.0941     1.2823     2.2360 </r>
       <r>     2.1101     1.2581     2.2562 </r>
       <r>     2.1262     1.2311     2.2759 </r>
       <r>     2.1422     1.2032     2.2952 </r>
       <r>     2.1582     1.1764     2.3140 </r>
       <r>     2.1742     1.1526     2.3325 </r>
       <r>     2.1902     1.1334     2.3507 </r>
       <r>     2.2063     1.1202     2.3686 </r>
       <r>     2.2223     1.1142     2.3865 </r>
       <r>     2.2383     1.1158     2.4043 </r>
       <r>     2.2543     1.1252     2.4224 </r>
       <r>     2.2704     1.1422     2.4407 </r>
       <r>     2.2864     1.1658     2.4594 </r>
       <r>     2.3024     1.1948     2.4785 </r>
       <r>     2.3184     1.2278     2.4982 </r>
       <r>     2.3344     1.2630     2.5184 </r>
       <r>     2.3505     1.2986     2.5392 </r>
       <r>     2.3665     1.3328     2.5606 </r>
       <r>     2.3825     1.3637     2.5824 </r>
       <r>     2.3985     1.3900     2.6047 </r>
       <r>     2.4146     1.4104     2.6273 </r>
       <r>     2.4306     1.4241     2.6501 </r>
       <r>     2.4466     1.4308     2.6730 </r>
       <r>     2.4626     1.4304     2.6959 </r>
       <r>     2.4786     1.4234     2.7188 </r>
       <r>     2.4947     1.4103     2.7413 </r>
       <r>     2.5107     1.3922     2.7637 </r>
       <r>     2.5267     1.3703     2.7856 </r>
       <r>     2.5427     1.3456     2.8072 </r>
       <r>     2.5588     1.3194     2.8283 </r>
       <r>     2.5748     1.2930     2.8490 </r>
       <r>     2.5908     1.2673     2.8693 </r>
       <r>     2.6068     1.2434     2.8893 </r>
       <r>     2.6228     1.2221     2.9088 </r>
       <r>     2.6389     1.2043     2.9281 </r>
       <r>     2.6549     1.1910     2.9472 </r>
       <r>     2.6709     1.1829     2.9662 </r>
       <r>     2.6869     1.1814     2.9851 </r>
       <r>     2.7030     1.1876     3.0041 </r>
       <r>     2.7190     1.2034     3.0234 </r>
       <r>     2.7350     1.2305     3.0431 </r>
       <r>     2.7510     1.2711     3.0635 </r>
       <r>     2.7670     1.3275     3.0847 </r>
       <r>     2.7831     1.4021     3.1072 </r>
       <r>     2.7991     1.4971     3.1312 </r>
       <r>     2.8151     1.6145     3.1571 </r>
       <r>     2.8311     1.7556     3.1852 </r>
       <r>     2.8472     1.9212     3.2160 </r>
       <r>     2.8632     2.1111     3.2498 </r>
       <r>     2.8792     2.3242     3.2870 </r>
       <r>     2.8952     2.5581     3.3280 </r>
       <r>     2.9112     2.8095     3.3730 </r>
       <r>     2.9273     3.0739     3.4223 </r>
       <r>     2.9433     3.3458     3.4759 </r>
       <r>     2.9593     3.6192     3.5339 </r>
       <r>     2.9753     3.8871     3.5962 </r>
       <r>     2.9914     4.1428     3.6625 </r>
       <r>     3.0074     4.3794     3.7327 </r>
       <r>     3.0234     4.5905     3.8063 </r>
       <r>     3.0394     4.7702     3.8827 </r>
       <r>     3.0554     4.9138     3.9614 </r>
       <r>     3.0715     5.0178     4.0418 </r>
       <r>     3.0875     5.0800     4.1232 </r>
       <r>     3.1035     5.0997     4.2049 </r>
       <r>     3.1195     5.0780     4.2863 </r>
       <r>     3.1356     5.0171     4.3667 </r>
       <r>     3.1516     4.9210     4.4455 </r>
       <r>     3.1676     4.7949     4.5223 </r>
       <r>     3.1836     4.6449     4.5967 </r>
       <r>     3.1996     4.4780     4.6685 </r>
       <r>     3.2157     4.3017     4.7374 </r>
       <r>     3.2317     4.1236     4.8035 </r>
       <r>     3.2477     3.9511     4.8668 </r>
       <r>     3.2637     3.7908     4.9275 </r>
       <r>     3.2797     3.6489     4.9860 </r>
       <r>     3.2958     3.5301     5.0425 </r>
       <r>     3.3118     3.4378     5.0976 </r>
       <r>     3.3278     3.3740     5.1517 </r>
       <r>     3.3438     3.3394     5.2052 </r>
       <r>     3.3599     3.3330     5.2586 </r>
       <r>     3.3759     3.3526     5.3123 </r>
       <r>     3.3919     3.3951     5.3667 </r>
       <r>     3.4079     3.4562     5.4221 </r>
       <r>     3.4239     3.5314     5.4787 </r>
       <r>     3.4400     3.6159     5.5366 </r>
       <r>     3.4560     3.7050     5.5960 </r>
       <r>     3.4720     3.7942     5.6567 </r>
       <r>     3.4880     3.8797     5.7189 </r>
       <r>     3.5041     3.9583     5.7823 </r>
       <r>     3.5201     4.0274     5.8469 </r>
       <r>     3.5361     4.0855     5.9123 </r>
       <r>     3.5521     4.1312     5.9785 </r>
       <r>     3.5681     4.1641     6.0452 </r>
       <r>     3.5842     4.1841     6.1123 </r>
       <r>     3.6002     4.1913     6.1794 </r>
       <r>     3.6162     4.1859     6.2465 </r>
       <r>     3.6322     4.1684     6.3133 </r>
       <r>     3.6483     4.1393     6.3796 </r>
       <r>     3.6643     4.0987     6.4453 </r>
       <r>     3.6803     4.0473     6.5101 </r>
       <r>     3.6963     3.9853     6.5740 </r>
       <r>     3.7123     3.9134     6.6367 </r>
       <r>     3.7284     3.8324     6.6981 </r>
       <r>     3.7444     3.7432     6.7580 </r>
       <r>     3.7604     3.6473     6.8165 </r>
       <r>     3.7764     3.5464     6.8733 </r>
       <r>     3.7925     3.4426     6.9284 </r>
       <r>     3.8085     3.3385     6.9819 </r>
       <r>     3.8245     3.2369     7.0338 </r>
       <r>     3.8405     3.1410     7.0841 </r>
       <r>     3.8565     3.0541     7.1331 </r>
       <r>     3.8726     2.9800     7.1808 </r>
       <r>     3.8886     2.9222     7.2276 </r>
       <r>     3.9046     2.8841     7.2738 </r>
       <r>     3.9206     2.8691     7.3198 </r>
       <r>     3.9367     2.8801     7.3659 </r>
       <r>     3.9527     2.9192     7.4127 </r>
       <r>     3.9687     2.9880     7.4606 </r>
       <r>     3.9847     3.0868     7.5101 </r>
       <r>     4.0007     3.2152     7.5616 </r>
       <r>     4.0168     3.3710     7.6156 </r>
       <r>     4.0328     3.5510     7.6725 </r>
       <r>     4.0488     3.7507     7.7326 </r>
       <r>     4.0648     3.9640     7.7961 </r>
       <r>     4.0809     4.1840     7.8631 </r>
       <r>     4.0969     4.4031     7.9337 </r>
       <r>     4.1129     4.6128     8.0076 </r>
       <r>     4.1289     4.8050     8.0846 </r>
       <r>     4.1449     4.9718     8.1642 </r>
       <r>     4.1610     5.1061     8.2460 </r>
       <r>     4.1770     5.2021     8.3294 </r>
       <r>     4.1930     5.2556     8.4136 </r>
       <r>     4.2090     5.2643     8.4979 </r>
       <r>     4.2251     5.2278     8.5817 </r>
       <r>     4.2411     5.1478     8.6642 </r>
       <r>     4.2571     5.0276     8.7447 </r>
       <r>     4.2731     4.8725     8.8228 </r>
       <r>     4.2891     4.6887     8.8979 </r>
       <r>     4.3052     4.4835     8.9697 </r>
       <r>     4.3212     4.2644     9.0381 </r>
       <r>     4.3372     4.0390     9.1028 </r>
       <r>     4.3532     3.8143     9.1639 </r>
       <r>     4.3693     3.5966     9.2215 </r>
       <r>     4.3853     3.3909     9.2758 </r>
       <r>     4.4013     3.2011     9.3271 </r>
       <r>     4.4173     3.0298     9.3757 </r>
       <r>     4.4333     2.8782     9.4218 </r>
       <r>     4.4494     2.7464     9.4658 </r>
       <r>     4.4654     2.6339     9.5080 </r>
       <r>     4.4814     2.5390     9.5487 </r>
       <r>     4.4974     2.4601     9.5881 </r>
       <r>     4.5135     2.3952     9.6265 </r>
       <r>     4.5295     2.3424     9.6640 </r>
       <r>     4.5455     2.3004     9.7008 </r>
       <r>     4.5615     2.2680     9.7372 </r>
       <r>     4.5775     2.2448     9.7732 </r>
       <r>     4.5936     2.2308     9.8089 </r>
       <r>     4.6096     2.2266     9.8446 </r>
       <r>     4.6256     2.2332     9.8803 </r>
       <r>     4.6416     2.2520     9.9164 </r>
       <r>     4.6576     2.2843     9.9530 </r>
       <r>     4.6737     2.3318     9.9904 </r>
       <r>     4.6897     2.3957    10.0288 </r>
       <r>     4.7057     2.4773    10.0685 </r>
       <r>     4.7217     2.5773    10.1098 </r>
       <r>     4.7378     2.6961    10.1530 </r>
       <r>     4.7538     2.8337    10.1984 </r>
       <r>     4.7698     2.9898    10.2463 </r>
       <r>     4.7858     3.1635    10.2969 </r>
       <r>     4.8018     3.3537    10.3507 </r>
       <r>     4.8179     3.5591    10.4077 </r>
       <r>     4.8339     3.7781    10.4682 </r>
       <r>     4.8499     4.0092    10.5325 </r>
       <r>     4.8659     4.2505    10.6006 </r>
       <r>     4.8820     4.5003    10.6727 </r>
       <r>     4.8980     4.7566    10.7489 </r>
       <r>     4.9140     5.0175    10.8293 </r>
       <r>     4.9300     5.2809    10.9139 </r>
       <r>     4.9460     5.5445    11.0027 </r>
       <r>     4.9621     5.8058    11.0957 </r>
       <r>     4.9781     6.0622    11.1929 </r>
       <r>     4.9941     6.3109    11.2940 </r>
       <r>     5.0101     6.5489    11.3989 </r>
       <r>     5.0262     6.7731    11.5074 </r>
       <r>     5.0422     6.9804    11.6193 </r>
       <r>     5.0582     7.1677    11.7341 </r>
       <r>     5.0742     7.3322    11.8516 </r>
       <r>     5.0902     7.4712    11.9713 </r>
       <r>     5.1063     7.5822    12.0928 </r>
       <r>     5.1223     7.6634    12.2156 </r>
       <r>     5.1383     7.7132    12.3391 </r>
       <r>     5.1543     7.7304    12.4630 </r>
       <r>     5.1704     7.7148    12.5866 </r>
       <r>     5.1864     7.6663    12.7094 </r>
       <r>     5.2024     7.5856    12.8310 </r>
       <r>     5.2184     7.4741    12.9507 </r>
       <r>     5.2344     7.3339    13.0682 </r>
       <r>     5.2505     7.1676    13.1831 </r>
       <r>     5.2665     6.9786    13.2949 </r>
       <r>     5.2825     6.7708    13.4034 </r>
       <r>     5.2985     6.5485    13.5083 </r>
       <r>     5.3146     6.3168    13.6095 </r>
       <r>     5.3306     6.0807    13.7069 </r>
       <r>     5.3466     5.8453    13.8006 </r>
       <r>     5.3626     5.6159    13.8906 </r>
       <r>     5.3786     5.3971    13.9770 </r>
       <r>     5.3947     5.1932    14.0602 </r>
       <r>     5.4107     5.0077    14.1405 </r>
       <r>     5.4267     4.8432    14.2181 </r>
       <r>     5.4427     4.7012    14.2934 </r>
       <r>     5.4588     4.5822    14.3668 </r>
       <r>     5.4748     4.4855    14.4387 </r>
       <r>     5.4908     4.4091    14.5093 </r>
       <r>     5.5068     4.3503    14.5790 </r>
       <r>     5.5228     4.3053    14.6480 </r>
       <r>     5.5389     4.2701    14.7164 </r>
       <r>     5.5549     4.2399    14.7843 </r>
       <r>     5.5709     4.2103    14.8518 </r>
       <r>     5.5869     4.1769    14.9187 </r>
       <r>     5.6030     4.1360    14.9850 </r>
       <r>     5.6190     4.0847    15.0504 </r>
       <r>     5.6350     4.0211    15.1149 </r>
       <r>     5.6510     3.9445    15.1781 </r>
       <r>     5.6670     3.8553    15.2398 </r>
       <r>     5.6831     3.7550    15.3000 </r>
       <r>     5.6991     3.6464    15.3584 </r>
       <r>     5.7151     3.5326    15.4150 </r>
       <r>     5.7311     3.4178    15.4698 </r>
       <r>     5.7472     3.3060    15.5228 </r>
       <r>     5.7632     3.2016    15.5740 </r>
       <r>     5.7792     3.1083    15.6238 </r>
       <r>     5.7952     3.0293    15.6724 </r>
       <r>     5.8112     2.9671    15.7199 </r>
       <r>     5.8273     2.9230    15.7668 </r>
       <r>     5.8433     2.8975    15.8132 </r>
       <r>     5.8593     2.8898    15.8595 </r>
       <r>     5.8753     2.8979    15.9059 </r>
       <r>     5.8914     2.9192    15.9527 </r>
       <r>     5.9074     2.9501    15.9999 </r>
       <r>     5.9234     2.9864    16.0478 </r>
       <r>     5.9394     3.0239    16.0962 </r>
       <r>     5.9554     3.0580    16.1452 </r>
       <r>     5.9715     3.0843    16.1947 </r>
       <r>     5.9875     3.0989    16.2443 </r>
       <r>     6.0035     3.0986    16.2940 </r>
       <r>     6.0195     3.0805    16.3433 </r>
       <r>     6.0355     3.0429    16.3921 </r>
       <r>     6.0516     2.9850    16.4399 </r>
       <r>     6.0676     2.9065    16.4865 </r>
       <r>     6.0836     2.8083    16.5315 </r>
       <r>     6.0996     2.6919    16.5746 </r>
       <r>     6.1157     2.5595    16.6156 </r>
       <r>     6.1317     2.4137    16.6543 </r>
       <r>     6.1477     2.2576    16.6904 </r>
       <r>     6.1637     2.0943    16.7240 </r>
       <r>     6.1797     1.9272    16.7549 </r>
       <r>     6.1958     1.7595    16.7831 </r>
       <r>     6.2118     1.5943    16.8086 </r>
       <r>     6.2278     1.4343    16.8316 </r>
       <r>     6.2438     1.2821    16.8521 </r>
       <r>     6.2599     1.1396    16.8704 </r>
       <r>     6.2759     1.0084    16.8865 </r>
       <r>     6.2919     0.8898    16.9008 </r>
       <r>     6.3079     0.7844    16.9134 </r>
       <r>     6.3239     0.6924    16.9245 </r>
       <r>     6.3400     0.6137    16.9343 </r>
       <r>     6.3560     0.5477    16.9431 </r>
       <r>     6.3720     0.4938    16.9510 </r>
       <r>     6.3880     0.4507    16.9582 </r>
       <r>     6.4041     0.4174    16.9649 </r>
       <r>     6.4201     0.3924    16.9712 </r>
       <r>     6.4361     0.3744    16.9772 </r>
       <r>     6.4521     0.3622    16.9830 </r>
       <r>     6.4681     0.3544    16.9887 </r>
       <r>     6.4842     0.3500    16.9943 </r>
       <r>     6.5002     0.3481    16.9998 </r>
       <r>     6.5162     0.3479    17.0054 </r>
       <r>     6.5322     0.3486    17.0110 </r>
       <r>     6.5483     0.3500    17.0166 </r>
       <r>     6.5643     0.3515    17.0222 </r>
       <r>     6.5803     0.3531    17.0279 </r>
       <r>     6.5963     0.3546    17.0336 </r>
       <r>     6.6123     0.3558    17.0393 </r>
       <r>     6.6284     0.3569    17.0450 </r>
       <r>     6.6444     0.3578    17.0507 </r>
       <r>     6.6604     0.3587    17.0565 </r>
       <r>     6.6764     0.3594    17.0622 </r>
       <r>     6.6925     0.3603    17.0680 </r>
       <r>     6.7085     0.3613    17.0738 </r>
       <r>     6.7245     0.3627    17.0796 </r>
       <r>     6.7405     0.3646    17.0854 </r>
       <r>     6.7565     0.3672    17.0913 </r>
       <r>     6.7726     0.3708    17.0973 </r>
       <r>     6.7886     0.3756    17.1033 </r>
       <r>     6.8046     0.3821    17.1094 </r>
       <r>     6.8206     0.3905    17.1157 </r>
       <r>     6.8367     0.4011    17.1221 </r>
       <r>     6.8527     0.4143    17.1287 </r>
       <r>     6.8687     0.4305    17.1356 </r>
       <r>     6.8847     0.4497    17.1428 </r>
       <r>     6.9007     0.4722    17.1504 </r>
       <r>     6.9168     0.4980    17.1584 </r>
       <r>     6.9328     0.5270    17.1668 </r>
       <r>     6.9488     0.5589    17.1758 </r>
       <r>     6.9648     0.5935    17.1853 </r>
       <r>     6.9809     0.6301    17.1954 </r>
       <r>     6.9969     0.6681    17.2061 </r>
       <r>     7.0129     0.7069    17.2174 </r>
       <r>     7.0289     0.7457    17.2294 </r>
       <r>     7.0449     0.7837    17.2419 </r>
       <r>     7.0610     0.8202    17.2551 </r>
       <r>     7.0770     0.8547    17.2688 </r>
       <r>     7.0930     0.8866    17.2830 </r>
       <r>     7.1090     0.9156    17.2976 </r>
       <r>     7.1251     0.9417    17.3127 </r>
       <r>     7.1411     0.9646    17.3282 </r>
       <r>     7.1571     0.9847    17.3439 </r>
       <r>     7.1731     1.0020    17.3600 </r>
       <r>     7.1891     1.0168    17.3763 </r>
       <r>     7.2052     1.0294    17.3928 </r>
       <r>     7.2212     1.0402    17.4095 </r>
       <r>     7.2372     1.0491    17.4263 </r>
       <r>     7.2532     1.0564    17.4432 </r>
       <r>     7.2693     1.0619    17.4602 </r>
       <r>     7.2853     1.0657    17.4773 </r>
       <r>     7.3013     1.0676    17.4944 </r>
       <r>     7.3173     1.0673    17.5115 </r>
       <r>     7.3333     1.0645    17.5285 </r>
       <r>     7.3494     1.0591    17.5455 </r>
       <r>     7.3654     1.0509    17.5623 </r>
       <r>     7.3814     1.0398    17.5790 </r>
       <r>     7.3974     1.0259    17.5954 </r>
       <r>     7.4134     1.0092    17.6116 </r>
       <r>     7.4295     0.9900    17.6275 </r>
       <r>     7.4455     0.9686    17.6430 </r>
       <r>     7.4615     0.9455    17.6581 </r>
       <r>     7.4775     0.9212    17.6729 </r>
       <r>     7.4936     0.8961    17.6873 </r>
       <r>     7.5096     0.8710    17.7012 </r>
       <r>     7.5256     0.8462    17.7148 </r>
       <r>     7.5416     0.8224    17.7279 </r>
       <r>     7.5576     0.8001    17.7408 </r>
       <r>     7.5737     0.7796    17.7533 </r>
       <r>     7.5897     0.7613    17.7655 </r>
       <r>     7.6057     0.7453    17.7774 </r>
       <r>     7.6217     0.7319    17.7891 </r>
       <r>     7.6378     0.7209    17.8007 </r>
       <r>     7.6538     0.7123    17.8121 </r>
       <r>     7.6698     0.7059    17.8234 </r>
       <r>     7.6858     0.7014    17.8346 </r>
       <r>     7.7018     0.6984    17.8458 </r>
       <r>     7.7179     0.6965    17.8570 </r>
       <r>     7.7339     0.6954    17.8681 </r>
       <r>     7.7499     0.6946    17.8792 </r>
       <r>     7.7659     0.6939    17.8904 </r>
       <r>     7.7820     0.6930    17.9015 </r>
       <r>     7.7980     0.6918    17.9126 </r>
       <r>     7.8140     0.6902    17.9236 </r>
       <r>     7.8300     0.6882    17.9346 </r>
       <r>     7.8460     0.6859    17.9456 </r>
       <r>     7.8621     0.6835    17.9566 </r>
       <r>     7.8781     0.6811    17.9675 </r>
       <r>     7.8941     0.6788    17.9784 </r>
       <r>     7.9101     0.6768    17.9892 </r>
       <r>     7.9262     0.6750    18.0000 </r>
       <r>     7.9422     0.6733    18.0108 </r>
       <r>     7.9582     0.6718    18.0216 </r>
       <r>     7.9742     0.6700    18.0323 </r>
       <r>     7.9902     0.6678    18.0430 </r>
       <r>     8.0063     0.6648    18.0537 </r>
       <r>     8.0223     0.6607    18.0642 </r>
       <r>     8.0383     0.6553    18.0747 </r>
       <r>     8.0543     0.6484    18.0851 </r>
       <r>     8.0704     0.6399    18.0954 </r>
       <r>     8.0864     0.6299    18.1055 </r>
       <r>     8.1024     0.6186    18.1154 </r>
       <r>     8.1184     0.6063    18.1251 </r>
       <r>     8.1344     0.5934    18.1346 </r>
       <r>     8.1505     0.5804    18.1439 </r>
       <r>     8.1665     0.5677    18.1530 </r>
       <r>     8.1825     0.5558    18.1619 </r>
       <r>     8.1985     0.5451    18.1707 </r>
       <r>     8.2146     0.5358    18.1792 </r>
       <r>     8.2306     0.5282    18.1877 </r>
       <r>     8.2466     0.5222    18.1961 </r>
       <r>     8.2626     0.5178    18.2044 </r>
       <r>     8.2786     0.5148    18.2126 </r>
       <r>     8.2947     0.5131    18.2208 </r>
       <r>     8.3107     0.5122    18.2290 </r>
       <r>     8.3267     0.5121    18.2372 </r>
       <r>     8.3427     0.5125    18.2455 </r>
       <r>     8.3588     0.5131    18.2537 </r>
       <r>     8.3748     0.5141    18.2619 </r>
       <r>     8.3908     0.5152    18.2702 </r>
       <r>     8.4068     0.5167    18.2784 </r>
       <r>     8.4228     0.5185    18.2868 </r>
       <r>     8.4389     0.5208    18.2951 </r>
       <r>     8.4549     0.5235    18.3035 </r>
       <r>     8.4709     0.5268    18.3119 </r>
       <r>     8.4869     0.5306    18.3204 </r>
       <r>     8.5030     0.5346    18.3290 </r>
       <r>     8.5190     0.5388    18.3376 </r>
       <r>     8.5350     0.5428    18.3463 </r>
       <r>     8.5510     0.5463    18.3551 </r>
       <r>     8.5670     0.5487    18.3639 </r>
       <r>     8.5831     0.5498    18.3727 </r>
       <r>     8.5991     0.5491    18.3815 </r>
       <r>     8.6151     0.5464    18.3902 </r>
       <r>     8.6311     0.5414    18.3989 </r>
       <r>     8.6472     0.5341    18.4075 </r>
       <r>     8.6632     0.5246    18.4159 </r>
       <r>     8.6792     0.5129    18.4241 </r>
       <r>     8.6952     0.4995    18.4321 </r>
       <r>     8.7112     0.4847    18.4399 </r>
       <r>     8.7273     0.4691    18.4474 </r>
       <r>     8.7433     0.4532    18.4546 </r>
       <r>     8.7593     0.4377    18.4616 </r>
       <r>     8.7753     0.4230    18.4684 </r>
       <r>     8.7913     0.4096    18.4750 </r>
       <r>     8.8074     0.3981    18.4814 </r>
       <r>     8.8234     0.3886    18.4876 </r>
       <r>     8.8394     0.3815    18.4937 </r>
       <r>     8.8554     0.3767    18.4997 </r>
       <r>     8.8715     0.3741    18.5057 </r>
       <r>     8.8875     0.3737    18.5117 </r>
       <r>     8.9035     0.3749    18.5177 </r>
       <r>     8.9195     0.3775    18.5238 </r>
       <r>     8.9355     0.3810    18.5299 </r>
       <r>     8.9516     0.3849    18.5360 </r>
       <r>     8.9676     0.3888    18.5423 </r>
       <r>     8.9836     0.3922    18.5486 </r>
       <r>     8.9996     0.3949    18.5549 </r>
       <r>     9.0157     0.3965    18.5612 </r>
       <r>     9.0317     0.3971    18.5676 </r>
       <r>     9.0477     0.3967    18.5740 </r>
       <r>     9.0637     0.3954    18.5803 </r>
       <r>     9.0797     0.3936    18.5866 </r>
       <r>     9.0958     0.3915    18.5929 </r>
       <r>     9.1118     0.3896    18.5991 </r>
       <r>     9.1278     0.3883    18.6053 </r>
       <r>     9.1438     0.3877    18.6115 </r>
       <r>     9.1599     0.3883    18.6178 </r>
       <r>     9.1759     0.3900    18.6240 </r>
       <r>     9.1919     0.3928    18.6303 </r>
       <r>     9.2079     0.3967    18.6367 </r>
       <r>     9.2239     0.4012    18.6431 </r>
       <r>     9.2400     0.4061    18.6496 </r>
       <r>     9.2560     0.4108    18.6562 </r>
       <r>     9.2720     0.4148    18.6628 </r>
       <r>     9.2880     0.4178    18.6695 </r>
       <r>     9.3041     0.4192    18.6762 </r>
       <r>     9.3201     0.4187    18.6829 </r>
       <r>     9.3361     0.4161    18.6896 </r>
       <r>     9.3521     0.4114    18.6962 </r>
       <r>     9.3681     0.4043    18.7027 </r>
       <r>     9.3842     0.3952    18.7090 </r>
       <r>     9.4002     0.3841    18.7152 </r>
       <r>     9.4162     0.3713    18.7211 </r>
       <r>     9.4322     0.3572    18.7268 </r>
       <r>     9.4483     0.3420    18.7323 </r>
       <r>     9.4643     0.3261    18.7375 </r>
       <r>     9.4803     0.3099    18.7425 </r>
       <r>     9.4963     0.2937    18.7472 </r>
       <r>     9.5123     0.2781    18.7517 </r>
       <r>     9.5284     0.2634    18.7559 </r>
       <r>     9.5444     0.2499    18.7599 </r>
       <r>     9.5604     0.2382    18.7637 </r>
       <r>     9.5764     0.2287    18.7674 </r>
       <r>     9.5925     0.2218    18.7709 </r>
       <r>     9.6085     0.2178    18.7744 </r>
       <r>     9.6245     0.2170    18.7779 </r>
       <r>     9.6405     0.2195    18.7814 </r>
       <r>     9.6565     0.2256    18.7850 </r>
       <r>     9.6726     0.2350    18.7888 </r>
       <r>     9.6886     0.2475    18.7928 </r>
       <r>     9.7046     0.2629    18.7970 </r>
       <r>     9.7206     0.2805    18.8015 </r>
       <r>     9.7367     0.2999    18.8063 </r>
       <r>     9.7527     0.3202    18.8114 </r>
       <r>     9.7687     0.3409    18.8169 </r>
       <r>     9.7847     0.3612    18.8227 </r>
       <r>     9.8007     0.3805    18.8287 </r>
       <r>     9.8168     0.3982    18.8351 </r>
       <r>     9.8328     0.4138    18.8418 </r>
       <r>     9.8488     0.4271    18.8486 </r>
       <r>     9.8648     0.4379    18.8556 </r>
       <r>     9.8809     0.4461    18.8628 </r>
       <r>     9.8969     0.4518    18.8700 </r>
       <r>     9.9129     0.4552    18.8773 </r>
       <r>     9.9289     0.4568    18.8846 </r>
       <r>     9.9449     0.4567    18.8919 </r>
       <r>     9.9610     0.4556    18.8992 </r>
       <r>     9.9770     0.4538    18.9065 </r>
       <r>     9.9930     0.4518    18.9137 </r>
       <r>    10.0090     0.4501    18.9210 </r>
       <r>    10.0251     0.4489    18.9281 </r>
       <r>    10.0411     0.4486    18.9353 </r>
       <r>    10.0571     0.4496    18.9425 </r>
       <r>    10.0731     0.4518    18.9498 </r>
       <r>    10.0891     0.4555    18.9571 </r>
       <r>    10.1052     0.4605    18.9645 </r>
       <r>    10.1212     0.4668    18.9719 </r>
       <r>    10.1372     0.4743    18.9795 </r>
       <r>    10.1532     0.4825    18.9873 </r>
       <r>    10.1693     0.4914    18.9951 </r>
       <r>    10.1853     0.5007    19.0032 </r>
       <r>    10.2013     0.5101    19.0113 </r>
       <r>    10.2173     0.5195    19.0197 </r>
       <r>    10.2333     0.5286    19.0281 </r>
       <r>    10.2494     0.5375    19.0367 </r>
       <r>    10.2654     0.5462    19.0455 </r>
       <r>    10.2814     0.5547    19.0544 </r>
       <r>    10.2974     0.5632    19.0634 </r>
       <r>    10.3134     0.5717    19.0726 </r>
       <r>    10.3295     0.5806    19.0819 </r>
       <r>    10.3455     0.5897    19.0913 </r>
       <r>    10.3615     0.5993    19.1009 </r>
       <r>    10.3775     0.6093    19.1107 </r>
       <r>    10.3936     0.6198    19.1206 </r>
       <r>    10.4096     0.6305    19.1307 </r>
       <r>    10.4256     0.6414    19.1410 </r>
       <r>    10.4416     0.6523    19.1514 </r>
       <r>    10.4576     0.6632    19.1621 </r>
       <r>    10.4737     0.6738    19.1729 </r>
       <r>    10.4897     0.6840    19.1838 </r>
       <r>    10.5057     0.6938    19.1949 </r>
       <r>    10.5217     0.7032    19.2062 </r>
       <r>    10.5378     0.7121    19.2176 </r>
       <r>    10.5538     0.7204    19.2291 </r>
       <r>    10.5698     0.7283    19.2408 </r>
       <r>    10.5858     0.7355    19.2526 </r>
       <r>    10.6018     0.7421    19.2645 </r>
       <r>    10.6179     0.7480    19.2765 </r>
       <r>    10.6339     0.7531    19.2885 </r>
       <r>    10.6499     0.7573    19.3007 </r>
       <r>    10.6659     0.7605    19.3129 </r>
       <r>    10.6820     0.7628    19.3251 </r>
       <r>    10.6980     0.7641    19.3373 </r>
       <r>    10.7140     0.7646    19.3496 </r>
       <r>    10.7300     0.7642    19.3618 </r>
       <r>    10.7460     0.7631    19.3740 </r>
       <r>    10.7621     0.7615    19.3862 </r>
       <r>    10.7781     0.7595    19.3984 </r>
       <r>    10.7941     0.7572    19.4105 </r>
       <r>    10.8101     0.7546    19.4226 </r>
       <r>    10.8262     0.7518    19.4347 </r>
       <r>    10.8422     0.7486    19.4467 </r>
       <r>    10.8582     0.7450    19.4586 </r>
       <r>    10.8742     0.7407    19.4705 </r>
       <r>    10.8902     0.7358    19.4823 </r>
       <r>    10.9063     0.7298    19.4940 </r>
       <r>    10.9223     0.7229    19.5055 </r>
       <r>    10.9383     0.7148    19.5170 </r>
       <r>    10.9543     0.7055    19.5283 </r>
       <r>    10.9704     0.6953    19.5394 </r>
       <r>    10.9864     0.6841    19.5504 </r>
       <r>    11.0024     0.6724    19.5612 </r>
       <r>    11.0184     0.6604    19.5718 </r>
       <r>    11.0344     0.6486    19.5821 </r>
       <r>    11.0505     0.6374    19.5924 </r>
       <r>    11.0665     0.6273    19.6024 </r>
       <r>    11.0825     0.6187    19.6123 </r>
       <r>    11.0985     0.6121    19.6221 </r>
       <r>    11.1146     0.6077    19.6319 </r>
       <r>    11.1306     0.6056    19.6416 </r>
       <r>    11.1466     0.6058    19.6513 </r>
       <r>    11.1626     0.6082    19.6610 </r>
       <r>    11.1786     0.6125    19.6708 </r>
       <r>    11.1947     0.6181    19.6807 </r>
       <r>    11.2107     0.6245    19.6907 </r>
       <r>    11.2267     0.6309    19.7009 </r>
       <r>    11.2427     0.6367    19.7111 </r>
       <r>    11.2588     0.6412    19.7213 </r>
       <r>    11.2748     0.6438    19.7316 </r>
       <r>    11.2908     0.6441    19.7420 </r>
       <r>    11.3068     0.6420    19.7522 </r>
       <r>    11.3228     0.6374    19.7625 </r>
       <r>    11.3389     0.6306    19.7726 </r>
       <r>    11.3549     0.6220    19.7825 </r>
       <r>    11.3709     0.6124    19.7923 </r>
       <r>    11.3869     0.6023    19.8020 </r>
       <r>    11.4030     0.5926    19.8115 </r>
       <r>    11.4190     0.5841    19.8208 </r>
       <r>    11.4350     0.5772    19.8301 </r>
       <r>    11.4510     0.5725    19.8393 </r>
       <r>    11.4670     0.5701    19.8484 </r>
       <r>    11.4831     0.5701    19.8575 </r>
       <r>    11.4991     0.5721    19.8667 </r>
       <r>    11.5151     0.5758    19.8759 </r>
       <r>    11.5311     0.5804    19.8852 </r>
       <r>    11.5472     0.5853    19.8946 </r>
       <r>    11.5632     0.5897    19.9040 </r>
       <r>    11.5792     0.5929    19.9135 </r>
       <r>    11.5952     0.5944    19.9231 </r>
       <r>    11.6112     0.5937    19.9326 </r>
       <r>    11.6273     0.5907    19.9420 </r>
       <r>    11.6433     0.5855    19.9514 </r>
       <r>    11.6593     0.5783    19.9607 </r>
       <r>    11.6753     0.5698    19.9698 </r>
       <r>    11.6913     0.5605    19.9788 </r>
       <r>    11.7074     0.5514    19.9876 </r>
       <r>    11.7234     0.5431    19.9963 </r>
       <r>    11.7394     0.5365    20.0049 </r>
       <r>    11.7554     0.5323    20.0135 </r>
       <r>    11.7715     0.5308    20.0220 </r>
       <r>    11.7875     0.5323    20.0305 </r>
       <r>    11.8035     0.5367    20.0391 </r>
       <r>    11.8195     0.5438    20.0478 </r>
       <r>    11.8355     0.5529    20.0567 </r>
       <r>    11.8516     0.5634    20.0657 </r>
       <r>    11.8676     0.5742    20.0749 </r>
       <r>    11.8836     0.5843    20.0843 </r>
       <r>    11.8996     0.5927    20.0938 </r>
       <r>    11.9157     0.5985    20.1033 </r>
       <r>    11.9317     0.6009    20.1130 </r>
       <r>    11.9477     0.5993    20.1226 </r>
       <r>    11.9637     0.5935    20.1321 </r>
       <r>    11.9797     0.5835    20.1414 </r>
       <r>    11.9958     0.5697    20.1506 </r>
       <r>    12.0118     0.5526    20.1594 </r>
       <r>    12.0278     0.5331    20.1679 </r>
       <r>    12.0438     0.5122    20.1762 </r>
       <r>    12.0599     0.4912    20.1840 </r>
       <r>    12.0759     0.4712    20.1916 </r>
       <r>    12.0919     0.4533    20.1988 </r>
       <r>    12.1079     0.4386    20.2059 </r>
       <r>    12.1239     0.4279    20.2127 </r>
       <r>    12.1400     0.4217    20.2195 </r>
       <r>    12.1560     0.4205    20.2262 </r>
       <r>    12.1720     0.4241    20.2330 </r>
       <r>    12.1880     0.4324    20.2399 </r>
       <r>    12.2041     0.4448    20.2471 </r>
       <r>    12.2201     0.4605    20.2544 </r>
       <r>    12.2361     0.4786    20.2621 </r>
       <r>    12.2521     0.4981    20.2701 </r>
       <r>    12.2681     0.5178    20.2784 </r>
       <r>    12.2842     0.5367    20.2870 </r>
       <r>    12.3002     0.5538    20.2959 </r>
       <r>    12.3162     0.5683    20.3050 </r>
       <r>    12.3322     0.5796    20.3142 </r>
       <r>    12.3483     0.5872    20.3237 </r>
       <r>    12.3643     0.5911    20.3331 </r>
       <r>    12.3803     0.5914    20.3426 </r>
       <r>    12.3963     0.5884    20.3520 </r>
       <r>    12.4123     0.5827    20.3614 </r>
       <r>    12.4284     0.5751    20.3706 </r>
       <r>    12.4444     0.5664    20.3797 </r>
       <r>    12.4604     0.5576    20.3886 </r>
       <r>    12.4764     0.5495    20.3974 </r>
       <r>    12.4925     0.5430    20.4061 </r>
       <r>    12.5085     0.5386    20.4147 </r>
       <r>    12.5245     0.5371    20.4233 </r>
       <r>    12.5405     0.5386    20.4320 </r>
       <r>    12.5565     0.5433    20.4407 </r>
       <r>    12.5726     0.5511    20.4495 </r>
       <r>    12.5886     0.5616    20.4585 </r>
       <r>    12.6046     0.5743    20.4677 </r>
       <r>    12.6206     0.5887    20.4771 </r>
       <r>    12.6367     0.6040    20.4868 </r>
       <r>    12.6527     0.6195    20.4967 </r>
       <r>    12.6687     0.6345    20.5069 </r>
       <r>    12.6847     0.6484    20.5173 </r>
       <r>    12.7007     0.6606    20.5279 </r>
       <r>    12.7168     0.6706    20.5386 </r>
       <r>    12.7328     0.6781    20.5495 </r>
       <r>    12.7488     0.6831    20.5604 </r>
       <r>    12.7648     0.6855    20.5714 </r>
       <r>    12.7809     0.6855    20.5824 </r>
       <r>    12.7969     0.6832    20.5933 </r>
       <r>    12.8129     0.6791    20.6042 </r>
       <r>    12.8289     0.6735    20.6150 </r>
       <r>    12.8449     0.6669    20.6257 </r>
       <r>    12.8610     0.6598    20.6363 </r>
       <r>    12.8770     0.6526    20.6467 </r>
       <r>    12.8930     0.6458    20.6571 </r>
       <r>    12.9090     0.6396    20.6673 </r>
       <r>    12.9251     0.6342    20.6775 </r>
       <r>    12.9411     0.6300    20.6876 </r>
       <r>    12.9571     0.6269    20.6976 </r>
       <r>    12.9731     0.6248    20.7076 </r>
       <r>    12.9891     0.6237    20.7176 </r>
       <r>    13.0052     0.6234    20.7276 </r>
       <r>    13.0212     0.6237    20.7376 </r>
       <r>    13.0372     0.6242    20.7476 </r>
       <r>    13.0532     0.6249    20.7576 </r>
       <r>    13.0692     0.6255    20.7676 </r>
       <r>    13.0853     0.6259    20.7777 </r>
       <r>    13.1013     0.6261    20.7877 </r>
       <r>    13.1173     0.6261    20.7977 </r>
       <r>    13.1333     0.6260    20.8078 </r>
       <r>    13.1494     0.6260    20.8178 </r>
       <r>    13.1654     0.6263    20.8278 </r>
       <r>    13.1814     0.6270    20.8379 </r>
       <r>    13.1974     0.6284    20.8479 </r>
       <r>    13.2134     0.6307    20.8580 </r>
       <r>    13.2295     0.6339    20.8682 </r>
       <r>    13.2455     0.6381    20.8784 </r>
       <r>    13.2615     0.6433    20.8887 </r>
       <r>    13.2775     0.6496    20.8991 </r>
       <r>    13.2936     0.6567    20.9097 </r>
       <r>    13.3096     0.6646    20.9203 </r>
       <r>    13.3256     0.6730    20.9311 </r>
       <r>    13.3416     0.6817    20.9420 </r>
       <r>    13.3576     0.6907    20.9531 </r>
       <r>    13.3737     0.6996    20.9643 </r>
       <r>    13.3897     0.7084    20.9756 </r>
       <r>    13.4057     0.7168    20.9871 </r>
       <r>    13.4217     0.7249    20.9987 </r>
       <r>    13.4378     0.7323    21.0105 </r>
       <r>    13.4538     0.7392    21.0223 </r>
       <r>    13.4698     0.7454    21.0343 </r>
       <r>    13.4858     0.7510    21.0463 </r>
       <r>    13.5018     0.7559    21.0584 </r>
       <r>    13.5179     0.7601    21.0706 </r>
       <r>    13.5339     0.7638    21.0828 </r>
       <r>    13.5499     0.7668    21.0951 </r>
       <r>    13.5659     0.7695    21.1074 </r>
       <r>    13.5820     0.7718    21.1198 </r>
       <r>    13.5980     0.7740    21.1322 </r>
       <r>    13.6140     0.7761    21.1446 </r>
       <r>    13.6300     0.7785    21.1571 </r>
       <r>    13.6460     0.7814    21.1696 </r>
       <r>    13.6621     0.7849    21.1822 </r>
       <r>    13.6781     0.7891    21.1948 </r>
       <r>    13.6941     0.7944    21.2076 </r>
       <r>    13.7101     0.8006    21.2204 </r>
       <r>    13.7262     0.8078    21.2333 </r>
       <r>    13.7422     0.8160    21.2464 </r>
       <r>    13.7582     0.8248    21.2596 </r>
       <r>    13.7742     0.8340    21.2730 </r>
       <r>    13.7902     0.8433    21.2865 </r>
       <r>    13.8063     0.8522    21.3002 </r>
       <r>    13.8223     0.8603    21.3139 </r>
       <r>    13.8383     0.8671    21.3278 </r>
       <r>    13.8543     0.8722    21.3418 </r>
       <r>    13.8704     0.8752    21.3558 </r>
       <r>    13.8864     0.8759    21.3699 </r>
       <r>    13.9024     0.8741    21.3839 </r>
       <r>    13.9184     0.8698    21.3978 </r>
       <r>    13.9344     0.8631    21.4116 </r>
       <r>    13.9505     0.8541    21.4253 </r>
       <r>    13.9665     0.8433    21.4388 </r>
       <r>    13.9825     0.8311    21.4521 </r>
       <r>    13.9985     0.8180    21.4653 </r>
       <r>    14.0146     0.8044    21.4781 </r>
       <r>    14.0306     0.7910    21.4908 </r>
       <r>    14.0466     0.7781    21.5033 </r>
       <r>    14.0626     0.7662    21.5156 </r>
       <r>    14.0786     0.7555    21.5277 </r>
       <r>    14.0947     0.7463    21.5396 </r>
       <r>    14.1107     0.7386    21.5515 </r>
       <r>    14.1267     0.7322    21.5632 </r>
       <r>    14.1427     0.7270    21.5748 </r>
       <r>    14.1588     0.7226    21.5864 </r>
       <r>    14.1748     0.7187    21.5979 </r>
       <r>    14.1908     0.7149    21.6094 </r>
       <r>    14.2068     0.7108    21.6208 </r>
       <r>    14.2228     0.7064    21.6321 </r>
       <r>    14.2389     0.7012    21.6433 </r>
       <r>    14.2549     0.6955    21.6545 </r>
       <r>    14.2709     0.6892    21.6655 </r>
       <r>    14.2869     0.6827    21.6764 </r>
       <r>    14.3030     0.6764    21.6873 </r>
       <r>    14.3190     0.6707    21.6980 </r>
       <r>    14.3350     0.6662    21.7087 </r>
       <r>    14.3510     0.6635    21.7193 </r>
       <r>    14.3670     0.6630    21.7300 </r>
       <r>    14.3831     0.6651    21.7406 </r>
       <r>    14.3991     0.6702    21.7513 </r>
       <r>    14.4151     0.6784    21.7622 </r>
       <r>    14.4311     0.6894    21.7733 </r>
       <r>    14.4471     0.7032    21.7845 </r>
       <r>    14.4632     0.7192    21.7961 </r>
       <r>    14.4792     0.7368    21.8079 </r>
       <r>    14.4952     0.7552    21.8200 </r>
       <r>    14.5112     0.7737    21.8324 </r>
       <r>    14.5273     0.7913    21.8450 </r>
       <r>    14.5433     0.8070    21.8580 </r>
       <r>    14.5593     0.8202    21.8711 </r>
       <r>    14.5753     0.8300    21.8844 </r>
       <r>    14.5913     0.8358    21.8978 </r>
       <r>    14.6074     0.8373    21.9112 </r>
       <r>    14.6234     0.8342    21.9246 </r>
       <r>    14.6394     0.8265    21.9378 </r>
       <r>    14.6554     0.8146    21.9509 </r>
       <r>    14.6715     0.7989    21.9637 </r>
       <r>    14.6875     0.7801    21.9762 </r>
       <r>    14.7035     0.7591    21.9883 </r>
       <r>    14.7195     0.7367    22.0001 </r>
       <r>    14.7355     0.7140    22.0116 </r>
       <r>    14.7516     0.6919    22.0227 </r>
       <r>    14.7676     0.6712    22.0334 </r>
       <r>    14.7836     0.6525    22.0439 </r>
       <r>    14.7996     0.6363    22.0541 </r>
       <r>    14.8157     0.6227    22.0640 </r>
       <r>    14.8317     0.6119    22.0738 </r>
       <r>    14.8477     0.6035    22.0835 </r>
       <r>    14.8637     0.5972    22.0931 </r>
       <r>    14.8797     0.5926    22.1026 </r>
       <r>    14.8958     0.5889    22.1120 </r>
       <r>    14.9118     0.5859    22.1214 </r>
       <r>    14.9278     0.5829    22.1307 </r>
       <r>    14.9438     0.5798    22.1400 </r>
       <r>    14.9599     0.5763    22.1493 </r>
       <r>    14.9759     0.5726    22.1584 </r>
       <r>    14.9919     0.5689    22.1675 </r>
       <r>    15.0079     0.5655    22.1766 </r>
       <r>    15.0239     0.5630    22.1856 </r>
       <r>    15.0400     0.5619    22.1946 </r>
       <r>    15.0560     0.5628    22.2036 </r>
       <r>    15.0720     0.5660    22.2127 </r>
       <r>    15.0880     0.5720    22.2219 </r>
       <r>    15.1041     0.5809    22.2312 </r>
       <r>    15.1201     0.5925    22.2407 </r>
       <r>    15.1361     0.6067    22.2504 </r>
       <r>    15.1521     0.6229    22.2604 </r>
       <r>    15.1681     0.6407    22.2706 </r>
       <r>    15.1842     0.6592    22.2812 </r>
       <r>    15.2002     0.6777    22.2921 </r>
       <r>    15.2162     0.6954    22.3032 </r>
       <r>    15.2322     0.7115    22.3146 </r>
       <r>    15.2483     0.7255    22.3262 </r>
       <r>    15.2643     0.7369    22.3380 </r>
       <r>    15.2803     0.7453    22.3500 </r>
       <r>    15.2963     0.7507    22.3620 </r>
       <r>    15.3123     0.7529    22.3741 </r>
       <r>    15.3284     0.7523    22.3861 </r>
       <r>    15.3444     0.7489    22.3981 </r>
       <r>    15.3604     0.7431    22.4100 </r>
       <r>    15.3764     0.7355    22.4218 </r>
       <r>    15.3925     0.7263    22.4335 </r>
       <r>    15.4085     0.7161    22.4449 </r>
       <r>    15.4245     0.7053    22.4562 </r>
       <r>    15.4405     0.6944    22.4674 </r>
       <r>    15.4565     0.6837    22.4783 </r>
       <r>    15.4726     0.6737    22.4891 </r>
       <r>    15.4886     0.6646    22.4998 </r>
       <r>    15.5046     0.6569    22.5103 </r>
       <r>    15.5206     0.6508    22.5207 </r>
       <r>    15.5367     0.6464    22.5311 </r>
       <r>    15.5527     0.6439    22.5414 </r>
       <r>    15.5687     0.6433    22.5517 </r>
       <r>    15.5847     0.6445    22.5620 </r>
       <r>    15.6007     0.6473    22.5724 </r>
       <r>    15.6168     0.6516    22.5828 </r>
       <r>    15.6328     0.6569    22.5933 </r>
       <r>    15.6488     0.6629    22.6040 </r>
       <r>    15.6648     0.6691    22.6147 </r>
       <r>    15.6809     0.6751    22.6255 </r>
       <r>    15.6969     0.6806    22.6364 </r>
       <r>    15.7129     0.6853    22.6474 </r>
       <r>    15.7289     0.6888    22.6584 </r>
       <r>    15.7449     0.6910    22.6695 </r>
       <r>    15.7610     0.6920    22.6806 </r>
       <r>    15.7770     0.6920    22.6917 </r>
       <r>    15.7930     0.6911    22.7027 </r>
       <r>    15.8090     0.6897    22.7138 </r>
       <r>    15.8250     0.6884    22.7248 </r>
       <r>    15.8411     0.6877    22.7358 </r>
       <r>    15.8571     0.6881    22.7469 </r>
       <r>    15.8731     0.6902    22.7579 </r>
       <r>    15.8891     0.6943    22.7690 </r>
       <r>    15.9052     0.7009    22.7803 </r>
       <r>    15.9212     0.7101    22.7917 </r>
       <r>    15.9372     0.7219    22.8032 </r>
       <r>    15.9532     0.7361    22.8150 </r>
       <r>    15.9692     0.7525    22.8271 </r>
       <r>    15.9853     0.7705    22.8394 </r>
       <r>    16.0013     0.7895    22.8521 </r>
       <r>    16.0173     0.8089    22.8650 </r>
       <r>    16.0333     0.8279    22.8783 </r>
       <r>    16.0494     0.8459    22.8918 </r>
       <r>    16.0654     0.8622    22.9057 </r>
       <r>    16.0814     0.8763    22.9197 </r>
       <r>    16.0974     0.8878    22.9339 </r>
       <r>    16.1134     0.8964    22.9483 </r>
       <r>    16.1295     0.9020    22.9627 </r>
       <r>    16.1455     0.9045    22.9772 </r>
       <r>    16.1615     0.9039    22.9917 </r>
       <r>    16.1775     0.9005    23.0061 </r>
       <r>    16.1936     0.8944    23.0205 </r>
       <r>    16.2096     0.8858    23.0347 </r>
       <r>    16.2256     0.8749    23.0487 </r>
       <r>    16.2416     0.8619    23.0625 </r>
       <r>    16.2576     0.8470    23.0761 </r>
       <r>    16.2737     0.8304    23.0894 </r>
       <r>    16.2897     0.8122    23.1024 </r>
       <r>    16.3057     0.7928    23.1151 </r>
       <r>    16.3217     0.7722    23.1275 </r>
       <r>    16.3378     0.7509    23.1395 </r>
       <r>    16.3538     0.7293    23.1512 </r>
       <r>    16.3698     0.7077    23.1625 </r>
       <r>    16.3858     0.6867    23.1735 </r>
       <r>    16.4018     0.6667    23.1842 </r>
       <r>    16.4179     0.6485    23.1946 </r>
       <r>    16.4339     0.6324    23.2047 </r>
       <r>    16.4499     0.6190    23.2146 </r>
       <r>    16.4659     0.6089    23.2244 </r>
       <r>    16.4820     0.6022    23.2340 </r>
       <r>    16.4980     0.5992    23.2436 </r>
       <r>    16.5140     0.6000    23.2533 </r>
       <r>    16.5300     0.6045    23.2629 </r>
       <r>    16.5460     0.6124    23.2728 </r>
       <r>    16.5621     0.6234    23.2827 </r>
       <r>    16.5781     0.6370    23.2930 </r>
       <r>    16.5941     0.6525    23.3034 </r>
       <r>    16.6101     0.6693    23.3141 </r>
       <r>    16.6262     0.6867    23.3251 </r>
       <r>    16.6422     0.7042    23.3364 </r>
       <r>    16.6582     0.7209    23.3480 </r>
       <r>    16.6742     0.7365    23.3598 </r>
       <r>    16.6902     0.7504    23.3718 </r>
       <r>    16.7063     0.7622    23.3840 </r>
       <r>    16.7223     0.7716    23.3964 </r>
       <r>    16.7383     0.7786    23.4088 </r>
       <r>    16.7543     0.7829    23.4214 </r>
       <r>    16.7704     0.7846    23.4340 </r>
       <r>    16.7864     0.7839    23.4465 </r>
       <r>    16.8024     0.7809    23.4590 </r>
       <r>    16.8184     0.7759    23.4715 </r>
       <r>    16.8344     0.7691    23.4838 </r>
       <r>    16.8505     0.7608    23.4960 </r>
       <r>    16.8665     0.7514    23.5080 </r>
       <r>    16.8825     0.7412    23.5199 </r>
       <r>    16.8985     0.7305    23.5316 </r>
       <r>    16.9146     0.7194    23.5431 </r>
       <r>    16.9306     0.7081    23.5545 </r>
       <r>    16.9466     0.6967    23.5656 </r>
       <r>    16.9626     0.6852    23.5766 </r>
       <r>    16.9786     0.6735    23.5874 </r>
       <r>    16.9947     0.6613    23.5980 </r>
       <r>    17.0107     0.6483    23.6084 </r>
       <r>    17.0267     0.6344    23.6185 </r>
       <r>    17.0427     0.6190    23.6285 </r>
       <r>    17.0588     0.6020    23.6381 </r>
       <r>    17.0748     0.5829    23.6474 </r>
       <r>    17.0908     0.5617    23.6564 </r>
       <r>    17.1068     0.5383    23.6651 </r>
       <r>    17.1228     0.5126    23.6733 </r>
       <r>    17.1389     0.4848    23.6810 </r>
       <r>    17.1549     0.4553    23.6883 </r>
       <r>    17.1709     0.4244    23.6951 </r>
       <r>    17.1869     0.3928    23.7014 </r>
       <r>    17.2030     0.3612    23.7072 </r>
       <r>    17.2190     0.3301    23.7125 </r>
       <r>    17.2350     0.3004    23.7173 </r>
       <r>    17.2510     0.2727    23.7217 </r>
       <r>    17.2670     0.2477    23.7257 </r>
       <r>    17.2831     0.2259    23.7293 </r>
       <r>    17.2991     0.2077    23.7326 </r>
       <r>    17.3151     0.1934    23.7357 </r>
       <r>    17.3311     0.1831    23.7386 </r>
       <r>    17.3471     0.1766    23.7415 </r>
       <r>    17.3632     0.1739    23.7443 </r>
       <r>    17.3792     0.1745    23.7470 </r>
       <r>    17.3952     0.1779    23.7499 </r>
       <r>    17.4112     0.1836    23.7528 </r>
       <r>    17.4273     0.1909    23.7559 </r>
       <r>    17.4433     0.1992    23.7591 </r>
       <r>    17.4593     0.2079    23.7624 </r>
       <r>    17.4753     0.2163    23.7659 </r>
       <r>    17.4913     0.2239    23.7695 </r>
       <r>    17.5074     0.2303    23.7732 </r>
       <r>    17.5234     0.2352    23.7769 </r>
       <r>    17.5394     0.2383    23.7807 </r>
       <r>    17.5554     0.2394    23.7846 </r>
       <r>    17.5715     0.2385    23.7884 </r>
       <r>    17.5875     0.2355    23.7922 </r>
       <r>    17.6035     0.2307    23.7959 </r>
       <r>    17.6195     0.2240    23.7995 </r>
       <r>    17.6355     0.2156    23.8029 </r>
       <r>    17.6516     0.2058    23.8062 </r>
       <r>    17.6676     0.1948    23.8093 </r>
       <r>    17.6836     0.1828    23.8123 </r>
       <r>    17.6996     0.1700    23.8150 </r>
       <r>    17.7157     0.1569    23.8175 </r>
       <r>    17.7317     0.1436    23.8198 </r>
       <r>    17.7477     0.1305    23.8219 </r>
       <r>    17.7637     0.1180    23.8238 </r>
       <r>    17.7797     0.1062    23.8255 </r>
       <r>    17.7958     0.0955    23.8270 </r>
       <r>    17.8118     0.0862    23.8284 </r>
       <r>    17.8278     0.0784    23.8297 </r>
       <r>    17.8438     0.0723    23.8308 </r>
       <r>    17.8599     0.0679    23.8319 </r>
       <r>    17.8759     0.0652    23.8329 </r>
       <r>    17.8919     0.0640    23.8340 </r>
       <r>    17.9079     0.0642    23.8350 </r>
       <r>    17.9239     0.0656    23.8361 </r>
       <r>    17.9400     0.0678    23.8371 </r>
       <r>    17.9560     0.0705    23.8383 </r>
       <r>    17.9720     0.0735    23.8394 </r>
       <r>    17.9880     0.0764    23.8407 </r>
       <r>    18.0041     0.0790    23.8419 </r>
       <r>    18.0201     0.0812    23.8432 </r>
       <r>    18.0361     0.0828    23.8446 </r>
       <r>    18.0521     0.0838    23.8459 </r>
       <r>    18.0681     0.0843    23.8473 </r>
       <r>    18.0842     0.0842    23.8486 </r>
       <r>    18.1002     0.0837    23.8499 </r>
       <r>    18.1162     0.0828    23.8513 </r>
       <r>    18.1322     0.0818    23.8526 </r>
       <r>    18.1483     0.0807    23.8539 </r>
       <r>    18.1643     0.0795    23.8552 </r>
       <r>    18.1803     0.0784    23.8564 </r>
       <r>    18.1963     0.0774    23.8576 </r>
       <r>    18.2123     0.0764    23.8589 </r>
       <r>    18.2284     0.0755    23.8601 </r>
       <r>    18.2444     0.0745    23.8613 </r>
       <r>    18.2604     0.0735    23.8625 </r>
       <r>    18.2764     0.0724    23.8636 </r>
       <r>    18.2925     0.0713    23.8648 </r>
       <r>    18.3085     0.0701    23.8659 </r>
       <r>    18.3245     0.0689    23.8670 </r>
       <r>    18.3405     0.0676    23.8681 </r>
       <r>    18.3565     0.0665    23.8691 </r>
       <r>    18.3726     0.0655    23.8702 </r>
       <r>    18.3886     0.0648    23.8712 </r>
       <r>    18.4046     0.0643    23.8722 </r>
       <r>    18.4206     0.0641    23.8733 </r>
       <r>    18.4367     0.0643    23.8743 </r>
       <r>    18.4527     0.0648    23.8753 </r>
       <r>    18.4687     0.0656    23.8764 </r>
       <r>    18.4847     0.0666    23.8775 </r>
       <r>    18.5007     0.0678    23.8785 </r>
       <r>    18.5168     0.0689    23.8797 </r>
       <r>    18.5328     0.0699    23.8808 </r>
       <r>    18.5488     0.0706    23.8819 </r>
       <r>    18.5648     0.0710    23.8830 </r>
       <r>    18.5809     0.0708    23.8842 </r>
       <r>    18.5969     0.0700    23.8853 </r>
       <r>    18.6129     0.0686    23.8864 </r>
       <r>    18.6289     0.0665    23.8875 </r>
       <r>    18.6449     0.0637    23.8885 </r>
       <r>    18.6610     0.0603    23.8895 </r>
       <r>    18.6770     0.0565    23.8904 </r>
       <r>    18.6930     0.0523    23.8912 </r>
       <r>    18.7090     0.0480    23.8920 </r>
       <r>    18.7250     0.0436    23.8927 </r>
       <r>    18.7411     0.0395    23.8933 </r>
       <r>    18.7571     0.0358    23.8939 </r>
       <r>    18.7731     0.0326    23.8944 </r>
       <r>    18.7891     0.0300    23.8949 </r>
       <r>    18.8052     0.0281    23.8953 </r>
       <r>    18.8212     0.0270    23.8958 </r>
       <r>    18.8372     0.0265    23.8962 </r>
       <r>    18.8532     0.0267    23.8966 </r>
       <r>    18.8692     0.0274    23.8970 </r>
       <r>    18.8853     0.0286    23.8975 </r>
       <r>    18.9013     0.0301    23.8980 </r>
       <r>    18.9173     0.0319    23.8985 </r>
       <r>    18.9333     0.0339    23.8990 </r>
       <r>    18.9494     0.0360    23.8996 </r>
       <r>    18.9654     0.0382    23.9002 </r>
       <r>    18.9814     0.0405    23.9009 </r>
       <r>    18.9974     0.0428    23.9016 </r>
       <r>    19.0134     0.0452    23.9023 </r>
       <r>    19.0295     0.0476    23.9031 </r>
       <r>    19.0455     0.0500    23.9039 </r>
       <r>    19.0615     0.0524    23.9047 </r>
       <r>    19.0775     0.0547    23.9056 </r>
       <r>    19.0936     0.0568    23.9065 </r>
       <r>    19.1096     0.0587    23.9074 </r>
       <r>    19.1256     0.0602    23.9084 </r>
       <r>    19.1416     0.0612    23.9094 </r>
       <r>    19.1576     0.0616    23.9104 </r>
       <r>    19.1737     0.0615    23.9113 </r>
       <r>    19.1897     0.0607    23.9123 </r>
       <r>    19.2057     0.0594    23.9133 </r>
       <r>    19.2217     0.0575    23.9142 </r>
       <r>    19.2378     0.0553    23.9151 </r>
       <r>    19.2538     0.0528    23.9159 </r>
       <r>    19.2698     0.0502    23.9167 </r>
       <r>    19.2858     0.0477    23.9175 </r>
       <r>    19.3018     0.0455    23.9182 </r>
       <r>    19.3179     0.0436    23.9189 </r>
       <r>    19.3339     0.0423    23.9196 </r>
       <r>    19.3499     0.0415    23.9203 </r>
       <r>    19.3659     0.0412    23.9209 </r>
       <r>    19.3820     0.0414    23.9216 </r>
       <r>    19.3980     0.0421    23.9222 </r>
       <r>    19.4140     0.0430    23.9229 </r>
       <r>    19.4300     0.0442    23.9236 </r>
       <r>    19.4460     0.0453    23.9244 </r>
       <r>    19.4621     0.0465    23.9251 </r>
       <r>    19.4781     0.0474    23.9259 </r>
       <r>    19.4941     0.0481    23.9266 </r>
       <r>    19.5101     0.0485    23.9274 </r>
       <r>    19.5262     0.0486    23.9282 </r>
       <r>    19.5422     0.0485    23.9290 </r>
       <r>    19.5582     0.0481    23.9298 </r>
       <r>    19.5742     0.0476    23.9305 </r>
       <r>    19.5902     0.0469    23.9313 </r>
       <r>    19.6063     0.0463    23.9320 </r>
       <r>    19.6223     0.0456    23.9327 </r>
       <r>    19.6383     0.0450    23.9335 </r>
       <r>    19.6543     0.0444    23.9342 </r>
       <r>    19.6704     0.0439    23.9349 </r>
       <r>    19.6864     0.0433    23.9356 </r>
       <r>    19.7024     0.0428    23.9363 </r>
       <r>    19.7184     0.0421    23.9369 </r>
       <r>    19.7344     0.0414    23.9376 </r>
       <r>    19.7505     0.0405    23.9382 </r>
       <r>    19.7665     0.0395    23.9389 </r>
       <r>    19.7825     0.0383    23.9395 </r>
       <r>    19.7985     0.0370    23.9401 </r>
       <r>    19.8146     0.0356    23.9406 </r>
       <r>    19.8306     0.0342    23.9412 </r>
       <r>    19.8466     0.0328    23.9417 </r>
       <r>    19.8626     0.0314    23.9422 </r>
       <r>    19.8786     0.0301    23.9427 </r>
       <r>    19.8947     0.0289    23.9432 </r>
       <r>    19.9107     0.0279    23.9436 </r>
       <r>    19.9267     0.0271    23.9441 </r>
       <r>    19.9427     0.0265    23.9445 </r>
       <r>    19.9588     0.0261    23.9449 </r>
       <r>    19.9748     0.0259    23.9453 </r>
       <r>    19.9908     0.0258    23.9457 </r>
       <r>    20.0068     0.0259    23.9461 </r>
       <r>    20.0228     0.0261    23.9466 </r>
       <r>    20.0389     0.0263    23.9470 </r>
       <r>    20.0549     0.0266    23.9474 </r>
       <r>    20.0709     0.0268    23.9478 </r>
       <r>    20.0869     0.0269    23.9483 </r>
       <r>    20.1029     0.0268    23.9487 </r>
       <r>    20.1190     0.0266    23.9491 </r>
       <r>    20.1350     0.0262    23.9495 </r>
       <r>    20.1510     0.0255    23.9499 </r>
       <r>    20.1670     0.0247    23.9503 </r>
       <r>    20.1831     0.0237    23.9507 </r>
       <r>    20.1991     0.0225    23.9511 </r>
       <r>    20.2151     0.0212    23.9514 </r>
       <r>    20.2311     0.0199    23.9517 </r>
       <r>    20.2471     0.0186    23.9520 </r>
       <r>    20.2632     0.0174    23.9523 </r>
       <r>    20.2792     0.0164    23.9526 </r>
       <r>    20.2952     0.0155    23.9528 </r>
       <r>    20.3112     0.0149    23.9531 </r>
       <r>    20.3273     0.0145    23.9533 </r>
       <r>    20.3433     0.0143    23.9535 </r>
       <r>    20.3593     0.0144    23.9538 </r>
       <r>    20.3753     0.0147    23.9540 </r>
       <r>    20.3913     0.0152    23.9542 </r>
       <r>    20.4074     0.0159    23.9545 </r>
       <r>    20.4234     0.0169    23.9548 </r>
       <r>    20.4394     0.0181    23.9551 </r>
       <r>    20.4554     0.0196    23.9554 </r>
       <r>    20.4715     0.0213    23.9557 </r>
       <r>    20.4875     0.0233    23.9561 </r>
       <r>    20.5035     0.0255    23.9565 </r>
       <r>    20.5195     0.0280    23.9569 </r>
       <r>    20.5355     0.0306    23.9574 </r>
       <r>    20.5516     0.0334    23.9580 </r>
       <r>    20.5676     0.0363    23.9585 </r>
       <r>    20.5836     0.0391    23.9592 </r>
       <r>    20.5996     0.0417    23.9598 </r>
       <r>    20.6157     0.0440    23.9605 </r>
       <r>    20.6317     0.0460    23.9613 </r>
       <r>    20.6477     0.0474    23.9620 </r>
       <r>    20.6637     0.0483    23.9628 </r>
       <r>    20.6797     0.0486    23.9636 </r>
       <r>    20.6958     0.0483    23.9644 </r>
       <r>    20.7118     0.0475    23.9651 </r>
       <r>    20.7278     0.0463    23.9659 </r>
       <r>    20.7438     0.0447    23.9666 </r>
       <r>    20.7599     0.0430    23.9673 </r>
       <r>    20.7759     0.0412    23.9679 </r>
       <r>    20.7919     0.0394    23.9686 </r>
       <r>    20.8079     0.0378    23.9692 </r>
       <r>    20.8239     0.0365    23.9698 </r>
       <r>    20.8400     0.0354    23.9703 </r>
       <r>    20.8560     0.0346    23.9709 </r>
       <r>    20.8720     0.0341    23.9714 </r>
       <r>    20.8880     0.0338    23.9720 </r>
       <r>    20.9041     0.0336    23.9725 </r>
       <r>    20.9201     0.0334    23.9730 </r>
       <r>    20.9361     0.0332    23.9736 </r>
       <r>    20.9521     0.0329    23.9741 </r>
       <r>    20.9681     0.0323    23.9746 </r>
       <r>    20.9842     0.0314    23.9751 </r>
       <r>    21.0002     0.0302    23.9756 </r>
       <r>    21.0162     0.0286    23.9761 </r>
       <r>    21.0322     0.0267    23.9765 </r>
       <r>    21.0483     0.0246    23.9769 </r>
       <r>    21.0643     0.0222    23.9772 </r>
       <r>    21.0803     0.0197    23.9776 </r>
       <r>    21.0963     0.0171    23.9778 </r>
       <r>    21.1123     0.0144    23.9781 </r>
       <r>    21.1284     0.0119    23.9783 </r>
       <r>    21.1444     0.0095    23.9784 </r>
       <r>    21.1604     0.0073    23.9785 </r>
       <r>    21.1764     0.0053    23.9786 </r>
       <r>    21.1925     0.0036    23.9787 </r>
       <r>    21.2085     0.0021    23.9787 </r>
       <r>    21.2245     0.0009    23.9787 </r>
       <r>    21.2405     0.0000    23.9787 </r>
       <r>    21.2565    -0.0006    23.9787 </r>
       <r>    21.2726    -0.0010    23.9787 </r>
       <r>    21.2886    -0.0012    23.9787 </r>
       <r>    21.3046    -0.0012    23.9786 </r>
       <r>    21.3206    -0.0010    23.9786 </r>
       <r>    21.3367    -0.0007    23.9786 </r>
       <r>    21.3527    -0.0002    23.9786 </r>
       <r>    21.3687     0.0004    23.9786 </r>
       <r>    21.3847     0.0011    23.9786 </r>
       <r>    21.4007     0.0019    23.9787 </r>
       <r>    21.4168     0.0028    23.9787 </r>
       <r>    21.4328     0.0039    23.9788 </r>
       <r>    21.4488     0.0050    23.9789 </r>
       <r>    21.4648     0.0063    23.9790 </r>
       <r>    21.4808     0.0077    23.9791 </r>
       <r>    21.4969     0.0092    23.9792 </r>
       <r>    21.5129     0.0108    23.9794 </r>
       <r>    21.5289     0.0125    23.9796 </r>
       <r>    21.5449     0.0143    23.9798 </r>
       <r>    21.5610     0.0162    23.9801 </r>
       <r>    21.5770     0.0180    23.9804 </r>
       <r>    21.5930     0.0198    23.9807 </r>
       <r>    21.6090     0.0215    23.9810 </r>
       <r>    21.6250     0.0229    23.9814 </r>
       <r>    21.6411     0.0241    23.9818 </r>
       <r>    21.6571     0.0249    23.9822 </r>
       <r>    21.6731     0.0254    23.9826 </r>
       <r>    21.6891     0.0254    23.9830 </r>
       <r>    21.7052     0.0250    23.9834 </r>
       <r>    21.7212     0.0241    23.9838 </r>
       <r>    21.7372     0.0228    23.9842 </r>
       <r>    21.7532     0.0211    23.9845 </r>
       <r>    21.7692     0.0191    23.9848 </r>
       <r>    21.7853     0.0169    23.9851 </r>
       <r>    21.8013     0.0145    23.9853 </r>
       <r>    21.8173     0.0122    23.9855 </r>
       <r>    21.8333     0.0099    23.9857 </r>
       <r>    21.8494     0.0079    23.9858 </r>
       <r>    21.8654     0.0061    23.9859 </r>
       <r>    21.8814     0.0047    23.9860 </r>
       <r>    21.8974     0.0038    23.9860 </r>
       <r>    21.9134     0.0033    23.9861 </r>
       <r>    21.9295     0.0034    23.9861 </r>
       <r>    21.9455     0.0040    23.9862 </r>
       <r>    21.9615     0.0051    23.9863 </r>
       <r>    21.9775     0.0067    23.9864 </r>
       <r>    21.9936     0.0087    23.9865 </r>
       <r>    22.0096     0.0110    23.9867 </r>
       <r>    22.0256     0.0136    23.9869 </r>
       <r>    22.0416     0.0164    23.9872 </r>
       <r>    22.0576     0.0192    23.9875 </r>
       <r>    22.0737     0.0220    23.9878 </r>
       <r>    22.0897     0.0246    23.9882 </r>
       <r>    22.1057     0.0269    23.9887 </r>
       <r>    22.1217     0.0289    23.9891 </r>
       <r>    22.1378     0.0304    23.9896 </r>
       <r>    22.1538     0.0315    23.9901 </r>
       <r>    22.1698     0.0321    23.9906 </r>
       <r>    22.1858     0.0321    23.9911 </r>
       <r>    22.2018     0.0316    23.9917 </r>
       <r>    22.2179     0.0306    23.9921 </r>
       <r>    22.2339     0.0292    23.9926 </r>
       <r>    22.2499     0.0274    23.9931 </r>
       <r>    22.2659     0.0253    23.9935 </r>
       <r>    22.2820     0.0230    23.9938 </r>
       <r>    22.2980     0.0205    23.9942 </r>
       <r>    22.3140     0.0180    23.9944 </r>
       <r>    22.3300     0.0155    23.9947 </r>
       <r>    22.3460     0.0131    23.9949 </r>
       <r>    22.3621     0.0108    23.9951 </r>
       <r>    22.3781     0.0087    23.9952 </r>
       <r>    22.3941     0.0068    23.9953 </r>
       <r>    22.4101     0.0051    23.9954 </r>
       <r>    22.4262     0.0037    23.9955 </r>
       <r>    22.4422     0.0025    23.9955 </r>
       <r>    22.4582     0.0015    23.9955 </r>
       <r>    22.4742     0.0007    23.9955 </r>
       <r>    22.4902     0.0001    23.9955 </r>
       <r>    22.5063    -0.0004    23.9955 </r>
       <r>    22.5223    -0.0007    23.9955 </r>
       <r>    22.5383    -0.0009    23.9955 </r>
       <r>    22.5543    -0.0010    23.9955 </r>
       <r>    22.5704    -0.0010    23.9955 </r>
       <r>    22.5864    -0.0010    23.9955 </r>
       <r>    22.6024    -0.0009    23.9954 </r>
       <r>    22.6184    -0.0008    23.9954 </r>
       <r>    22.6344    -0.0007    23.9954 </r>
       <r>    22.6505    -0.0006    23.9954 </r>
       <r>    22.6665    -0.0006    23.9954 </r>
       <r>    22.6825    -0.0005    23.9954 </r>
       <r>    22.6985    -0.0004    23.9954 </r>
       <r>    22.7146    -0.0004    23.9954 </r>
       <r>    22.7306    -0.0003    23.9954 </r>
       <r>    22.7466    -0.0003    23.9954 </r>
       <r>    22.7626    -0.0003    23.9954 </r>
       <r>    22.7786    -0.0003    23.9954 </r>
       <r>    22.7947    -0.0004    23.9954 </r>
       <r>    22.8107    -0.0004    23.9953 </r>
       <r>    22.8267    -0.0005    23.9953 </r>
       <r>    22.8427    -0.0005    23.9953 </r>
       <r>    22.8587    -0.0006    23.9953 </r>
       <r>    22.8748    -0.0006    23.9953 </r>
       <r>    22.8908    -0.0007    23.9953 </r>
       <r>    22.9068    -0.0007    23.9953 </r>
       <r>    22.9228    -0.0006    23.9953 </r>
       <r>    22.9389    -0.0005    23.9953 </r>
       <r>    22.9549    -0.0003    23.9953 </r>
       <r>    22.9709     0.0000    23.9953 </r>
       <r>    22.9869     0.0004    23.9953 </r>
       <r>    23.0029     0.0010    23.9953 </r>
       <r>    23.0190     0.0017    23.9953 </r>
       <r>    23.0350     0.0025    23.9954 </r>
       <r>    23.0510     0.0034    23.9954 </r>
       <r>    23.0670     0.0044    23.9955 </r>
       <r>    23.0831     0.0056    23.9956 </r>
       <r>    23.0991     0.0068    23.9957 </r>
       <r>    23.1151     0.0080    23.9958 </r>
       <r>    23.1311     0.0092    23.9960 </r>
       <r>    23.1471     0.0103    23.9961 </r>
       <r>    23.1632     0.0113    23.9963 </r>
       <r>    23.1792     0.0122    23.9965 </r>
       <r>    23.1952     0.0129    23.9967 </r>
       <r>    23.2112     0.0133    23.9969 </r>
       <r>    23.2273     0.0135    23.9971 </r>
       <r>    23.2433     0.0134    23.9973 </r>
       <r>    23.2593     0.0131    23.9976 </r>
       <r>    23.2753     0.0126    23.9978 </r>
       <r>    23.2913     0.0119    23.9979 </r>
       <r>    23.3074     0.0111    23.9981 </r>
       <r>    23.3234     0.0102    23.9983 </r>
       <r>    23.3394     0.0092    23.9984 </r>
       <r>    23.3554     0.0083    23.9986 </r>
       <r>    23.3715     0.0074    23.9987 </r>
       <r>    23.3875     0.0065    23.9988 </r>
       <r>    23.4035     0.0058    23.9989 </r>
       <r>    23.4195     0.0053    23.9990 </r>
       <r>    23.4355     0.0048    23.9990 </r>
       <r>    23.4516     0.0045    23.9991 </r>
       <r>    23.4676     0.0042    23.9992 </r>
       <r>    23.4836     0.0041    23.9993 </r>
       <r>    23.4996     0.0039    23.9993 </r>
       <r>    23.5157     0.0038    23.9994 </r>
       <r>    23.5317     0.0037    23.9994 </r>
       <r>    23.5477     0.0036    23.9995 </r>
       <r>    23.5637     0.0035    23.9995 </r>
       <r>    23.5797     0.0033    23.9996 </r>
       <r>    23.5958     0.0030    23.9997 </r>
       <r>    23.6118     0.0028    23.9997 </r>
       <r>    23.6278     0.0025    23.9997 </r>
       <r>    23.6438     0.0021    23.9998 </r>
       <r>    23.6599     0.0018    23.9998 </r>
       <r>    23.6759     0.0014    23.9998 </r>
       <r>    23.6919     0.0011    23.9998 </r>
       <r>    23.7079     0.0008    23.9999 </r>
       <r>    23.7239     0.0005    23.9999 </r>
       <r>    23.7400     0.0003    23.9999 </r>
       <r>    23.7560     0.0001    23.9999 </r>
       <r>    23.7720    -0.0000    23.9999 </r>
       <r>    23.7880    -0.0001    23.9999 </r>
       <r>    23.8041    -0.0002    23.9999 </r>
       <r>    23.8201    -0.0002    23.9999 </r>
       <r>    23.8361    -0.0003    23.9999 </r>
       <r>    23.8521    -0.0003    23.9998 </r>
       <r>    23.8681    -0.0003    23.9998 </r>
       <r>    23.8842    -0.0002    23.9998 </r>
       <r>    23.9002    -0.0002    23.9998 </r>
       <r>    23.9162    -0.0002    23.9998 </r>
       <r>    23.9322    -0.0002    23.9998 </r>
       <r>    23.9483    -0.0001    23.9998 </r>
       <r>    23.9643    -0.0001    23.9998 </r>
       <r>    23.9803    -0.0001    23.9998 </r>
       <r>    23.9963    -0.0001    23.9998 </r>
       <r>    24.0123    -0.0000    23.9998 </r>
       <r>    24.0284     0.0000    23.9998 </r>
       <r>    24.0444     0.0001    23.9998 </r>
       <r>    24.0604     0.0001    23.9998 </r>
       <r>    24.0764     0.0002    23.9998 </r>
       <r>    24.0925     0.0002    23.9998 </r>
       <r>    24.1085     0.0003    23.9998 </r>
       <r>    24.1245     0.0004    23.9998 </r>
       <r>    24.1405     0.0004    23.9999 </r>
       <r>    24.1565     0.0005    23.9999 </r>
       <r>    24.1726     0.0006    23.9999 </r>
       <r>    24.1886     0.0006    23.9999 </r>
       <r>    24.2046     0.0007    23.9999 </r>
       <r>    24.2206     0.0007    23.9999 </r>
       <r>    24.2366     0.0007    23.9999 </r>
       <r>    24.2527     0.0007    23.9999 </r>
       <r>    24.2687     0.0007    23.9999 </r>
       <r>    24.2847     0.0007    23.9999 </r>
       <r>    24.3007     0.0006    24.0000 </r>
       <r>    24.3168     0.0006    24.0000 </r>
       <r>    24.3328     0.0005    24.0000 </r>
       <r>    24.3488     0.0005    24.0000 </r>
       <r>    24.3648     0.0004    24.0000 </r>
       <r>    24.3808     0.0003    24.0000 </r>
       <r>    24.3969     0.0003    24.0000 </r>
       <r>    24.4129     0.0002    24.0000 </r>
       <r>    24.4289     0.0001    24.0000 </r>
       <r>    24.4449     0.0001    24.0000 </r>
       <r>    24.4610     0.0001    24.0000 </r>
       <r>    24.4770     0.0000    24.0000 </r>
       <r>    24.4930    -0.0000    24.0000 </r>
       <r>    24.5090    -0.0000    24.0000 </r>
       <r>    24.5250    -0.0000    24.0000 </r>
       <r>    24.5411    -0.0000    24.0000 </r>
       <r>    24.5571    -0.0000    24.0000 </r>
       <r>    24.5731    -0.0000    24.0000 </r>
       <r>    24.5891    -0.0000    24.0000 </r>
       <r>    24.6052    -0.0000    24.0000 </r>
       <r>    24.6212    -0.0000    24.0000 </r>
       <r>    24.6372    -0.0000    24.0000 </r>
       <r>    24.6532    -0.0000    24.0000 </r>
       <r>    24.6692    -0.0000    24.0000 </r>
       <r>    24.6853    -0.0000    24.0000 </r>
       <r>    24.7013    -0.0000    24.0000 </r>
       <r>    24.7173    -0.0000    24.0000 </r>
       <r>    24.7333    -0.0000    24.0000 </r>
       <r>    24.7494    -0.0000    24.0000 </r>
       <r>    24.7654    -0.0000    24.0000 </r>
       <r>    24.7814    -0.0000    24.0000 </r>
       <r>    24.7974    -0.0000    24.0000 </r>
       <r>    24.8134    -0.0000    24.0000 </r>
       <r>    24.8295    -0.0000    24.0000 </r>
       <r>    24.8455    -0.0000    24.0000 </r>
       <r>    24.8615    -0.0000    24.0000 </r>
       <r>    24.8775    -0.0000    24.0000 </r>
       <r>    24.8936    -0.0000    24.0000 </r>
       <r>    24.9096    -0.0000    24.0000 </r>
       <r>    24.9256    -0.0000    24.0000 </r>
       <r>    24.9416    -0.0000    24.0000 </r>
       <r>    24.9576    -0.0000    24.0000 </r>
       <r>    24.9737    -0.0000    24.0000 </r>
       <r>    24.9897    -0.0000    24.0000 </r>
       <r>    25.0057    -0.0000    24.0000 </r>
       <r>    25.0217    -0.0000    24.0000 </r>
       <r>    25.0378    -0.0000    24.0000 </r>
       <r>    25.0538    -0.0000    24.0000 </r>
       <r>    25.0698    -0.0000    24.0000 </r>
       <r>    25.0858    -0.0000    24.0000 </r>
       <r>    25.1018    -0.0000    24.0000 </r>
       <r>    25.1179    -0.0000    24.0000 </r>
       <r>    25.1339    -0.0000    24.0000 </r>
       <r>    25.1499    -0.0000    24.0000 </r>
       <r>    25.1659    -0.0000    24.0000 </r>
       <r>    25.1820    -0.0000    24.0000 </r>
       <r>    25.1980    -0.0000    24.0000 </r>
       <r>    25.2140    -0.0000    24.0000 </r>
       <r>    25.2300    -0.0000    24.0000 </r>
       <r>    25.2460    -0.0000    24.0000 </r>
       <r>    25.2621    -0.0000    24.0000 </r>
       <r>    25.2781    -0.0000    24.0000 </r>
       <r>    25.2941    -0.0000    24.0000 </r>
       <r>    25.3101    -0.0000    24.0000 </r>
       <r>    25.3262    -0.0000    24.0000 </r>
       <r>    25.3422    -0.0000    24.0000 </r>
       <r>    25.3582    -0.0000    24.0000 </r>
       <r>    25.3742    -0.0000    24.0000 </r>
       <r>    25.3902    -0.0000    24.0000 </r>
       <r>    25.4063    -0.0000    24.0000 </r>
       <r>    25.4223    -0.0000    24.0000 </r>
       <r>    25.4383    -0.0000    24.0000 </r>
       <r>    25.4543    -0.0000    24.0000 </r>
       <r>    25.4704    -0.0000    24.0000 </r>
       <r>    25.4864     0.0000    24.0000 </r>
       <r>    25.5024     0.0000    24.0000 </r>
       <r>    25.5184     0.0000    24.0000 </r>
       <r>    25.5344     0.0000    24.0000 </r>
       <r>    25.5505     0.0000    24.0000 </r>
       <r>    25.5665     0.0000    24.0000 </r>
       <r>    25.5825     0.0000    24.0000 </r>
       <r>    25.5985     0.0000    24.0000 </r>
       <r>    25.6146     0.0000    24.0000 </r>
       <r>    25.6306     0.0000    24.0000 </r>
       <r>    25.6466     0.0000    24.0000 </r>
       <r>    25.6626     0.0000    24.0000 </r>
       <r>    25.6786     0.0000    24.0000 </r>
       <r>    25.6947     0.0000    24.0000 </r>
       <r>    25.7107     0.0000    24.0000 </r>
       <r>    25.7267     0.0000    24.0000 </r>
       <r>    25.7427     0.0000    24.0000 </r>
       <r>    25.7587     0.0000    24.0000 </r>
       <r>    25.7748     0.0000    24.0000 </r>
       <r>    25.7908     0.0000    24.0000 </r>
       <r>    25.8068     0.0000    24.0000 </r>
       <r>    25.8228     0.0000    24.0000 </r>
       <r>    25.8389     0.0000    24.0000 </r>
       <r>    25.8549     0.0000    24.0000 </r>
       <r>    25.8709     0.0000    24.0000 </r>
       <r>    25.8869     0.0000    24.0000 </r>
       <r>    25.9029     0.0000    24.0000 </r>
       <r>    25.9190     0.0000    24.0000 </r>
       <r>    25.9350     0.0000    24.0000 </r>
       <r>    25.9510     0.0000    24.0000 </r>
       <r>    25.9670     0.0000    24.0000 </r>
       <r>    25.9831     0.0000    24.0000 </r>
       <r>    25.9991     0.0000    24.0000 </r>
       <r>    26.0151     0.0000    24.0000 </r>
       <r>    26.0311     0.0000    24.0000 </r>
       <r>    26.0471     0.0000    24.0000 </r>
       <r>    26.0632     0.0000    24.0000 </r>
       <r>    26.0792     0.0000    24.0000 </r>
       <r>    26.0952     0.0000    24.0000 </r>
       <r>    26.1112     0.0000    24.0000 </r>
       <r>    26.1273     0.0000    24.0000 </r>
       <r>    26.1433     0.0000    24.0000 </r>
       <r>    26.1593     0.0000    24.0000 </r>
       <r>    26.1753     0.0000    24.0000 </r>
       <r>    26.1913     0.0000    24.0000 </r>
       <r>    26.2074     0.0000    24.0000 </r>
       <r>    26.2234     0.0000    24.0000 </r>
       <r>    26.2394     0.0000    24.0000 </r>
      </set>
     </set>
    </array>
   </total>
  </dos>
 </calculation>
 <structure name="finalpos" >
  <crystal>
   <varray name="basis" >
    <v>       3.56890465       0.00000000      -0.00000000 </v>
    <v>      -0.00000000       3.56890465      -0.00000000 </v>
    <v>       0.00000000       0.00000000       3.56890465 </v>
   </varray>
   <i name="volume">     45.45742559 </i>
   <varray name="rec_basis" >
    <v>       0.28019802       0.00000000      -0.00000000 </v>
    <v>      -0.00000000       0.28019802      -0.00000000 </v>
    <v>       0.00000000       0.00000000       0.28019802 </v>
   </varray>
  </crystal>
  <varray name="positions" >
   <v>       0.00000000       0.00000000       0.00000000 </v>
   <v>       0.50000000       0.00000000       0.50000000 </v>
   <v>       0.50000000       0.50000000       0.00000000 </v>
   <v>       0.00000000       0.50000000       0.50000000 </v>
  </varray>
 </structure>
</modeling>
