   4   4   0   0
  0.1090355E+02  0.3520000E-09  0.3520000E-09  0.3520000E-09  0.5000000E-15
  1.000000000000000E-004
  CAR 
 Ni bulk fcc                             
     29.20421449     -6.23883274 2000      4.74267125      1.00000000
     -6.239  0.0000E+00  0.0000E+00  0.0000E+00  0.0000E+00
     -6.221  0.0000E+00  0.0000E+00  0.0000E+00  0.0000E+00
     -6.203  0.0000E+00  0.0000E+00  0.0000E+00  0.0000E+00
     -6.186  0.0000E+00  0.0000E+00  0.0000E+00  0.0000E+00
     -6.168  0.0000E+00  0.0000E+00  0.0000E+00  0.0000E+00
     -6.150  0.0000E+00  0.0000E+00  0.0000E+00  0.0000E+00
     -6.132  0.0000E+00  0.0000E+00  0.0000E+00  0.0000E+00
     -6.115  0.0000E+00  0.0000E+00  0.0000E+00  0.0000E+00
     -6.097  0.0000E+00  0.0000E+00  0.0000E+00  0.0000E+00
     -6.079  0.0000E+00  0.0000E+00  0.0000E+00  0.0000E+00
     -6.062  0.0000E+00  0.0000E+00  0.0000E+00  0.0000E+00
     -6.044  0.0000E+00  0.0000E+00  0.0000E+00  0.0000E+00
     -6.026  0.0000E+00  0.0000E+00  0.0000E+00  0.0000E+00
     -6.008  0.0000E+00  0.0000E+00  0.0000E+00  0.0000E+00
     -5.991  0.0000E+00  0.0000E+00  0.0000E+00  0.0000E+00
     -5.973  0.0000E+00  0.0000E+00  0.0000E+00  0.0000E+00
     -5.955  0.0000E+00  0.0000E+00  0.0000E+00  0.0000E+00
     -5.937  0.0000E+00  0.0000E+00  0.0000E+00  0.0000E+00
     -5.920  0.0000E+00  0.0000E+00  0.0000E+00  0.0000E+00
     -5.902  0.0000E+00  0.0000E+00  0.0000E+00  0.0000E+00
     -5.884  0.0000E+00  0.0000E+00  0.0000E+00  0.0000E+00
     -5.866  0.0000E+00  0.0000E+00  0.0000E+00  0.0000E+00
     -5.849  0.0000E+00 -0.7937E-32  0.0000E+00 -0.1407E-33
     -5.831  0.0000E+00 -0.2452E-31  0.0000E+00 -0.5754E-33
     -5.813 -0.7606E-32 -0.1307E-30 -0.1349E-33 -0.2893E-32
     -5.796 -0.2351E-31 -0.4879E-30 -0.5517E-33 -0.1154E-31
     -5.778 -0.1255E-30 -0.1907E-29 -0.2776E-32 -0.4535E-31
     -5.760 -0.4685E-30 -0.7519E-29 -0.1108E-31 -0.1787E-30
     -5.742 -0.1832E-29 -0.2834E-28 -0.4356E-31 -0.6811E-30
     -5.725 -0.7227E-29 -0.1058E-27 -0.1717E-30 -0.2558E-29
     -5.707 -0.2725E-28 -0.3889E-27 -0.6548E-30 -0.9452E-29
     -5.689 -0.1018E-27 -0.1407E-26 -0.2460E-29 -0.3439E-28
     -5.671 -0.3743E-27 -0.5010E-26 -0.9097E-29 -0.1232E-27
     -5.654 -0.1355E-26 -0.1756E-25 -0.3312E-28 -0.4346E-27
     -5.636 -0.4827E-26 -0.6062E-25 -0.1187E-27 -0.1509E-26
     -5.618 -0.1693E-25 -0.2060E-24 -0.4189E-27 -0.5162E-26
     -5.601 -0.5847E-25 -0.6891E-24 -0.1456E-26 -0.1738E-25
     -5.583 -0.1988E-24 -0.2269E-23 -0.4980E-26 -0.5761E-25
     -5.565 -0.6652E-24 -0.7357E-23 -0.1677E-25 -0.1881E-24
     -5.547 -0.2192E-23 -0.2348E-22 -0.5563E-25 -0.6044E-24
     -5.530 -0.7109E-23 -0.7379E-22 -0.1817E-24 -0.1913E-23
     -5.512 -0.2270E-22 -0.2283E-21 -0.5842E-24 -0.5960E-23
     -5.494 -0.7137E-22 -0.6952E-21 -0.1850E-23 -0.1829E-22
     -5.476 -0.2209E-21 -0.2084E-20 -0.5766E-23 -0.5524E-22
     -5.459 -0.6731E-21 -0.6152E-20 -0.1770E-22 -0.1643E-21
     -5.441 -0.2019E-20 -0.1788E-19 -0.5350E-22 -0.4813E-21
     -5.423 -0.5963E-20 -0.5115E-19 -0.1592E-21 -0.1388E-20
     -5.406 -0.1734E-19 -0.1414E-18 -0.4666E-21 -0.3895E-20
     -5.388 -0.4962E-19 -0.3914E-18 -0.1346E-20 -0.1084E-19
     -5.370 -0.1371E-18 -0.1056E-17 -0.3778E-20 -0.2955E-19
     -5.352 -0.3799E-18 -0.2845E-17 -0.1051E-19 -0.8000E-19
     -5.335 -0.1025E-17 -0.7484E-17 -0.2868E-19 -0.2127E-18
     -5.317 -0.2766E-17 -0.1955E-16 -0.7772E-19 -0.5594E-18
     -5.299 -0.7289E-17 -0.5001E-16 -0.2070E-18 -0.1446E-17
     -5.281 -0.1902E-16 -0.1262E-15 -0.5441E-18 -0.3683E-17
     -5.264 -0.4868E-16 -0.3132E-15 -0.1407E-17 -0.9237E-17
     -5.246 -0.1229E-15 -0.7655E-15 -0.3586E-17 -0.2281E-16
     -5.228 -0.3052E-15 -0.1842E-14 -0.8997E-17 -0.5546E-16
     -5.210 -0.7461E-15 -0.4361E-14 -0.2223E-16 -0.1328E-15
     -5.193 -0.1796E-14 -0.1017E-13 -0.5407E-16 -0.3130E-15
     -5.175 -0.4255E-14 -0.2333E-13 -0.1295E-15 -0.7267E-15
     -5.157 -0.9925E-14 -0.5271E-13 -0.3055E-15 -0.1661E-14
     -5.140 -0.2279E-13 -0.1172E-12 -0.7096E-15 -0.3739E-14
     -5.122 -0.5150E-13 -0.2565E-12 -0.1623E-14 -0.8288E-14
     -5.104 -0.1146E-12 -0.5527E-12 -0.3654E-14 -0.1809E-13
     -5.086 -0.2509E-12 -0.1172E-11 -0.8104E-14 -0.3887E-13
     -5.069 -0.5409E-12 -0.2447E-11 -0.1769E-13 -0.8225E-13
     -5.051 -0.1148E-11 -0.5027E-11 -0.3804E-13 -0.1714E-12
     -5.033 -0.2397E-11 -0.1017E-10 -0.8054E-13 -0.3516E-12
     -5.015 -0.4927E-11 -0.2023E-10 -0.1679E-12 -0.7103E-12
     -4.998 -0.9968E-11 -0.3963E-10 -0.3446E-12 -0.1413E-11
     -4.980 -0.1985E-10 -0.7639E-10 -0.6965E-12 -0.2767E-11
     -4.962 -0.3889E-10 -0.1449E-09 -0.1386E-11 -0.5337E-11
     -4.945 -0.7501E-10 -0.2705E-09 -0.2716E-11 -0.1013E-10
     -4.927 -0.1424E-09 -0.4969E-09 -0.5240E-11 -0.1894E-10
     -4.909 -0.2659E-09 -0.8982E-09 -0.9955E-11 -0.3487E-10
     -4.891 -0.4887E-09 -0.1597E-08 -0.1862E-10 -0.6319E-10
     -4.874 -0.8837E-09 -0.2795E-08 -0.3429E-10 -0.1127E-09
     -4.856 -0.1572E-08 -0.4811E-08 -0.6217E-10 -0.1980E-09
     -4.838 -0.2753E-08 -0.8146E-08 -0.1110E-09 -0.3425E-09
     -4.820 -0.4741E-08 -0.1357E-07 -0.1950E-09 -0.5831E-09
     -4.803 -0.8031E-08 -0.2223E-07 -0.3374E-09 -0.9772E-09
     -4.785 -0.1338E-07 -0.3581E-07 -0.5747E-09 -0.1612E-08
     -4.767 -0.2194E-07 -0.5673E-07 -0.9637E-09 -0.2618E-08
     -4.749 -0.3536E-07 -0.8835E-07 -0.1591E-08 -0.4184E-08
     -4.732 -0.5604E-07 -0.1353E-06 -0.2584E-08 -0.6583E-08
     -4.714 -0.8732E-07 -0.2036E-06 -0.4132E-08 -0.1019E-07
     -4.696 -0.1338E-06 -0.3010E-06 -0.6504E-08 -0.1553E-07
     -4.679 -0.2014E-06 -0.4373E-06 -0.1008E-07 -0.2328E-07
     -4.661 -0.2980E-06 -0.6240E-06 -0.1536E-07 -0.3435E-07
     -4.643 -0.4331E-06 -0.8741E-06 -0.2304E-07 -0.4984E-07
     -4.625 -0.6184E-06 -0.1202E-05 -0.3400E-07 -0.7115E-07
     -4.608 -0.8668E-06 -0.1621E-05 -0.4937E-07 -0.9990E-07
     -4.590 -0.1193E-05 -0.2144E-05 -0.7052E-07 -0.1379E-06
     -4.572 -0.1609E-05 -0.2778E-05 -0.9905E-07 -0.1872E-06
     -4.554 -0.2130E-05 -0.3522E-05 -0.1368E-06 -0.2496E-06
     -4.537 -0.2761E-05 -0.4367E-05 -0.1858E-06 -0.3270E-06
     -4.519 -0.3504E-05 -0.5284E-05 -0.2479E-06 -0.4207E-06
     -4.501 -0.4347E-05 -0.6227E-05 -0.3250E-06 -0.5311E-06
     -4.484 -0.5264E-05 -0.7125E-05 -0.4183E-06 -0.6574E-06
     -4.466 -0.6209E-05 -0.7879E-05 -0.5284E-06 -0.7971E-06
     -4.448 -0.7111E-05 -0.8363E-05 -0.6545E-06 -0.9454E-06
     -4.430 -0.7874E-05 -0.8418E-05 -0.7941E-06 -0.1095E-05
     -4.413 -0.8369E-05 -0.7863E-05 -0.9425E-06 -0.1234E-05
     -4.395 -0.8441E-05 -0.6493E-05 -0.1092E-05 -0.1349E-05
     -4.377 -0.7908E-05 -0.4091E-05 -0.1232E-05 -0.1422E-05
     -4.359 -0.6565E-05 -0.4396E-06 -0.1349E-05 -0.1430E-05
     -4.342 -0.4196E-05  0.4669E-05 -0.1423E-05 -0.1347E-05
     -4.324 -0.5807E-06  0.1142E-04 -0.1433E-05 -0.1144E-05
     -4.306  0.4487E-05  0.1994E-04 -0.1354E-05 -0.7908E-06
     -4.288  0.1119E-04  0.3033E-04 -0.1155E-05 -0.2530E-06
     -4.271  0.1967E-04  0.4261E-04 -0.8066E-06  0.5026E-06
     -4.253  0.3002E-04  0.5673E-04 -0.2743E-06  0.1508E-05
     -4.235  0.4226E-04  0.7257E-04  0.4750E-06  0.2795E-05
     -4.218  0.5635E-04  0.8994E-04  0.1474E-05  0.4390E-05
     -4.200  0.7217E-04  0.1086E-03  0.2754E-05  0.6315E-05
     -4.182  0.8952E-04  0.1282E-03  0.4341E-05  0.8588E-05
     -4.164  0.1082E-03  0.1484E-03  0.6259E-05  0.1122E-04
     -4.147  0.1278E-03  0.1690E-03  0.8524E-05  0.1422E-04
     -4.129  0.1480E-03  0.1895E-03  0.1115E-04  0.1758E-04
     -4.111  0.1686E-03  0.2097E-03  0.1414E-04  0.2129E-04
     -4.093  0.1892E-03  0.2293E-03  0.1749E-04  0.2536E-04
     -4.076  0.2094E-03  0.2481E-03  0.2121E-04  0.2976E-04
     -4.058  0.2291E-03  0.2661E-03  0.2527E-04  0.3447E-04
     -4.040  0.2480E-03  0.2832E-03  0.2967E-04  0.3950E-04
     -4.023  0.2661E-03  0.2995E-03  0.3438E-04  0.4481E-04
     -4.005  0.2833E-03  0.3150E-03  0.3941E-04  0.5039E-04
     -3.987  0.2997E-03  0.3298E-03  0.4472E-04  0.5624E-04
     -3.969  0.3152E-03  0.3440E-03  0.5031E-04  0.6234E-04
     -3.952  0.3301E-03  0.3578E-03  0.5616E-04  0.6868E-04
     -3.934  0.3445E-03  0.3711E-03  0.6227E-04  0.7526E-04
     -3.916  0.3583E-03  0.3839E-03  0.6862E-04  0.8207E-04
     -3.898  0.3717E-03  0.3963E-03  0.7521E-04  0.8909E-04
     -3.881  0.3846E-03  0.4081E-03  0.8203E-04  0.9633E-04
     -3.863  0.3970E-03  0.4192E-03  0.8907E-04  0.1038E-03
     -3.845  0.4089E-03  0.4295E-03  0.9632E-04  0.1114E-03
     -3.827  0.4201E-03  0.4391E-03  0.1038E-03  0.1192E-03
     -3.810  0.4305E-03  0.4478E-03  0.1114E-03  0.1271E-03
     -3.792  0.4401E-03  0.4558E-03  0.1192E-03  0.1352E-03
     -3.774  0.4489E-03  0.4631E-03  0.1272E-03  0.1434E-03
     -3.757  0.4570E-03  0.4701E-03  0.1353E-03  0.1517E-03
     -3.739  0.4644E-03  0.4771E-03  0.1435E-03  0.1602E-03
     -3.721  0.4715E-03  0.4843E-03  0.1519E-03  0.1688E-03
     -3.703  0.4786E-03  0.4921E-03  0.1603E-03  0.1775E-03
     -3.686  0.4859E-03  0.5008E-03  0.1690E-03  0.1864E-03
     -3.668  0.4939E-03  0.5105E-03  0.1777E-03  0.1954E-03
     -3.650  0.5027E-03  0.5215E-03  0.1866E-03  0.2047E-03
     -3.632  0.5127E-03  0.5335E-03  0.1957E-03  0.2141E-03
     -3.615  0.5238E-03  0.5464E-03  0.2050E-03  0.2238E-03
     -3.597  0.5359E-03  0.5597E-03  0.2145E-03  0.2337E-03
     -3.579  0.5489E-03  0.5730E-03  0.2242E-03  0.2439E-03
     -3.562  0.5623E-03  0.5856E-03  0.2342E-03  0.2543E-03
     -3.544  0.5756E-03  0.5969E-03  0.2444E-03  0.2649E-03
     -3.526  0.5882E-03  0.6065E-03  0.2548E-03  0.2756E-03
     -3.508  0.5996E-03  0.6140E-03  0.2655E-03  0.2865E-03
     -3.491  0.6092E-03  0.6192E-03  0.2763E-03  0.2975E-03
     -3.473  0.6167E-03  0.6222E-03  0.2872E-03  0.3085E-03
     -3.455  0.6219E-03  0.6234E-03  0.2982E-03  0.3196E-03
     -3.437  0.6249E-03  0.6234E-03  0.3093E-03  0.3306E-03
     -3.420  0.6262E-03  0.6228E-03  0.3204E-03  0.3417E-03
     -3.402  0.6263E-03  0.6228E-03  0.3315E-03  0.3527E-03
     -3.384  0.6261E-03  0.6241E-03  0.3426E-03  0.3638E-03
     -3.367  0.6264E-03  0.6276E-03  0.3537E-03  0.3749E-03
     -3.349  0.6280E-03  0.6338E-03  0.3649E-03  0.3861E-03
     -3.331  0.6320E-03  0.6432E-03  0.3761E-03  0.3975E-03
     -3.313  0.6387E-03  0.6557E-03  0.3874E-03  0.4092E-03
     -3.296  0.6485E-03  0.6711E-03  0.3989E-03  0.4211E-03
     -3.278  0.6615E-03  0.6885E-03  0.4106E-03  0.4333E-03
     -3.260  0.6771E-03  0.7072E-03  0.4226E-03  0.4458E-03
     -3.242  0.6948E-03  0.7260E-03  0.4350E-03  0.4587E-03
     -3.225  0.7136E-03  0.7438E-03  0.4476E-03  0.4719E-03
     -3.207  0.7324E-03  0.7596E-03  0.4606E-03  0.4853E-03
     -3.189  0.7501E-03  0.7726E-03  0.4739E-03  0.4990E-03
     -3.171  0.7657E-03  0.7821E-03  0.4875E-03  0.5129E-03
     -3.154  0.7784E-03  0.7881E-03  0.5013E-03  0.5269E-03
     -3.136  0.7877E-03  0.7905E-03  0.5152E-03  0.5409E-03
     -3.118  0.7934E-03  0.7900E-03  0.5293E-03  0.5549E-03
     -3.101  0.7958E-03  0.7874E-03  0.5434E-03  0.5689E-03
     -3.083  0.7954E-03  0.7834E-03  0.5575E-03  0.5828E-03
     -3.065  0.7929E-03  0.7792E-03  0.5716E-03  0.5966E-03
     -3.047  0.7893E-03  0.7757E-03  0.5856E-03  0.6103E-03
     -3.030  0.7856E-03  0.7738E-03  0.5995E-03  0.6240E-03
     -3.012  0.7827E-03  0.7740E-03  0.6134E-03  0.6378E-03
     -2.994  0.7815E-03  0.7768E-03  0.6272E-03  0.6515E-03
     -2.976  0.7823E-03  0.7821E-03  0.6411E-03  0.6654E-03
     -2.959  0.7857E-03  0.7898E-03  0.6550E-03  0.6794E-03
     -2.941  0.7915E-03  0.7995E-03  0.6691E-03  0.6936E-03
     -2.923  0.7996E-03  0.8109E-03  0.6832E-03  0.7080E-03
     -2.906  0.8096E-03  0.8233E-03  0.6976E-03  0.7226E-03
     -2.888  0.8212E-03  0.8364E-03  0.7122E-03  0.7374E-03
     -2.870  0.8339E-03  0.8498E-03  0.7269E-03  0.7525E-03
     -2.852  0.8472E-03  0.8633E-03  0.7420E-03  0.7678E-03
     -2.835  0.8610E-03  0.8770E-03  0.7572E-03  0.7833E-03
     -2.817  0.8751E-03  0.8908E-03  0.7727E-03  0.7991E-03
     -2.799  0.8894E-03  0.9047E-03  0.7885E-03  0.8152E-03
     -2.781  0.9040E-03  0.9189E-03  0.8045E-03  0.8314E-03
     -2.764  0.9188E-03  0.9332E-03  0.8208E-03  0.8480E-03
     -2.746  0.9339E-03  0.9475E-03  0.8374E-03  0.8648E-03
     -2.728  0.9490E-03  0.9613E-03  0.8542E-03  0.8818E-03
     -2.710  0.9639E-03  0.9741E-03  0.8713E-03  0.8991E-03
     -2.693  0.9779E-03  0.9852E-03  0.8887E-03  0.9166E-03
     -2.675  0.9906E-03  0.9940E-03  0.9062E-03  0.9342E-03
     -2.657  0.1001E-02  0.9997E-03  0.9240E-03  0.9519E-03
     -2.640  0.1009E-02  0.1002E-02  0.9419E-03  0.9697E-03
     -2.622  0.1013E-02  0.1000E-02  0.9598E-03  0.9874E-03
     -2.604  0.1014E-02  0.9948E-03  0.9778E-03  0.1005E-02
     -2.586  0.1011E-02  0.9862E-03  0.9957E-03  0.1023E-02
     -2.569  0.1004E-02  0.9751E-03  0.1014E-02  0.1040E-02
     -2.551  0.9947E-03  0.9627E-03  0.1031E-02  0.1057E-02
     -2.533  0.9833E-03  0.9503E-03  0.1049E-02  0.1074E-02
     -2.515  0.9714E-03  0.9396E-03  0.1066E-02  0.1090E-02
     -2.498  0.9603E-03  0.9321E-03  0.1083E-02  0.1107E-02
     -2.480  0.9518E-03  0.9291E-03  0.1100E-02  0.1123E-02
     -2.462  0.9472E-03  0.9318E-03  0.1117E-02  0.1140E-02
     -2.445  0.9478E-03  0.9410E-03  0.1133E-02  0.1157E-02
     -2.427  0.9545E-03  0.9568E-03  0.1150E-02  0.1174E-02
     -2.409  0.9678E-03  0.9790E-03  0.1167E-02  0.1191E-02
     -2.391  0.9876E-03  0.1007E-02  0.1185E-02  0.1209E-02
     -2.374  0.1013E-02  0.1039E-02  0.1203E-02  0.1227E-02
     -2.356  0.1044E-02  0.1073E-02  0.1221E-02  0.1246E-02
     -2.338  0.1078E-02  0.1109E-02  0.1241E-02  0.1266E-02
     -2.320  0.1113E-02  0.1143E-02  0.1260E-02  0.1286E-02
     -2.303  0.1148E-02  0.1174E-02  0.1281E-02  0.1307E-02
     -2.285  0.1181E-02  0.1200E-02  0.1302E-02  0.1328E-02
     -2.267  0.1210E-02  0.1220E-02  0.1323E-02  0.1350E-02
     -2.249  0.1233E-02  0.1232E-02  0.1345E-02  0.1372E-02
     -2.232  0.1249E-02  0.1238E-02  0.1367E-02  0.1394E-02
     -2.214  0.1258E-02  0.1236E-02  0.1389E-02  0.1416E-02
     -2.196  0.1259E-02  0.1228E-02  0.1412E-02  0.1437E-02
     -2.179  0.1254E-02  0.1215E-02  0.1434E-02  0.1459E-02
     -2.161  0.1243E-02  0.1197E-02  0.1456E-02  0.1480E-02
     -2.143  0.1228E-02  0.1178E-02  0.1478E-02  0.1501E-02
     -2.125  0.1210E-02  0.1157E-02  0.1499E-02  0.1522E-02
     -2.108  0.1191E-02  0.1139E-02  0.1520E-02  0.1542E-02
     -2.090  0.1172E-02  0.1122E-02  0.1541E-02  0.1562E-02
     -2.072  0.1156E-02  0.1110E-02  0.1562E-02  0.1581E-02
     -2.054  0.1144E-02  0.1103E-02  0.1582E-02  0.1601E-02
     -2.037  0.1137E-02  0.1102E-02  0.1602E-02  0.1620E-02
     -2.019  0.1135E-02  0.1106E-02  0.1622E-02  0.1640E-02
     -2.001  0.1140E-02  0.1117E-02  0.1642E-02  0.1660E-02
     -1.984  0.1151E-02  0.1133E-02  0.1663E-02  0.1680E-02
     -1.966  0.1168E-02  0.1155E-02  0.1683E-02  0.1700E-02
     -1.948  0.1191E-02  0.1180E-02  0.1705E-02  0.1721E-02
     -1.930  0.1218E-02  0.1210E-02  0.1726E-02  0.1743E-02
     -1.913  0.1248E-02  0.1241E-02  0.1748E-02  0.1765E-02
     -1.895  0.1281E-02  0.1273E-02  0.1771E-02  0.1787E-02
     -1.877  0.1314E-02  0.1305E-02  0.1794E-02  0.1810E-02
     -1.859  0.1346E-02  0.1334E-02  0.1818E-02  0.1834E-02
     -1.842  0.1376E-02  0.1361E-02  0.1843E-02  0.1858E-02
     -1.824  0.1402E-02  0.1382E-02  0.1867E-02  0.1883E-02
     -1.806  0.1423E-02  0.1399E-02  0.1893E-02  0.1908E-02
     -1.789  0.1439E-02  0.1410E-02  0.1918E-02  0.1933E-02
     -1.771  0.1449E-02  0.1416E-02  0.1944E-02  0.1958E-02
     -1.753  0.1455E-02  0.1416E-02  0.1970E-02  0.1983E-02
     -1.735  0.1456E-02  0.1412E-02  0.1995E-02  0.2008E-02
     -1.718  0.1453E-02  0.1405E-02  0.2021E-02  0.2033E-02
     -1.700  0.1449E-02  0.1398E-02  0.2047E-02  0.2057E-02
     -1.682  0.1445E-02  0.1390E-02  0.2073E-02  0.2082E-02
     -1.664  0.1443E-02  0.1385E-02  0.2098E-02  0.2107E-02
     -1.647  0.1443E-02  0.1383E-02  0.2124E-02  0.2131E-02
     -1.629  0.1446E-02  0.1385E-02  0.2149E-02  0.2156E-02
     -1.611  0.1453E-02  0.1392E-02  0.2175E-02  0.2180E-02
     -1.593  0.1464E-02  0.1402E-02  0.2201E-02  0.2205E-02
     -1.576  0.1477E-02  0.1415E-02  0.2227E-02  0.2230E-02
     -1.558  0.1492E-02  0.1429E-02  0.2254E-02  0.2256E-02
     -1.540  0.1506E-02  0.1444E-02  0.2280E-02  0.2281E-02
     -1.523  0.1520E-02  0.1457E-02  0.2307E-02  0.2307E-02
     -1.505  0.1531E-02  0.1467E-02  0.2335E-02  0.2333E-02
     -1.487  0.1539E-02  0.1474E-02  0.2362E-02  0.2359E-02
     -1.469  0.1544E-02  0.1478E-02  0.2389E-02  0.2386E-02
     -1.452  0.1547E-02  0.1479E-02  0.2417E-02  0.2412E-02
     -1.434  0.1548E-02  0.1478E-02  0.2444E-02  0.2438E-02
     -1.416  0.1549E-02  0.1476E-02  0.2472E-02  0.2464E-02
     -1.398  0.1551E-02  0.1475E-02  0.2499E-02  0.2490E-02
     -1.381  0.1556E-02  0.1476E-02  0.2527E-02  0.2516E-02
     -1.363  0.1564E-02  0.1480E-02  0.2554E-02  0.2543E-02
     -1.345  0.1578E-02  0.1490E-02  0.2582E-02  0.2569E-02
     -1.328  0.1597E-02  0.1504E-02  0.2611E-02  0.2596E-02
     -1.310  0.1621E-02  0.1524E-02  0.2639E-02  0.2623E-02
     -1.292  0.1650E-02  0.1548E-02  0.2669E-02  0.2650E-02
     -1.274  0.1683E-02  0.1577E-02  0.2698E-02  0.2678E-02
     -1.257  0.1719E-02  0.1610E-02  0.2729E-02  0.2707E-02
     -1.239  0.1757E-02  0.1644E-02  0.2760E-02  0.2736E-02
     -1.221  0.1796E-02  0.1680E-02  0.2792E-02  0.2766E-02
     -1.203  0.1833E-02  0.1715E-02  0.2824E-02  0.2796E-02
     -1.186  0.1868E-02  0.1749E-02  0.2858E-02  0.2827E-02
     -1.168  0.1900E-02  0.1779E-02  0.2891E-02  0.2859E-02
     -1.150  0.1926E-02  0.1805E-02  0.2925E-02  0.2891E-02
     -1.132  0.1947E-02  0.1826E-02  0.2960E-02  0.2923E-02
     -1.115  0.1961E-02  0.1840E-02  0.2995E-02  0.2956E-02
     -1.097  0.1968E-02  0.1847E-02  0.3030E-02  0.2988E-02
     -1.079  0.1968E-02  0.1848E-02  0.3065E-02  0.3021E-02
     -1.062  0.1962E-02  0.1841E-02  0.3099E-02  0.3054E-02
     -1.044  0.1951E-02  0.1827E-02  0.3134E-02  0.3086E-02
     -1.026  0.1936E-02  0.1809E-02  0.3168E-02  0.3118E-02
     -1.008  0.1919E-02  0.1787E-02  0.3202E-02  0.3150E-02
     -0.991  0.1903E-02  0.1763E-02  0.3236E-02  0.3181E-02
     -0.973  0.1890E-02  0.1740E-02  0.3269E-02  0.3212E-02
     -0.955  0.1884E-02  0.1721E-02  0.3303E-02  0.3243E-02
     -0.937  0.1885E-02  0.1707E-02  0.3336E-02  0.3273E-02
     -0.920  0.1898E-02  0.1701E-02  0.3370E-02  0.3303E-02
     -0.902  0.1921E-02  0.1705E-02  0.3404E-02  0.3333E-02
     -0.884  0.1957E-02  0.1720E-02  0.3439E-02  0.3364E-02
     -0.867  0.2004E-02  0.1745E-02  0.3474E-02  0.3395E-02
     -0.849  0.2061E-02  0.1781E-02  0.3511E-02  0.3426E-02
     -0.831  0.2125E-02  0.1827E-02  0.3548E-02  0.3459E-02
     -0.813  0.2194E-02  0.1880E-02  0.3587E-02  0.3492E-02
     -0.796  0.2263E-02  0.1939E-02  0.3627E-02  0.3526E-02
     -0.778  0.2331E-02  0.2000E-02  0.3669E-02  0.3562E-02
     -0.760  0.2392E-02  0.2060E-02  0.3711E-02  0.3598E-02
     -0.742  0.2446E-02  0.2118E-02  0.3755E-02  0.3636E-02
     -0.725  0.2489E-02  0.2169E-02  0.3799E-02  0.3674E-02
     -0.707  0.2520E-02  0.2213E-02  0.3843E-02  0.3714E-02
     -0.689  0.2540E-02  0.2248E-02  0.3888E-02  0.3753E-02
     -0.671  0.2550E-02  0.2272E-02  0.3934E-02  0.3794E-02
     -0.654  0.2550E-02  0.2285E-02  0.3979E-02  0.3834E-02
     -0.636  0.2544E-02  0.2288E-02  0.4024E-02  0.3875E-02
     -0.618  0.2535E-02  0.2282E-02  0.4069E-02  0.3915E-02
     -0.601  0.2526E-02  0.2268E-02  0.4114E-02  0.3955E-02
     -0.583  0.2521E-02  0.2248E-02  0.4158E-02  0.3995E-02
     -0.565  0.2524E-02  0.2225E-02  0.4203E-02  0.4035E-02
     -0.547  0.2537E-02  0.2202E-02  0.4248E-02  0.4074E-02
     -0.530  0.2563E-02  0.2181E-02  0.4294E-02  0.4113E-02
     -0.512  0.2603E-02  0.2165E-02  0.4340E-02  0.4151E-02
     -0.494  0.2657E-02  0.2157E-02  0.4387E-02  0.4189E-02
     -0.476  0.2724E-02  0.2160E-02  0.4435E-02  0.4227E-02
     -0.459  0.2804E-02  0.2175E-02  0.4485E-02  0.4266E-02
     -0.441  0.2892E-02  0.2202E-02  0.4536E-02  0.4305E-02
     -0.423  0.2986E-02  0.2243E-02  0.4589E-02  0.4345E-02
     -0.406  0.3082E-02  0.2296E-02  0.4644E-02  0.4386E-02
     -0.388  0.3175E-02  0.2359E-02  0.4700E-02  0.4427E-02
     -0.370  0.3264E-02  0.2430E-02  0.4758E-02  0.4470E-02
     -0.352  0.3346E-02  0.2506E-02  0.4817E-02  0.4515E-02
     -0.335  0.3422E-02  0.2582E-02  0.4878E-02  0.4561E-02
     -0.317  0.3490E-02  0.2655E-02  0.4940E-02  0.4608E-02
     -0.299  0.3556E-02  0.2722E-02  0.5003E-02  0.4656E-02
     -0.281  0.3621E-02  0.2779E-02  0.5067E-02  0.4705E-02
     -0.264  0.3691E-02  0.2824E-02  0.5132E-02  0.4755E-02
     -0.246  0.3771E-02  0.2857E-02  0.5199E-02  0.4806E-02
     -0.228  0.3866E-02  0.2877E-02  0.5268E-02  0.4857E-02
     -0.211  0.3979E-02  0.2885E-02  0.5338E-02  0.4908E-02
     -0.193  0.4115E-02  0.2885E-02  0.5411E-02  0.4959E-02
     -0.175  0.4274E-02  0.2880E-02  0.5487E-02  0.5010E-02
     -0.157  0.4456E-02  0.2872E-02  0.5566E-02  0.5061E-02
     -0.140  0.4660E-02  0.2867E-02  0.5649E-02  0.5112E-02
     -0.122  0.4883E-02  0.2868E-02  0.5735E-02  0.5163E-02
     -0.104  0.5122E-02  0.2879E-02  0.5826E-02  0.5214E-02
     -0.086  0.5372E-02  0.2902E-02  0.5921E-02  0.5265E-02
     -0.069  0.5630E-02  0.2940E-02  0.6021E-02  0.5318E-02
     -0.051  0.5893E-02  0.2993E-02  0.6126E-02  0.5371E-02
     -0.033  0.6159E-02  0.3060E-02  0.6235E-02  0.5425E-02
     -0.015  0.6426E-02  0.3140E-02  0.6349E-02  0.5481E-02
      0.002  0.6695E-02  0.3231E-02  0.6468E-02  0.5538E-02
      0.020  0.6966E-02  0.3329E-02  0.6591E-02  0.5597E-02
      0.038  0.7240E-02  0.3430E-02  0.6719E-02  0.5658E-02
      0.055  0.7520E-02  0.3531E-02  0.6853E-02  0.5720E-02
      0.073  0.7806E-02  0.3628E-02  0.6991E-02  0.5785E-02
      0.091  0.8098E-02  0.3719E-02  0.7135E-02  0.5851E-02
      0.109  0.8396E-02  0.3803E-02  0.7284E-02  0.5918E-02
      0.126  0.8697E-02  0.3880E-02  0.7438E-02  0.5987E-02
      0.144  0.8999E-02  0.3952E-02  0.7597E-02  0.6057E-02
      0.162  0.9297E-02  0.4021E-02  0.7762E-02  0.6128E-02
      0.180  0.9585E-02  0.4094E-02  0.7932E-02  0.6201E-02
      0.197  0.9858E-02  0.4175E-02  0.8107E-02  0.6275E-02
      0.215  0.1011E-01  0.4270E-02  0.8286E-02  0.6350E-02
      0.233  0.1034E-01  0.4386E-02  0.8470E-02  0.6428E-02
      0.250  0.1054E-01  0.4529E-02  0.8656E-02  0.6509E-02
      0.268  0.1071E-01  0.4701E-02  0.8846E-02  0.6592E-02
      0.286  0.1085E-01  0.4907E-02  0.9039E-02  0.6679E-02
      0.304  0.1096E-01  0.5146E-02  0.9233E-02  0.6770E-02
      0.321  0.1105E-01  0.5416E-02  0.9429E-02  0.6866E-02
      0.339  0.1112E-01  0.5715E-02  0.9626E-02  0.6968E-02
      0.357  0.1118E-01  0.6035E-02  0.9824E-02  0.7075E-02
      0.375  0.1123E-01  0.6372E-02  0.1002E-01  0.7187E-02
      0.392  0.1128E-01  0.6716E-02  0.1022E-01  0.7307E-02
      0.410  0.1134E-01  0.7060E-02  0.1042E-01  0.7432E-02
      0.428  0.1142E-01  0.7396E-02  0.1063E-01  0.7563E-02
      0.446  0.1152E-01  0.7719E-02  0.1083E-01  0.7700E-02
      0.463  0.1165E-01  0.8022E-02  0.1104E-01  0.7842E-02
      0.481  0.1181E-01  0.8301E-02  0.1125E-01  0.7989E-02
      0.499  0.1200E-01  0.8556E-02  0.1146E-01  0.8141E-02
      0.516  0.1222E-01  0.8784E-02  0.1168E-01  0.8297E-02
      0.534  0.1248E-01  0.8985E-02  0.1190E-01  0.8456E-02
      0.552  0.1278E-01  0.9162E-02  0.1212E-01  0.8618E-02
      0.570  0.1310E-01  0.9315E-02  0.1236E-01  0.8783E-02
      0.587  0.1345E-01  0.9447E-02  0.1260E-01  0.8951E-02
      0.605  0.1382E-01  0.9559E-02  0.1284E-01  0.9120E-02
      0.623  0.1421E-01  0.9653E-02  0.1309E-01  0.9292E-02
      0.641  0.1461E-01  0.9732E-02  0.1335E-01  0.9464E-02
      0.658  0.1502E-01  0.9797E-02  0.1362E-01  0.9638E-02
      0.676  0.1543E-01  0.9850E-02  0.1389E-01  0.9813E-02
      0.694  0.1583E-01  0.9892E-02  0.1417E-01  0.9988E-02
      0.711  0.1623E-01  0.9925E-02  0.1446E-01  0.1016E-01
      0.729  0.1662E-01  0.9950E-02  0.1475E-01  0.1034E-01
      0.747  0.1700E-01  0.9969E-02  0.1506E-01  0.1052E-01
      0.765  0.1737E-01  0.9982E-02  0.1536E-01  0.1069E-01
      0.782  0.1772E-01  0.9992E-02  0.1568E-01  0.1087E-01
      0.800  0.1805E-01  0.9998E-02  0.1600E-01  0.1105E-01
      0.818  0.1838E-01  0.1000E-01  0.1632E-01  0.1123E-01
      0.836  0.1868E-01  0.1000E-01  0.1666E-01  0.1140E-01
      0.853  0.1898E-01  0.1000E-01  0.1699E-01  0.1158E-01
      0.871  0.1926E-01  0.1000E-01  0.1733E-01  0.1176E-01
      0.889  0.1952E-01  0.1000E-01  0.1768E-01  0.1194E-01
      0.907  0.1977E-01  0.1000E-01  0.1803E-01  0.1211E-01
      0.924  0.1999E-01  0.1000E-01  0.1838E-01  0.1229E-01
      0.942  0.2019E-01  0.1001E-01  0.1874E-01  0.1247E-01
      0.960  0.2036E-01  0.1001E-01  0.1910E-01  0.1264E-01
      0.977  0.2049E-01  0.1003E-01  0.1947E-01  0.1282E-01
      0.995  0.2058E-01  0.1005E-01  0.1983E-01  0.1300E-01
      1.013  0.2063E-01  0.1009E-01  0.2020E-01  0.1318E-01
      1.031  0.2063E-01  0.1013E-01  0.2056E-01  0.1336E-01
      1.048  0.2057E-01  0.1020E-01  0.2093E-01  0.1354E-01
      1.066  0.2047E-01  0.1029E-01  0.2129E-01  0.1372E-01
      1.084  0.2031E-01  0.1040E-01  0.2165E-01  0.1391E-01
      1.102  0.2012E-01  0.1053E-01  0.2201E-01  0.1409E-01
      1.119  0.1988E-01  0.1070E-01  0.2236E-01  0.1428E-01
      1.137  0.1961E-01  0.1090E-01  0.2271E-01  0.1448E-01
      1.155  0.1932E-01  0.1114E-01  0.2305E-01  0.1467E-01
      1.172  0.1901E-01  0.1141E-01  0.2339E-01  0.1488E-01
      1.190  0.1871E-01  0.1172E-01  0.2372E-01  0.1508E-01
      1.208  0.1841E-01  0.1207E-01  0.2405E-01  0.1530E-01
      1.226  0.1813E-01  0.1245E-01  0.2437E-01  0.1552E-01
      1.243  0.1787E-01  0.1286E-01  0.2468E-01  0.1575E-01
      1.261  0.1763E-01  0.1328E-01  0.2500E-01  0.1598E-01
      1.279  0.1743E-01  0.1373E-01  0.2531E-01  0.1623E-01
      1.297  0.1725E-01  0.1418E-01  0.2561E-01  0.1648E-01
      1.314  0.1711E-01  0.1462E-01  0.2591E-01  0.1674E-01
      1.332  0.1699E-01  0.1506E-01  0.2622E-01  0.1700E-01
      1.350  0.1689E-01  0.1548E-01  0.2652E-01  0.1728E-01
      1.368  0.1682E-01  0.1587E-01  0.2681E-01  0.1756E-01
      1.385  0.1676E-01  0.1623E-01  0.2711E-01  0.1785E-01
      1.403  0.1671E-01  0.1656E-01  0.2741E-01  0.1814E-01
      1.421  0.1666E-01  0.1684E-01  0.2770E-01  0.1844E-01
      1.438  0.1663E-01  0.1709E-01  0.2800E-01  0.1874E-01
      1.456  0.1660E-01  0.1729E-01  0.2829E-01  0.1905E-01
      1.474  0.1658E-01  0.1745E-01  0.2859E-01  0.1936E-01
      1.492  0.1658E-01  0.1757E-01  0.2888E-01  0.1967E-01
      1.509  0.1660E-01  0.1766E-01  0.2917E-01  0.1998E-01
      1.527  0.1664E-01  0.1771E-01  0.2947E-01  0.2030E-01
      1.545  0.1672E-01  0.1773E-01  0.2977E-01  0.2061E-01
      1.563  0.1684E-01  0.1773E-01  0.3006E-01  0.2093E-01
      1.580  0.1699E-01  0.1770E-01  0.3036E-01  0.2124E-01
      1.598  0.1719E-01  0.1765E-01  0.3067E-01  0.2155E-01
      1.616  0.1744E-01  0.1759E-01  0.3098E-01  0.2186E-01
      1.633  0.1772E-01  0.1752E-01  0.3129E-01  0.2218E-01
      1.651  0.1805E-01  0.1745E-01  0.3161E-01  0.2248E-01
      1.669  0.1841E-01  0.1737E-01  0.3194E-01  0.2279E-01
      1.687  0.1880E-01  0.1729E-01  0.3227E-01  0.2310E-01
      1.704  0.1920E-01  0.1722E-01  0.3261E-01  0.2340E-01
      1.722  0.1962E-01  0.1715E-01  0.3296E-01  0.2371E-01
      1.740  0.2005E-01  0.1709E-01  0.3332E-01  0.2401E-01
      1.758  0.2048E-01  0.1704E-01  0.3368E-01  0.2431E-01
      1.775  0.2090E-01  0.1700E-01  0.3405E-01  0.2461E-01
      1.793  0.2131E-01  0.1696E-01  0.3443E-01  0.2492E-01
      1.811  0.2171E-01  0.1694E-01  0.3481E-01  0.2522E-01
      1.828  0.2208E-01  0.1692E-01  0.3520E-01  0.2552E-01
      1.846  0.2243E-01  0.1690E-01  0.3560E-01  0.2582E-01
      1.864  0.2275E-01  0.1687E-01  0.3601E-01  0.2611E-01
      1.882  0.2304E-01  0.1685E-01  0.3641E-01  0.2641E-01
      1.899  0.2329E-01  0.1681E-01  0.3683E-01  0.2671E-01
      1.917  0.2351E-01  0.1676E-01  0.3724E-01  0.2701E-01
      1.935  0.2369E-01  0.1670E-01  0.3766E-01  0.2730E-01
      1.953  0.2384E-01  0.1662E-01  0.3809E-01  0.2760E-01
      1.970  0.2396E-01  0.1653E-01  0.3851E-01  0.2789E-01
      1.988  0.2407E-01  0.1642E-01  0.3894E-01  0.2818E-01
      2.006  0.2417E-01  0.1629E-01  0.3937E-01  0.2847E-01
      2.024  0.2428E-01  0.1615E-01  0.3980E-01  0.2876E-01
      2.041  0.2440E-01  0.1600E-01  0.4023E-01  0.2904E-01
      2.059  0.2454E-01  0.1586E-01  0.4067E-01  0.2932E-01
      2.077  0.2472E-01  0.1572E-01  0.4110E-01  0.2960E-01
      2.094  0.2494E-01  0.1559E-01  0.4155E-01  0.2988E-01
      2.112  0.2520E-01  0.1548E-01  0.4199E-01  0.3015E-01
      2.130  0.2550E-01  0.1541E-01  0.4245E-01  0.3043E-01
      2.148  0.2585E-01  0.1539E-01  0.4290E-01  0.3070E-01
      2.165  0.2622E-01  0.1541E-01  0.4337E-01  0.3097E-01
      2.183  0.2663E-01  0.1549E-01  0.4384E-01  0.3125E-01
      2.201  0.2706E-01  0.1562E-01  0.4432E-01  0.3152E-01
      2.219  0.2751E-01  0.1582E-01  0.4481E-01  0.3180E-01
      2.236  0.2797E-01  0.1607E-01  0.4530E-01  0.3209E-01
      2.254  0.2845E-01  0.1638E-01  0.4581E-01  0.3238E-01
      2.272  0.2893E-01  0.1673E-01  0.4632E-01  0.3268E-01
      2.289  0.2944E-01  0.1712E-01  0.4684E-01  0.3298E-01
      2.307  0.2996E-01  0.1755E-01  0.4737E-01  0.3329E-01
      2.325  0.3050E-01  0.1799E-01  0.4792E-01  0.3361E-01
      2.343  0.3106E-01  0.1845E-01  0.4847E-01  0.3394E-01
      2.360  0.3164E-01  0.1891E-01  0.4903E-01  0.3427E-01
      2.378  0.3223E-01  0.1937E-01  0.4960E-01  0.3462E-01
      2.396  0.3282E-01  0.1982E-01  0.5018E-01  0.3497E-01
      2.414  0.3341E-01  0.2026E-01  0.5077E-01  0.3533E-01
      2.431  0.3396E-01  0.2067E-01  0.5137E-01  0.3569E-01
      2.449  0.3445E-01  0.2107E-01  0.5199E-01  0.3607E-01
      2.467  0.3486E-01  0.2144E-01  0.5260E-01  0.3645E-01
      2.485  0.3516E-01  0.2178E-01  0.5323E-01  0.3683E-01
      2.502  0.3532E-01  0.2209E-01  0.5385E-01  0.3722E-01
      2.520  0.3532E-01  0.2237E-01  0.5448E-01  0.3762E-01
      2.538  0.3515E-01  0.2263E-01  0.5510E-01  0.3802E-01
      2.555  0.3480E-01  0.2285E-01  0.5572E-01  0.3843E-01
      2.573  0.3427E-01  0.2306E-01  0.5633E-01  0.3884E-01
      2.591  0.3357E-01  0.2324E-01  0.5692E-01  0.3925E-01
      2.609  0.3273E-01  0.2342E-01  0.5750E-01  0.3966E-01
      2.626  0.3176E-01  0.2360E-01  0.5807E-01  0.4008E-01
      2.644  0.3070E-01  0.2379E-01  0.5861E-01  0.4050E-01
      2.662  0.2958E-01  0.2399E-01  0.5913E-01  0.4093E-01
      2.680  0.2843E-01  0.2422E-01  0.5964E-01  0.4136E-01
      2.697  0.2729E-01  0.2448E-01  0.6012E-01  0.4179E-01
      2.715  0.2618E-01  0.2477E-01  0.6059E-01  0.4223E-01
      2.733  0.2512E-01  0.2509E-01  0.6103E-01  0.4268E-01
      2.750  0.2413E-01  0.2544E-01  0.6146E-01  0.4313E-01
      2.768  0.2322E-01  0.2580E-01  0.6187E-01  0.4359E-01
      2.786  0.2240E-01  0.2617E-01  0.6227E-01  0.4405E-01
      2.804  0.2166E-01  0.2653E-01  0.6265E-01  0.4452E-01
      2.821  0.2100E-01  0.2688E-01  0.6302E-01  0.4500E-01
      2.839  0.2043E-01  0.2719E-01  0.6339E-01  0.4548E-01
      2.857  0.1994E-01  0.2745E-01  0.6374E-01  0.4597E-01
      2.875  0.1952E-01  0.2767E-01  0.6409E-01  0.4646E-01
      2.892  0.1918E-01  0.2783E-01  0.6443E-01  0.4695E-01
      2.910  0.1890E-01  0.2793E-01  0.6476E-01  0.4744E-01
      2.928  0.1870E-01  0.2799E-01  0.6509E-01  0.4794E-01
      2.946  0.1857E-01  0.2800E-01  0.6542E-01  0.4844E-01
      2.963  0.1852E-01  0.2800E-01  0.6575E-01  0.4893E-01
      2.981  0.1855E-01  0.2798E-01  0.6608E-01  0.4943E-01
      2.999  0.1866E-01  0.2798E-01  0.6641E-01  0.4993E-01
      3.016  0.1885E-01  0.2800E-01  0.6674E-01  0.5042E-01
      3.034  0.1913E-01  0.2807E-01  0.6708E-01  0.5092E-01
      3.052  0.1949E-01  0.2819E-01  0.6743E-01  0.5142E-01
      3.070  0.1993E-01  0.2838E-01  0.6778E-01  0.5192E-01
      3.087  0.2044E-01  0.2862E-01  0.6815E-01  0.5243E-01
      3.105  0.2101E-01  0.2893E-01  0.6852E-01  0.5294E-01
      3.123  0.2164E-01  0.2928E-01  0.6890E-01  0.5346E-01
      3.141  0.2231E-01  0.2966E-01  0.6930E-01  0.5399E-01
      3.158  0.2300E-01  0.3004E-01  0.6971E-01  0.5452E-01
      3.176  0.2371E-01  0.3039E-01  0.7013E-01  0.5506E-01
      3.194  0.2441E-01  0.3070E-01  0.7056E-01  0.5560E-01
      3.211  0.2510E-01  0.3092E-01  0.7100E-01  0.5615E-01
      3.229  0.2576E-01  0.3104E-01  0.7146E-01  0.5670E-01
      3.247  0.2638E-01  0.3105E-01  0.7193E-01  0.5725E-01
      3.265  0.2695E-01  0.3091E-01  0.7241E-01  0.5780E-01
      3.282  0.2747E-01  0.3064E-01  0.7289E-01  0.5834E-01
      3.300  0.2792E-01  0.3022E-01  0.7339E-01  0.5888E-01
      3.318  0.2831E-01  0.2968E-01  0.7389E-01  0.5941E-01
      3.336  0.2864E-01  0.2902E-01  0.7440E-01  0.5992E-01
      3.353  0.2889E-01  0.2826E-01  0.7491E-01  0.6042E-01
      3.371  0.2908E-01  0.2744E-01  0.7543E-01  0.6091E-01
      3.389  0.2920E-01  0.2657E-01  0.7594E-01  0.6138E-01
      3.406  0.2925E-01  0.2568E-01  0.7646E-01  0.6183E-01
      3.424  0.2924E-01  0.2481E-01  0.7698E-01  0.6227E-01
      3.442  0.2917E-01  0.2396E-01  0.7750E-01  0.6270E-01
      3.460  0.2904E-01  0.2316E-01  0.7801E-01  0.6311E-01
      3.477  0.2886E-01  0.2243E-01  0.7852E-01  0.6351E-01
      3.495  0.2864E-01  0.2177E-01  0.7903E-01  0.6389E-01
      3.513  0.2838E-01  0.2121E-01  0.7954E-01  0.6427E-01
      3.531  0.2808E-01  0.2074E-01  0.8003E-01  0.6464E-01
      3.548  0.2777E-01  0.2036E-01  0.8053E-01  0.6500E-01
      3.566  0.2745E-01  0.2010E-01  0.8101E-01  0.6535E-01
      3.584  0.2712E-01  0.1993E-01  0.8149E-01  0.6571E-01
      3.602  0.2681E-01  0.1986E-01  0.8197E-01  0.6606E-01
      3.619  0.2652E-01  0.1990E-01  0.8244E-01  0.6641E-01
      3.637  0.2626E-01  0.2003E-01  0.8290E-01  0.6677E-01
      3.655  0.2604E-01  0.2025E-01  0.8337E-01  0.6713E-01
      3.672  0.2588E-01  0.2055E-01  0.8382E-01  0.6749E-01
      3.690  0.2577E-01  0.2093E-01  0.8428E-01  0.6786E-01
      3.708  0.2574E-01  0.2137E-01  0.8474E-01  0.6824E-01
      3.726  0.2579E-01  0.2187E-01  0.8520E-01  0.6863E-01
      3.743  0.2594E-01  0.2241E-01  0.8566E-01  0.6903E-01
      3.761  0.2618E-01  0.2298E-01  0.8612E-01  0.6943E-01
      3.779  0.2654E-01  0.2356E-01  0.8659E-01  0.6985E-01
      3.797  0.2703E-01  0.2413E-01  0.8707E-01  0.7028E-01
      3.814  0.2766E-01  0.2470E-01  0.8756E-01  0.7072E-01
      3.832  0.2844E-01  0.2523E-01  0.8806E-01  0.7116E-01
      3.850  0.2937E-01  0.2573E-01  0.8858E-01  0.7162E-01
      3.867  0.3047E-01  0.2617E-01  0.8912E-01  0.7208E-01
      3.885  0.3172E-01  0.2655E-01  0.8969E-01  0.7256E-01
      3.903  0.3312E-01  0.2686E-01  0.9027E-01  0.7303E-01
      3.921  0.3464E-01  0.2709E-01  0.9089E-01  0.7351E-01
      3.938  0.3626E-01  0.2725E-01  0.9153E-01  0.7399E-01
      3.956  0.3792E-01  0.2733E-01  0.9220E-01  0.7448E-01
      3.974  0.3957E-01  0.2732E-01  0.9291E-01  0.7496E-01
      3.992  0.4114E-01  0.2724E-01  0.9364E-01  0.7545E-01
      4.009  0.4256E-01  0.2709E-01  0.9439E-01  0.7593E-01
      4.027  0.4374E-01  0.2688E-01  0.9517E-01  0.7640E-01
      4.045  0.4460E-01  0.2660E-01  0.9596E-01  0.7688E-01
      4.063  0.4507E-01  0.2628E-01  0.9675E-01  0.7734E-01
      4.080  0.4510E-01  0.2593E-01  0.9755E-01  0.7780E-01
      4.098  0.4462E-01  0.2554E-01  0.9835E-01  0.7825E-01
      4.116  0.4363E-01  0.2515E-01  0.9912E-01  0.7870E-01
      4.133  0.4212E-01  0.2475E-01  0.9987E-01  0.7914E-01
      4.151  0.4012E-01  0.2435E-01  0.1006E+00  0.7957E-01
      4.169  0.3768E-01  0.2397E-01  0.1012E+00  0.8000E-01
      4.187  0.3488E-01  0.2360E-01  0.1019E+00  0.8041E-01
      4.204  0.3179E-01  0.2326E-01  0.1024E+00  0.8083E-01
      4.222  0.2852E-01  0.2295E-01  0.1029E+00  0.8123E-01
      4.240  0.2519E-01  0.2267E-01  0.1034E+00  0.8164E-01
      4.258  0.2188E-01  0.2242E-01  0.1038E+00  0.8203E-01
      4.275  0.1869E-01  0.2220E-01  0.1041E+00  0.8243E-01
      4.293  0.1572E-01  0.2202E-01  0.1044E+00  0.8282E-01
      4.311  0.1301E-01  0.2187E-01  0.1046E+00  0.8320E-01
      4.328  0.1061E-01  0.2174E-01  0.1048E+00  0.8359E-01
      4.346  0.8543E-02  0.2165E-01  0.1049E+00  0.8397E-01
      4.364  0.6821E-02  0.2159E-01  0.1051E+00  0.8436E-01
      4.382  0.5428E-02  0.2155E-01  0.1052E+00  0.8474E-01
      4.399  0.4343E-02  0.2155E-01  0.1052E+00  0.8512E-01
      4.417  0.3532E-02  0.2158E-01  0.1053E+00  0.8550E-01
      4.435  0.2960E-02  0.2164E-01  0.1054E+00  0.8589E-01
      4.453  0.2588E-02  0.2173E-01  0.1054E+00  0.8627E-01
      4.470  0.2378E-02  0.2185E-01  0.1054E+00  0.8666E-01
      4.488  0.2296E-02  0.2202E-01  0.1055E+00  0.8705E-01
      4.506  0.2309E-02  0.2223E-01  0.1055E+00  0.8744E-01
      4.524  0.2392E-02  0.2249E-01  0.1056E+00  0.8784E-01
      4.541  0.2522E-02  0.2281E-01  0.1056E+00  0.8825E-01
      4.559  0.2679E-02  0.2319E-01  0.1057E+00  0.8866E-01
      4.577  0.2846E-02  0.2366E-01  0.1057E+00  0.8908E-01
      4.594  0.3011E-02  0.2423E-01  0.1058E+00  0.8951E-01
      4.612  0.3162E-02  0.2489E-01  0.1058E+00  0.8995E-01
      4.630  0.3291E-02  0.2566E-01  0.1059E+00  0.9040E-01
      4.648  0.3390E-02  0.2654E-01  0.1059E+00  0.9087E-01
      4.665  0.3458E-02  0.2753E-01  0.1060E+00  0.9136E-01
      4.683  0.3493E-02  0.2862E-01  0.1061E+00  0.9187E-01
      4.701  0.3495E-02  0.2978E-01  0.1061E+00  0.9240E-01
      4.719  0.3471E-02  0.3100E-01  0.1062E+00  0.9295E-01
      4.736  0.3426E-02  0.3224E-01  0.1062E+00  0.9352E-01
      4.754  0.3366E-02  0.3345E-01  0.1063E+00  0.9411E-01
      4.772  0.3301E-02  0.3460E-01  0.1064E+00  0.9473E-01
      4.789  0.3238E-02  0.3562E-01  0.1064E+00  0.9536E-01
      4.807  0.3184E-02  0.3647E-01  0.1065E+00  0.9600E-01
      4.825  0.3143E-02  0.3710E-01  0.1065E+00  0.9666E-01
      4.843  0.3118E-02  0.3748E-01  0.1066E+00  0.9733E-01
      4.860  0.3110E-02  0.3756E-01  0.1066E+00  0.9799E-01
      4.878  0.3118E-02  0.3734E-01  0.1067E+00  0.9865E-01
      4.896  0.3138E-02  0.3679E-01  0.1068E+00  0.9931E-01
      4.914  0.3166E-02  0.3592E-01  0.1068E+00  0.9994E-01
      4.931  0.3197E-02  0.3476E-01  0.1069E+00  0.1006E+00
      4.949  0.3228E-02  0.3332E-01  0.1069E+00  0.1012E+00
      4.967  0.3254E-02  0.3164E-01  0.1070E+00  0.1017E+00
      4.985  0.3272E-02  0.2976E-01  0.1070E+00  0.1022E+00
      5.002  0.3283E-02  0.2772E-01  0.1071E+00  0.1027E+00
      5.020  0.3285E-02  0.2557E-01  0.1072E+00  0.1032E+00
      5.038  0.3280E-02  0.2336E-01  0.1072E+00  0.1036E+00
      5.055  0.3270E-02  0.2113E-01  0.1073E+00  0.1040E+00
      5.073  0.3258E-02  0.1893E-01  0.1073E+00  0.1043E+00
      5.091  0.3247E-02  0.1680E-01  0.1074E+00  0.1046E+00
      5.109  0.3237E-02  0.1477E-01  0.1074E+00  0.1049E+00
      5.126  0.3231E-02  0.1287E-01  0.1075E+00  0.1051E+00
      5.144  0.3230E-02  0.1113E-01  0.1076E+00  0.1053E+00
      5.162  0.3232E-02  0.9572E-02  0.1076E+00  0.1055E+00
      5.180  0.3238E-02  0.8206E-02  0.1077E+00  0.1056E+00
      5.197  0.3245E-02  0.7037E-02  0.1077E+00  0.1057E+00
      5.215  0.3251E-02  0.6065E-02  0.1078E+00  0.1058E+00
      5.233  0.3255E-02  0.5281E-02  0.1079E+00  0.1059E+00
      5.250  0.3255E-02  0.4669E-02  0.1079E+00  0.1060E+00
      5.268  0.3248E-02  0.4211E-02  0.1080E+00  0.1061E+00
      5.286  0.3233E-02  0.3883E-02  0.1080E+00  0.1062E+00
      5.304  0.3210E-02  0.3660E-02  0.1081E+00  0.1062E+00
      5.321  0.3178E-02  0.3517E-02  0.1081E+00  0.1063E+00
      5.339  0.3138E-02  0.3434E-02  0.1082E+00  0.1063E+00
      5.357  0.3091E-02  0.3390E-02  0.1082E+00  0.1064E+00
      5.375  0.3037E-02  0.3371E-02  0.1083E+00  0.1065E+00
      5.392  0.2979E-02  0.3367E-02  0.1084E+00  0.1065E+00
      5.410  0.2918E-02  0.3371E-02  0.1084E+00  0.1066E+00
      5.428  0.2857E-02  0.3381E-02  0.1085E+00  0.1066E+00
      5.445  0.2798E-02  0.3397E-02  0.1085E+00  0.1067E+00
      5.463  0.2743E-02  0.3421E-02  0.1086E+00  0.1068E+00
      5.481  0.2697E-02  0.3454E-02  0.1086E+00  0.1068E+00
      5.499  0.2659E-02  0.3497E-02  0.1086E+00  0.1069E+00
      5.516  0.2634E-02  0.3548E-02  0.1087E+00  0.1070E+00
      5.534  0.2623E-02  0.3607E-02  0.1087E+00  0.1070E+00
      5.552  0.2627E-02  0.3670E-02  0.1088E+00  0.1071E+00
      5.570  0.2647E-02  0.3731E-02  0.1088E+00  0.1072E+00
      5.587  0.2683E-02  0.3785E-02  0.1089E+00  0.1072E+00
      5.605  0.2735E-02  0.3828E-02  0.1089E+00  0.1073E+00
      5.623  0.2799E-02  0.3855E-02  0.1090E+00  0.1074E+00
      5.641  0.2874E-02  0.3863E-02  0.1090E+00  0.1074E+00
      5.658  0.2955E-02  0.3851E-02  0.1091E+00  0.1075E+00
      5.676  0.3038E-02  0.3821E-02  0.1091E+00  0.1076E+00
      5.694  0.3119E-02  0.3775E-02  0.1092E+00  0.1076E+00
      5.711  0.3191E-02  0.3716E-02  0.1093E+00  0.1077E+00
      5.729  0.3250E-02  0.3651E-02  0.1093E+00  0.1078E+00
      5.747  0.3291E-02  0.3584E-02  0.1094E+00  0.1078E+00
      5.765  0.3311E-02  0.3521E-02  0.1094E+00  0.1079E+00
      5.782  0.3307E-02  0.3465E-02  0.1095E+00  0.1079E+00
      5.800  0.3279E-02  0.3421E-02  0.1095E+00  0.1080E+00
      5.818  0.3227E-02  0.3388E-02  0.1096E+00  0.1081E+00
      5.836  0.3154E-02  0.3368E-02  0.1097E+00  0.1081E+00
      5.853  0.3064E-02  0.3359E-02  0.1097E+00  0.1082E+00
      5.871  0.2962E-02  0.3358E-02  0.1098E+00  0.1082E+00
      5.889  0.2855E-02  0.3363E-02  0.1098E+00  0.1083E+00
      5.906  0.2749E-02  0.3369E-02  0.1099E+00  0.1084E+00
      5.924  0.2652E-02  0.3375E-02  0.1099E+00  0.1084E+00
      5.942  0.2568E-02  0.3378E-02  0.1100E+00  0.1085E+00
      5.960  0.2504E-02  0.3376E-02  0.1100E+00  0.1085E+00
      5.977  0.2462E-02  0.3369E-02  0.1100E+00  0.1086E+00
      5.995  0.2445E-02  0.3358E-02  0.1101E+00  0.1087E+00
      6.013  0.2452E-02  0.3345E-02  0.1101E+00  0.1087E+00
      6.031  0.2482E-02  0.3333E-02  0.1102E+00  0.1088E+00
      6.048  0.2530E-02  0.3323E-02  0.1102E+00  0.1088E+00
      6.066  0.2594E-02  0.3318E-02  0.1103E+00  0.1089E+00
      6.084  0.2666E-02  0.3320E-02  0.1103E+00  0.1090E+00
      6.102  0.2740E-02  0.3331E-02  0.1104E+00  0.1090E+00
      6.119  0.2810E-02  0.3349E-02  0.1104E+00  0.1091E+00
      6.137  0.2871E-02  0.3375E-02  0.1105E+00  0.1091E+00
      6.155  0.2917E-02  0.3405E-02  0.1105E+00  0.1092E+00
      6.172  0.2946E-02  0.3436E-02  0.1106E+00  0.1093E+00
      6.190  0.2955E-02  0.3465E-02  0.1106E+00  0.1093E+00
      6.208  0.2944E-02  0.3488E-02  0.1107E+00  0.1094E+00
      6.226  0.2915E-02  0.3501E-02  0.1107E+00  0.1094E+00
      6.243  0.2870E-02  0.3500E-02  0.1108E+00  0.1095E+00
      6.261  0.2813E-02  0.3484E-02  0.1108E+00  0.1096E+00
      6.279  0.2750E-02  0.3451E-02  0.1109E+00  0.1096E+00
      6.297  0.2685E-02  0.3403E-02  0.1109E+00  0.1097E+00
      6.314  0.2623E-02  0.3340E-02  0.1110E+00  0.1097E+00
      6.332  0.2567E-02  0.3267E-02  0.1110E+00  0.1098E+00
      6.350  0.2522E-02  0.3187E-02  0.1111E+00  0.1099E+00
      6.367  0.2489E-02  0.3105E-02  0.1111E+00  0.1099E+00
      6.385  0.2470E-02  0.3025E-02  0.1111E+00  0.1100E+00
      6.403  0.2464E-02  0.2952E-02  0.1112E+00  0.1100E+00
      6.421  0.2471E-02  0.2889E-02  0.1112E+00  0.1101E+00
      6.438  0.2490E-02  0.2841E-02  0.1113E+00  0.1101E+00
      6.456  0.2517E-02  0.2807E-02  0.1113E+00  0.1102E+00
      6.474  0.2551E-02  0.2789E-02  0.1114E+00  0.1102E+00
      6.492  0.2590E-02  0.2786E-02  0.1114E+00  0.1103E+00
      6.509  0.2630E-02  0.2798E-02  0.1115E+00  0.1103E+00
      6.527  0.2671E-02  0.2822E-02  0.1115E+00  0.1104E+00
      6.545  0.2709E-02  0.2855E-02  0.1116E+00  0.1104E+00
      6.563  0.2744E-02  0.2896E-02  0.1116E+00  0.1105E+00
      6.580  0.2775E-02  0.2941E-02  0.1116E+00  0.1105E+00
      6.598  0.2800E-02  0.2987E-02  0.1117E+00  0.1106E+00
      6.616  0.2819E-02  0.3034E-02  0.1117E+00  0.1106E+00
      6.633  0.2832E-02  0.3077E-02  0.1118E+00  0.1107E+00
      6.651  0.2839E-02  0.3117E-02  0.1118E+00  0.1107E+00
      6.669  0.2842E-02  0.3151E-02  0.1119E+00  0.1108E+00
      6.687  0.2839E-02  0.3178E-02  0.1120E+00  0.1109E+00
      6.704  0.2832E-02  0.3198E-02  0.1120E+00  0.1109E+00
      6.722  0.2821E-02  0.3211E-02  0.1121E+00  0.1110E+00
      6.740  0.2806E-02  0.3216E-02  0.1121E+00  0.1110E+00
      6.758  0.2787E-02  0.3213E-02  0.1121E+00  0.1111E+00
      6.775  0.2763E-02  0.3203E-02  0.1122E+00  0.1111E+00
      6.793  0.2735E-02  0.3186E-02  0.1122E+00  0.1112E+00
      6.811  0.2700E-02  0.3162E-02  0.1123E+00  0.1113E+00
      6.828  0.2659E-02  0.3131E-02  0.1123E+00  0.1113E+00
      6.846  0.2611E-02  0.3094E-02  0.1124E+00  0.1114E+00
      6.864  0.2556E-02  0.3052E-02  0.1124E+00  0.1114E+00
      6.882  0.2495E-02  0.3005E-02  0.1125E+00  0.1115E+00
      6.899  0.2430E-02  0.2956E-02  0.1125E+00  0.1115E+00
      6.917  0.2363E-02  0.2906E-02  0.1126E+00  0.1116E+00
      6.935  0.2296E-02  0.2857E-02  0.1126E+00  0.1116E+00
      6.953  0.2234E-02  0.2813E-02  0.1126E+00  0.1117E+00
      6.970  0.2179E-02  0.2775E-02  0.1127E+00  0.1117E+00
      6.988  0.2135E-02  0.2747E-02  0.1127E+00  0.1118E+00
      7.006  0.2106E-02  0.2730E-02  0.1128E+00  0.1118E+00
      7.023  0.2093E-02  0.2725E-02  0.1128E+00  0.1119E+00
      7.041  0.2099E-02  0.2734E-02  0.1128E+00  0.1119E+00
      7.059  0.2123E-02  0.2754E-02  0.1129E+00  0.1120E+00
      7.077  0.2166E-02  0.2784E-02  0.1129E+00  0.1120E+00
      7.094  0.2226E-02  0.2820E-02  0.1129E+00  0.1121E+00
      7.112  0.2302E-02  0.2860E-02  0.1130E+00  0.1121E+00
      7.130  0.2389E-02  0.2898E-02  0.1130E+00  0.1122E+00
      7.148  0.2485E-02  0.2932E-02  0.1131E+00  0.1122E+00
      7.165  0.2586E-02  0.2957E-02  0.1131E+00  0.1123E+00
      7.183  0.2688E-02  0.2970E-02  0.1132E+00  0.1123E+00
      7.201  0.2787E-02  0.2969E-02  0.1132E+00  0.1124E+00
      7.219  0.2878E-02  0.2955E-02  0.1133E+00  0.1124E+00
      7.236  0.2957E-02  0.2927E-02  0.1133E+00  0.1125E+00
      7.254  0.3021E-02  0.2887E-02  0.1134E+00  0.1125E+00
      7.272  0.3067E-02  0.2839E-02  0.1134E+00  0.1126E+00
      7.289  0.3093E-02  0.2785E-02  0.1135E+00  0.1126E+00
      7.307  0.3096E-02  0.2730E-02  0.1135E+00  0.1127E+00
      7.325  0.3077E-02  0.2677E-02  0.1136E+00  0.1127E+00
      7.343  0.3036E-02  0.2631E-02  0.1136E+00  0.1128E+00
      7.360  0.2976E-02  0.2594E-02  0.1137E+00  0.1128E+00
      7.378  0.2899E-02  0.2570E-02  0.1138E+00  0.1129E+00
      7.396  0.2810E-02  0.2560E-02  0.1138E+00  0.1129E+00
      7.414  0.2715E-02  0.2565E-02  0.1138E+00  0.1130E+00
      7.431  0.2617E-02  0.2585E-02  0.1139E+00  0.1130E+00
      7.449  0.2524E-02  0.2618E-02  0.1139E+00  0.1130E+00
      7.467  0.2440E-02  0.2662E-02  0.1140E+00  0.1131E+00
      7.484  0.2368E-02  0.2714E-02  0.1140E+00  0.1131E+00
      7.502  0.2311E-02  0.2770E-02  0.1141E+00  0.1132E+00
      7.520  0.2271E-02  0.2827E-02  0.1141E+00  0.1132E+00
      7.538  0.2246E-02  0.2881E-02  0.1141E+00  0.1133E+00
      7.555  0.2234E-02  0.2928E-02  0.1142E+00  0.1133E+00
      7.573  0.2231E-02  0.2966E-02  0.1142E+00  0.1134E+00
      7.591  0.2232E-02  0.2991E-02  0.1143E+00  0.1135E+00
      7.609  0.2232E-02  0.3004E-02  0.1143E+00  0.1135E+00
      7.626  0.2228E-02  0.3003E-02  0.1143E+00  0.1136E+00
      7.644  0.2215E-02  0.2988E-02  0.1144E+00  0.1136E+00
      7.662  0.2191E-02  0.2961E-02  0.1144E+00  0.1137E+00
      7.680  0.2158E-02  0.2924E-02  0.1145E+00  0.1137E+00
      7.697  0.2116E-02  0.2879E-02  0.1145E+00  0.1138E+00
      7.715  0.2071E-02  0.2827E-02  0.1145E+00  0.1138E+00
      7.733  0.2026E-02  0.2773E-02  0.1146E+00  0.1139E+00
      7.750  0.1988E-02  0.2718E-02  0.1146E+00  0.1139E+00
      7.768  0.1963E-02  0.2663E-02  0.1146E+00  0.1140E+00
      7.786  0.1955E-02  0.2612E-02  0.1147E+00  0.1140E+00
      7.804  0.1970E-02  0.2565E-02  0.1147E+00  0.1141E+00
      7.821  0.2007E-02  0.2522E-02  0.1147E+00  0.1141E+00
      7.839  0.2068E-02  0.2485E-02  0.1148E+00  0.1141E+00
      7.857  0.2149E-02  0.2452E-02  0.1148E+00  0.1142E+00
      7.875  0.2246E-02  0.2424E-02  0.1149E+00  0.1142E+00
      7.892  0.2354E-02  0.2398E-02  0.1149E+00  0.1143E+00
      7.910  0.2466E-02  0.2375E-02  0.1149E+00  0.1143E+00
      7.928  0.2574E-02  0.2352E-02  0.1150E+00  0.1144E+00
      7.945  0.2673E-02  0.2330E-02  0.1150E+00  0.1144E+00
      7.963  0.2756E-02  0.2307E-02  0.1151E+00  0.1144E+00
      7.981  0.2821E-02  0.2283E-02  0.1151E+00  0.1145E+00
      7.999  0.2864E-02  0.2259E-02  0.1152E+00  0.1145E+00
      8.016  0.2885E-02  0.2237E-02  0.1152E+00  0.1146E+00
      8.034  0.2883E-02  0.2217E-02  0.1153E+00  0.1146E+00
      8.052  0.2862E-02  0.2201E-02  0.1153E+00  0.1146E+00
      8.070  0.2822E-02  0.2193E-02  0.1154E+00  0.1147E+00
      8.087  0.2766E-02  0.2193E-02  0.1154E+00  0.1147E+00
      8.105  0.2698E-02  0.2204E-02  0.1155E+00  0.1148E+00
      8.123  0.2618E-02  0.2227E-02  0.1155E+00  0.1148E+00
      8.141  0.2529E-02  0.2262E-02  0.1156E+00  0.1148E+00
      8.158  0.2432E-02  0.2309E-02  0.1156E+00  0.1149E+00
      8.176  0.2330E-02  0.2366E-02  0.1157E+00  0.1149E+00
      8.194  0.2224E-02  0.2431E-02  0.1157E+00  0.1150E+00
      8.211  0.2116E-02  0.2501E-02  0.1157E+00  0.1150E+00
      8.229  0.2008E-02  0.2573E-02  0.1158E+00  0.1150E+00
      8.247  0.1904E-02  0.2643E-02  0.1158E+00  0.1151E+00
      8.265  0.1808E-02  0.2708E-02  0.1158E+00  0.1151E+00
      8.282  0.1724E-02  0.2763E-02  0.1159E+00  0.1152E+00
      8.300  0.1654E-02  0.2806E-02  0.1159E+00  0.1152E+00
      8.318  0.1604E-02  0.2834E-02  0.1159E+00  0.1153E+00
      8.336  0.1574E-02  0.2844E-02  0.1160E+00  0.1153E+00
      8.353  0.1567E-02  0.2835E-02  0.1160E+00  0.1154E+00
      8.371  0.1583E-02  0.2807E-02  0.1160E+00  0.1154E+00
      8.389  0.1619E-02  0.2759E-02  0.1160E+00  0.1155E+00
      8.406  0.1673E-02  0.2693E-02  0.1161E+00  0.1155E+00
      8.424  0.1741E-02  0.2612E-02  0.1161E+00  0.1156E+00
      8.442  0.1817E-02  0.2517E-02  0.1161E+00  0.1156E+00
      8.460  0.1897E-02  0.2414E-02  0.1162E+00  0.1157E+00
      8.477  0.1973E-02  0.2306E-02  0.1162E+00  0.1157E+00
      8.495  0.2043E-02  0.2198E-02  0.1162E+00  0.1158E+00
      8.513  0.2101E-02  0.2095E-02  0.1163E+00  0.1158E+00
      8.531  0.2145E-02  0.2001E-02  0.1163E+00  0.1158E+00
      8.548  0.2174E-02  0.1920E-02  0.1164E+00  0.1159E+00
      8.566  0.2189E-02  0.1857E-02  0.1164E+00  0.1159E+00
      8.584  0.2191E-02  0.1811E-02  0.1164E+00  0.1159E+00
      8.602  0.2182E-02  0.1785E-02  0.1165E+00  0.1160E+00
      8.619  0.2166E-02  0.1778E-02  0.1165E+00  0.1160E+00
      8.637  0.2146E-02  0.1789E-02  0.1165E+00  0.1160E+00
      8.655  0.2126E-02  0.1815E-02  0.1166E+00  0.1161E+00
      8.672  0.2108E-02  0.1852E-02  0.1166E+00  0.1161E+00
      8.690  0.2093E-02  0.1897E-02  0.1167E+00  0.1161E+00
      8.708  0.2084E-02  0.1946E-02  0.1167E+00  0.1162E+00
      8.726  0.2078E-02  0.1995E-02  0.1167E+00  0.1162E+00
      8.743  0.2076E-02  0.2041E-02  0.1168E+00  0.1162E+00
      8.761  0.2075E-02  0.2080E-02  0.1168E+00  0.1163E+00
      8.779  0.2073E-02  0.2112E-02  0.1168E+00  0.1163E+00
      8.797  0.2069E-02  0.2135E-02  0.1169E+00  0.1163E+00
      8.814  0.2060E-02  0.2148E-02  0.1169E+00  0.1164E+00
      8.832  0.2045E-02  0.2153E-02  0.1170E+00  0.1164E+00
      8.850  0.2024E-02  0.2150E-02  0.1170E+00  0.1165E+00
      8.867  0.1998E-02  0.2141E-02  0.1170E+00  0.1165E+00
      8.885  0.1967E-02  0.2130E-02  0.1171E+00  0.1165E+00
      8.903  0.1935E-02  0.2116E-02  0.1171E+00  0.1166E+00
      8.921  0.1903E-02  0.2103E-02  0.1171E+00  0.1166E+00
      8.938  0.1872E-02  0.2093E-02  0.1172E+00  0.1166E+00
      8.956  0.1846E-02  0.2085E-02  0.1172E+00  0.1167E+00
      8.974  0.1826E-02  0.2080E-02  0.1172E+00  0.1167E+00
      8.992  0.1810E-02  0.2078E-02  0.1173E+00  0.1167E+00
      9.009  0.1800E-02  0.2078E-02  0.1173E+00  0.1168E+00
      9.027  0.1793E-02  0.2079E-02  0.1173E+00  0.1168E+00
      9.045  0.1787E-02  0.2079E-02  0.1174E+00  0.1169E+00
      9.062  0.1780E-02  0.2078E-02  0.1174E+00  0.1169E+00
      9.080  0.1769E-02  0.2075E-02  0.1174E+00  0.1169E+00
      9.098  0.1752E-02  0.2068E-02  0.1174E+00  0.1170E+00
      9.116  0.1728E-02  0.2058E-02  0.1175E+00  0.1170E+00
      9.133  0.1695E-02  0.2045E-02  0.1175E+00  0.1170E+00
      9.151  0.1655E-02  0.2031E-02  0.1175E+00  0.1171E+00
      9.169  0.1610E-02  0.2016E-02  0.1176E+00  0.1171E+00
      9.187  0.1561E-02  0.2002E-02  0.1176E+00  0.1171E+00
      9.204  0.1513E-02  0.1990E-02  0.1176E+00  0.1172E+00
      9.222  0.1468E-02  0.1979E-02  0.1176E+00  0.1172E+00
      9.240  0.1429E-02  0.1970E-02  0.1177E+00  0.1173E+00
      9.258  0.1402E-02  0.1962E-02  0.1177E+00  0.1173E+00
      9.275  0.1386E-02  0.1953E-02  0.1177E+00  0.1173E+00
      9.293  0.1384E-02  0.1942E-02  0.1177E+00  0.1174E+00
      9.311  0.1395E-02  0.1926E-02  0.1178E+00  0.1174E+00
      9.328  0.1419E-02  0.1903E-02  0.1178E+00  0.1174E+00
      9.346  0.1453E-02  0.1872E-02  0.1178E+00  0.1175E+00
      9.364  0.1493E-02  0.1832E-02  0.1178E+00  0.1175E+00
      9.382  0.1536E-02  0.1784E-02  0.1179E+00  0.1175E+00
      9.399  0.1578E-02  0.1728E-02  0.1179E+00  0.1176E+00
      9.417  0.1616E-02  0.1667E-02  0.1179E+00  0.1176E+00
      9.435  0.1647E-02  0.1604E-02  0.1180E+00  0.1176E+00
      9.453  0.1669E-02  0.1543E-02  0.1180E+00  0.1176E+00
      9.470  0.1682E-02  0.1487E-02  0.1180E+00  0.1177E+00
      9.488  0.1686E-02  0.1439E-02  0.1181E+00  0.1177E+00
      9.506  0.1684E-02  0.1402E-02  0.1181E+00  0.1177E+00
      9.523  0.1676E-02  0.1379E-02  0.1181E+00  0.1177E+00
      9.541  0.1665E-02  0.1370E-02  0.1181E+00  0.1178E+00
      9.559  0.1654E-02  0.1375E-02  0.1182E+00  0.1178E+00
      9.577  0.1645E-02  0.1392E-02  0.1182E+00  0.1178E+00
      9.594  0.1639E-02  0.1419E-02  0.1182E+00  0.1178E+00
      9.612  0.1636E-02  0.1455E-02  0.1183E+00  0.1179E+00
      9.630  0.1634E-02  0.1494E-02  0.1183E+00  0.1179E+00
      9.648  0.1633E-02  0.1536E-02  0.1183E+00  0.1179E+00
      9.665  0.1630E-02  0.1576E-02  0.1183E+00  0.1179E+00
      9.683  0.1623E-02  0.1614E-02  0.1184E+00  0.1180E+00
      9.701  0.1610E-02  0.1646E-02  0.1184E+00  0.1180E+00
      9.719  0.1590E-02  0.1673E-02  0.1184E+00  0.1180E+00
      9.736  0.1562E-02  0.1695E-02  0.1185E+00  0.1181E+00
      9.754  0.1526E-02  0.1712E-02  0.1185E+00  0.1181E+00
      9.772  0.1484E-02  0.1725E-02  0.1185E+00  0.1181E+00
      9.789  0.1437E-02  0.1734E-02  0.1185E+00  0.1182E+00
      9.807  0.1389E-02  0.1741E-02  0.1186E+00  0.1182E+00
      9.825  0.1342E-02  0.1745E-02  0.1186E+00  0.1182E+00
      9.843  0.1299E-02  0.1747E-02  0.1186E+00  0.1182E+00
      9.860  0.1262E-02  0.1746E-02  0.1186E+00  0.1183E+00
      9.878  0.1232E-02  0.1741E-02  0.1187E+00  0.1183E+00
      9.896  0.1210E-02  0.1731E-02  0.1187E+00  0.1183E+00
      9.914  0.1195E-02  0.1714E-02  0.1187E+00  0.1184E+00
      9.931  0.1187E-02  0.1691E-02  0.1187E+00  0.1184E+00
      9.949  0.1182E-02  0.1660E-02  0.1187E+00  0.1184E+00
      9.967  0.1179E-02  0.1622E-02  0.1188E+00  0.1185E+00
      9.984  0.1174E-02  0.1577E-02  0.1188E+00  0.1185E+00
     10.002  0.1166E-02  0.1528E-02  0.1188E+00  0.1185E+00
     10.020  0.1153E-02  0.1476E-02  0.1188E+00  0.1185E+00
     10.038  0.1134E-02  0.1424E-02  0.1188E+00  0.1186E+00
     10.055  0.1109E-02  0.1373E-02  0.1189E+00  0.1186E+00
     10.073  0.1078E-02  0.1328E-02  0.1189E+00  0.1186E+00
     10.091  0.1043E-02  0.1289E-02  0.1189E+00  0.1186E+00
     10.109  0.1007E-02  0.1257E-02  0.1189E+00  0.1187E+00
     10.126  0.9728E-03  0.1234E-02  0.1189E+00  0.1187E+00
     10.144  0.9430E-03  0.1218E-02  0.1189E+00  0.1187E+00
     10.162  0.9211E-03  0.1208E-02  0.1190E+00  0.1187E+00
     10.180  0.9098E-03  0.1203E-02  0.1190E+00  0.1187E+00
     10.197  0.9115E-03  0.1200E-02  0.1190E+00  0.1188E+00
     10.215  0.9278E-03  0.1196E-02  0.1190E+00  0.1188E+00
     10.233  0.9597E-03  0.1189E-02  0.1190E+00  0.1188E+00
     10.250  0.1007E-02  0.1178E-02  0.1190E+00  0.1188E+00
     10.268  0.1070E-02  0.1162E-02  0.1191E+00  0.1189E+00
     10.286  0.1146E-02  0.1140E-02  0.1191E+00  0.1189E+00
     10.304  0.1235E-02  0.1113E-02  0.1191E+00  0.1189E+00
     10.321  0.1333E-02  0.1083E-02  0.1191E+00  0.1189E+00
     10.339  0.1439E-02  0.1051E-02  0.1192E+00  0.1189E+00
     10.357  0.1550E-02  0.1021E-02  0.1192E+00  0.1189E+00
     10.375  0.1663E-02  0.9953E-03  0.1192E+00  0.1190E+00
     10.392  0.1776E-02  0.9757E-03  0.1192E+00  0.1190E+00
     10.410  0.1886E-02  0.9644E-03  0.1193E+00  0.1190E+00
     10.428  0.1992E-02  0.9626E-03  0.1193E+00  0.1190E+00
     10.445  0.2092E-02  0.9706E-03  0.1194E+00  0.1190E+00
     10.463  0.2184E-02  0.9879E-03  0.1194E+00  0.1191E+00
     10.481  0.2267E-02  0.1013E-02  0.1194E+00  0.1191E+00
     10.499  0.2340E-02  0.1044E-02  0.1195E+00  0.1191E+00
     10.516  0.2404E-02  0.1078E-02  0.1195E+00  0.1191E+00
     10.534  0.2458E-02  0.1113E-02  0.1196E+00  0.1191E+00
     10.552  0.2503E-02  0.1146E-02  0.1196E+00  0.1191E+00
     10.570  0.2541E-02  0.1174E-02  0.1196E+00  0.1192E+00
     10.587  0.2573E-02  0.1197E-02  0.1197E+00  0.1192E+00
     10.605  0.2599E-02  0.1213E-02  0.1197E+00  0.1192E+00
     10.623  0.2622E-02  0.1223E-02  0.1198E+00  0.1192E+00
     10.640  0.2641E-02  0.1228E-02  0.1198E+00  0.1193E+00
     10.658  0.2659E-02  0.1231E-02  0.1199E+00  0.1193E+00
     10.676  0.2676E-02  0.1233E-02  0.1199E+00  0.1193E+00
     10.694  0.2691E-02  0.1238E-02  0.1200E+00  0.1193E+00
     10.711  0.2706E-02  0.1250E-02  0.1200E+00  0.1193E+00
     10.729  0.2719E-02  0.1273E-02  0.1201E+00  0.1194E+00
     10.747  0.2730E-02  0.1309E-02  0.1201E+00  0.1194E+00
     10.765  0.2739E-02  0.1360E-02  0.1202E+00  0.1194E+00
     10.782  0.2744E-02  0.1428E-02  0.1202E+00  0.1194E+00
     10.800  0.2747E-02  0.1511E-02  0.1203E+00  0.1195E+00
     10.818  0.2747E-02  0.1609E-02  0.1203E+00  0.1195E+00
     10.836  0.2744E-02  0.1720E-02  0.1204E+00  0.1195E+00
     10.853  0.2739E-02  0.1838E-02  0.1204E+00  0.1196E+00
     10.871  0.2732E-02  0.1961E-02  0.1205E+00  0.1196E+00
     10.889  0.2724E-02  0.2084E-02  0.1205E+00  0.1196E+00
     10.906  0.2716E-02  0.2202E-02  0.1206E+00  0.1197E+00
     10.924  0.2709E-02  0.2312E-02  0.1206E+00  0.1197E+00
     10.942  0.2705E-02  0.2412E-02  0.1207E+00  0.1197E+00
     10.960  0.2703E-02  0.2498E-02  0.1207E+00  0.1198E+00
     10.977  0.2705E-02  0.2571E-02  0.1207E+00  0.1198E+00
     10.995  0.2711E-02  0.2631E-02  0.1208E+00  0.1199E+00
     11.013  0.2723E-02  0.2680E-02  0.1208E+00  0.1199E+00
     11.031  0.2740E-02  0.2720E-02  0.1209E+00  0.1200E+00
     11.048  0.2765E-02  0.2754E-02  0.1209E+00  0.1200E+00
     11.066  0.2796E-02  0.2785E-02  0.1210E+00  0.1201E+00
     11.084  0.2835E-02  0.2814E-02  0.1210E+00  0.1201E+00
     11.101  0.2880E-02  0.2845E-02  0.1211E+00  0.1202E+00
     11.119  0.2933E-02  0.2879E-02  0.1211E+00  0.1202E+00
     11.137  0.2991E-02  0.2915E-02  0.1212E+00  0.1203E+00
     11.155  0.3052E-02  0.2954E-02  0.1213E+00  0.1203E+00
     11.172  0.3116E-02  0.2995E-02  0.1213E+00  0.1204E+00
     11.190  0.3178E-02  0.3036E-02  0.1214E+00  0.1204E+00
     11.208  0.3237E-02  0.3075E-02  0.1214E+00  0.1205E+00
     11.226  0.3289E-02  0.3111E-02  0.1215E+00  0.1206E+00
     11.243  0.3332E-02  0.3143E-02  0.1215E+00  0.1206E+00
     11.261  0.3363E-02  0.3169E-02  0.1216E+00  0.1207E+00
     11.279  0.3380E-02  0.3190E-02  0.1217E+00  0.1207E+00
     11.297  0.3384E-02  0.3205E-02  0.1217E+00  0.1208E+00
     11.314  0.3372E-02  0.3217E-02  0.1218E+00  0.1208E+00
     11.332  0.3347E-02  0.3226E-02  0.1218E+00  0.1209E+00
     11.350  0.3310E-02  0.3234E-02  0.1219E+00  0.1209E+00
     11.367  0.3262E-02  0.3243E-02  0.1220E+00  0.1210E+00
     11.385  0.3205E-02  0.3256E-02  0.1220E+00  0.1211E+00
     11.403  0.3143E-02  0.3272E-02  0.1221E+00  0.1211E+00
     11.421  0.3078E-02  0.3294E-02  0.1221E+00  0.1212E+00
     11.438  0.3012E-02  0.3321E-02  0.1222E+00  0.1212E+00
     11.456  0.2948E-02  0.3353E-02  0.1222E+00  0.1213E+00
     11.474  0.2888E-02  0.3387E-02  0.1223E+00  0.1214E+00
     11.492  0.2833E-02  0.3422E-02  0.1223E+00  0.1214E+00
     11.509  0.2784E-02  0.3457E-02  0.1224E+00  0.1215E+00
     11.527  0.2743E-02  0.3487E-02  0.1224E+00  0.1215E+00
     11.545  0.2711E-02  0.3510E-02  0.1225E+00  0.1216E+00
     11.562  0.2688E-02  0.3525E-02  0.1225E+00  0.1217E+00
     11.580  0.2674E-02  0.3529E-02  0.1226E+00  0.1217E+00
     11.598  0.2671E-02  0.3522E-02  0.1226E+00  0.1218E+00
     11.616  0.2677E-02  0.3503E-02  0.1227E+00  0.1219E+00
     11.633  0.2693E-02  0.3473E-02  0.1227E+00  0.1219E+00
     11.651  0.2718E-02  0.3433E-02  0.1228E+00  0.1220E+00
     11.669  0.2751E-02  0.3385E-02  0.1228E+00  0.1220E+00
     11.687  0.2791E-02  0.3330E-02  0.1229E+00  0.1221E+00
     11.704  0.2836E-02  0.3270E-02  0.1229E+00  0.1222E+00
     11.722  0.2885E-02  0.3209E-02  0.1230E+00  0.1222E+00
     11.740  0.2934E-02  0.3147E-02  0.1230E+00  0.1223E+00
     11.758  0.2980E-02  0.3088E-02  0.1231E+00  0.1223E+00
     11.775  0.3022E-02  0.3033E-02  0.1231E+00  0.1224E+00
     11.793  0.3055E-02  0.2984E-02  0.1232E+00  0.1224E+00
     11.811  0.3076E-02  0.2941E-02  0.1232E+00  0.1225E+00
     11.828  0.3084E-02  0.2906E-02  0.1233E+00  0.1225E+00
     11.846  0.3076E-02  0.2879E-02  0.1233E+00  0.1226E+00
     11.864  0.3051E-02  0.2862E-02  0.1234E+00  0.1226E+00
     11.882  0.3010E-02  0.2854E-02  0.1234E+00  0.1227E+00
     11.899  0.2954E-02  0.2855E-02  0.1235E+00  0.1227E+00
     11.917  0.2885E-02  0.2867E-02  0.1235E+00  0.1228E+00
     11.935  0.2807E-02  0.2887E-02  0.1236E+00  0.1228E+00
     11.953  0.2724E-02  0.2914E-02  0.1236E+00  0.1229E+00
     11.970  0.2639E-02  0.2948E-02  0.1237E+00  0.1229E+00
     11.988  0.2559E-02  0.2986E-02  0.1237E+00  0.1230E+00
     12.006  0.2487E-02  0.3025E-02  0.1238E+00  0.1230E+00
     12.023  0.2426E-02  0.3062E-02  0.1238E+00  0.1231E+00
     12.041  0.2381E-02  0.3094E-02  0.1239E+00  0.1232E+00
     12.059  0.2351E-02  0.3118E-02  0.1239E+00  0.1232E+00
     12.077  0.2338E-02  0.3132E-02  0.1239E+00  0.1233E+00
     12.094  0.2340E-02  0.3133E-02  0.1240E+00  0.1233E+00
     12.112  0.2356E-02  0.3120E-02  0.1240E+00  0.1234E+00
     12.130  0.2381E-02  0.3094E-02  0.1241E+00  0.1234E+00
     12.148  0.2414E-02  0.3054E-02  0.1241E+00  0.1235E+00
     12.165  0.2450E-02  0.3004E-02  0.1242E+00  0.1235E+00
     12.183  0.2488E-02  0.2946E-02  0.1242E+00  0.1236E+00
     12.201  0.2523E-02  0.2883E-02  0.1243E+00  0.1236E+00
     12.219  0.2555E-02  0.2820E-02  0.1243E+00  0.1237E+00
     12.236  0.2583E-02  0.2759E-02  0.1243E+00  0.1237E+00
     12.254  0.2605E-02  0.2703E-02  0.1244E+00  0.1238E+00
     12.272  0.2622E-02  0.2656E-02  0.1244E+00  0.1238E+00
     12.289  0.2635E-02  0.2618E-02  0.1245E+00  0.1239E+00
     12.307  0.2645E-02  0.2590E-02  0.1245E+00  0.1239E+00
     12.325  0.2651E-02  0.2571E-02  0.1246E+00  0.1240E+00
     12.343  0.2654E-02  0.2559E-02  0.1246E+00  0.1240E+00
     12.360  0.2655E-02  0.2554E-02  0.1247E+00  0.1241E+00
     12.378  0.2654E-02  0.2552E-02  0.1247E+00  0.1241E+00
     12.396  0.2650E-02  0.2553E-02  0.1248E+00  0.1242E+00
     12.414  0.2644E-02  0.2554E-02  0.1248E+00  0.1242E+00
     12.431  0.2634E-02  0.2555E-02  0.1249E+00  0.1242E+00
     12.449  0.2620E-02  0.2556E-02  0.1249E+00  0.1243E+00
     12.467  0.2602E-02  0.2557E-02  0.1249E+00  0.1243E+00
     12.484  0.2581E-02  0.2559E-02  0.1250E+00  0.1244E+00
     12.502  0.2555E-02  0.2563E-02  0.1250E+00  0.1244E+00
     12.520  0.2526E-02  0.2571E-02  0.1251E+00  0.1245E+00
     12.538  0.2494E-02  0.2583E-02  0.1251E+00  0.1245E+00
     12.555  0.2460E-02  0.2599E-02  0.1252E+00  0.1246E+00
     12.573  0.2426E-02  0.2618E-02  0.1252E+00  0.1246E+00
     12.591  0.2391E-02  0.2640E-02  0.1253E+00  0.1247E+00
     12.609  0.2358E-02  0.2663E-02  0.1253E+00  0.1247E+00
     12.626  0.2326E-02  0.2684E-02  0.1253E+00  0.1248E+00
     12.644  0.2297E-02  0.2701E-02  0.1254E+00  0.1248E+00
     12.662  0.2270E-02  0.2713E-02  0.1254E+00  0.1248E+00
     12.679  0.2245E-02  0.2717E-02  0.1255E+00  0.1249E+00
     12.697  0.2223E-02  0.2712E-02  0.1255E+00  0.1249E+00
     12.715  0.2203E-02  0.2697E-02  0.1255E+00  0.1250E+00
     12.733  0.2184E-02  0.2674E-02  0.1256E+00  0.1250E+00
     12.750  0.2167E-02  0.2643E-02  0.1256E+00  0.1251E+00
     12.768  0.2152E-02  0.2606E-02  0.1257E+00  0.1251E+00
     12.786  0.2140E-02  0.2566E-02  0.1257E+00  0.1252E+00
     12.804  0.2131E-02  0.2523E-02  0.1257E+00  0.1252E+00
     12.821  0.2128E-02  0.2482E-02  0.1258E+00  0.1253E+00
     12.839  0.2131E-02  0.2443E-02  0.1258E+00  0.1253E+00
     12.857  0.2144E-02  0.2408E-02  0.1258E+00  0.1254E+00
     12.875  0.2166E-02  0.2378E-02  0.1259E+00  0.1254E+00
     12.892  0.2198E-02  0.2353E-02  0.1259E+00  0.1254E+00
     12.910  0.2239E-02  0.2332E-02  0.1260E+00  0.1255E+00
     12.928  0.2288E-02  0.2314E-02  0.1260E+00  0.1255E+00
     12.945  0.2341E-02  0.2299E-02  0.1260E+00  0.1256E+00
     12.963  0.2395E-02  0.2285E-02  0.1261E+00  0.1256E+00
     12.981  0.2445E-02  0.2271E-02  0.1261E+00  0.1256E+00
     12.999  0.2487E-02  0.2258E-02  0.1262E+00  0.1257E+00
     13.016  0.2518E-02  0.2245E-02  0.1262E+00  0.1257E+00
     13.034  0.2533E-02  0.2234E-02  0.1263E+00  0.1258E+00
     13.052  0.2533E-02  0.2227E-02  0.1263E+00  0.1258E+00
     13.070  0.2516E-02  0.2224E-02  0.1264E+00  0.1258E+00
     13.087  0.2485E-02  0.2228E-02  0.1264E+00  0.1259E+00
     13.105  0.2442E-02  0.2240E-02  0.1264E+00  0.1259E+00
     13.123  0.2393E-02  0.2261E-02  0.1265E+00  0.1260E+00
     13.140  0.2341E-02  0.2289E-02  0.1265E+00  0.1260E+00
     13.158  0.2292E-02  0.2323E-02  0.1266E+00  0.1260E+00
     13.176  0.2248E-02  0.2362E-02  0.1266E+00  0.1261E+00
     13.194  0.2213E-02  0.2402E-02  0.1266E+00  0.1261E+00
     13.211  0.2188E-02  0.2439E-02  0.1267E+00  0.1262E+00
     13.229  0.2172E-02  0.2470E-02  0.1267E+00  0.1262E+00
     13.247  0.2164E-02  0.2493E-02  0.1268E+00  0.1263E+00
     13.265  0.2161E-02  0.2506E-02  0.1268E+00  0.1263E+00
     13.282  0.2161E-02  0.2507E-02  0.1268E+00  0.1263E+00
     13.300  0.2161E-02  0.2498E-02  0.1269E+00  0.1264E+00
     13.318  0.2158E-02  0.2480E-02  0.1269E+00  0.1264E+00
     13.336  0.2153E-02  0.2455E-02  0.1270E+00  0.1265E+00
     13.353  0.2144E-02  0.2426E-02  0.1270E+00  0.1265E+00
     13.371  0.2133E-02  0.2395E-02  0.1270E+00  0.1266E+00
     13.389  0.2121E-02  0.2366E-02  0.1271E+00  0.1266E+00
     13.406  0.2111E-02  0.2340E-02  0.1271E+00  0.1266E+00
     13.424  0.2105E-02  0.2318E-02  0.1271E+00  0.1267E+00
     13.442  0.2104E-02  0.2300E-02  0.1272E+00  0.1267E+00
     13.460  0.2110E-02  0.2286E-02  0.1272E+00  0.1268E+00
     13.477  0.2122E-02  0.2274E-02  0.1273E+00  0.1268E+00
     13.495  0.2139E-02  0.2264E-02  0.1273E+00  0.1269E+00
     13.513  0.2158E-02  0.2254E-02  0.1273E+00  0.1269E+00
     13.531  0.2178E-02  0.2244E-02  0.1274E+00  0.1269E+00
     13.548  0.2196E-02  0.2233E-02  0.1274E+00  0.1270E+00
     13.566  0.2210E-02  0.2221E-02  0.1274E+00  0.1270E+00
     13.584  0.2217E-02  0.2210E-02  0.1275E+00  0.1270E+00
     13.601  0.2218E-02  0.2201E-02  0.1275E+00  0.1271E+00
     13.619  0.2212E-02  0.2194E-02  0.1276E+00  0.1271E+00
     13.637  0.2200E-02  0.2190E-02  0.1276E+00  0.1272E+00
     13.655  0.2185E-02  0.2189E-02  0.1276E+00  0.1272E+00
     13.672  0.2169E-02  0.2191E-02  0.1277E+00  0.1272E+00
     13.690  0.2154E-02  0.2195E-02  0.1277E+00  0.1273E+00
     13.708  0.2144E-02  0.2200E-02  0.1278E+00  0.1273E+00
     13.726  0.2140E-02  0.2205E-02  0.1278E+00  0.1274E+00
     13.743  0.2143E-02  0.2208E-02  0.1278E+00  0.1274E+00
     13.761  0.2156E-02  0.2208E-02  0.1279E+00  0.1274E+00
     13.779  0.2177E-02  0.2204E-02  0.1279E+00  0.1275E+00
     13.797  0.2207E-02  0.2197E-02  0.1279E+00  0.1275E+00
     13.814  0.2245E-02  0.2187E-02  0.1280E+00  0.1276E+00
     13.832  0.2290E-02  0.2176E-02  0.1280E+00  0.1276E+00
     13.850  0.2339E-02  0.2165E-02  0.1281E+00  0.1276E+00
     13.867  0.2393E-02  0.2154E-02  0.1281E+00  0.1277E+00
     13.885  0.2447E-02  0.2147E-02  0.1282E+00  0.1277E+00
     13.903  0.2501E-02  0.2142E-02  0.1282E+00  0.1277E+00
     13.921  0.2551E-02  0.2143E-02  0.1282E+00  0.1278E+00
     13.938  0.2596E-02  0.2148E-02  0.1283E+00  0.1278E+00
     13.956  0.2634E-02  0.2159E-02  0.1283E+00  0.1279E+00
     13.974  0.2662E-02  0.2175E-02  0.1284E+00  0.1279E+00
     13.992  0.2681E-02  0.2196E-02  0.1284E+00  0.1279E+00
     14.009  0.2691E-02  0.2223E-02  0.1285E+00  0.1280E+00
     14.027  0.2692E-02  0.2255E-02  0.1285E+00  0.1280E+00
     14.045  0.2687E-02  0.2293E-02  0.1286E+00  0.1281E+00
     14.062  0.2679E-02  0.2336E-02  0.1286E+00  0.1281E+00
     14.080  0.2671E-02  0.2383E-02  0.1287E+00  0.1281E+00
     14.098  0.2668E-02  0.2435E-02  0.1287E+00  0.1282E+00
     14.116  0.2673E-02  0.2489E-02  0.1288E+00  0.1282E+00
     14.133  0.2690E-02  0.2544E-02  0.1288E+00  0.1283E+00
     14.151  0.2721E-02  0.2597E-02  0.1289E+00  0.1283E+00
     14.169  0.2767E-02  0.2646E-02  0.1289E+00  0.1284E+00
     14.187  0.2828E-02  0.2688E-02  0.1290E+00  0.1284E+00
     14.204  0.2902E-02  0.2723E-02  0.1290E+00  0.1285E+00
     14.222  0.2984E-02  0.2749E-02  0.1291E+00  0.1285E+00
     14.240  0.3071E-02  0.2767E-02  0.1291E+00  0.1286E+00
     14.257  0.3158E-02  0.2778E-02  0.1292E+00  0.1286E+00
     14.275  0.3237E-02  0.2784E-02  0.1292E+00  0.1287E+00
     14.293  0.3306E-02  0.2789E-02  0.1293E+00  0.1287E+00
     14.311  0.3358E-02  0.2796E-02  0.1293E+00  0.1288E+00
     14.328  0.3391E-02  0.2809E-02  0.1294E+00  0.1288E+00
     14.346  0.3403E-02  0.2832E-02  0.1295E+00  0.1289E+00
     14.364  0.3394E-02  0.2866E-02  0.1295E+00  0.1289E+00
     14.382  0.3365E-02  0.2913E-02  0.1296E+00  0.1290E+00
     14.399  0.3319E-02  0.2972E-02  0.1296E+00  0.1290E+00
     14.417  0.3260E-02  0.3040E-02  0.1297E+00  0.1291E+00
     14.435  0.3192E-02  0.3115E-02  0.1298E+00  0.1291E+00
     14.453  0.3117E-02  0.3192E-02  0.1298E+00  0.1292E+00
     14.470  0.3041E-02  0.3265E-02  0.1299E+00  0.1292E+00
     14.488  0.2966E-02  0.3329E-02  0.1299E+00  0.1293E+00
     14.506  0.2895E-02  0.3381E-02  0.1300E+00  0.1294E+00
     14.523  0.2829E-02  0.3416E-02  0.1300E+00  0.1294E+00
     14.541  0.2769E-02  0.3432E-02  0.1301E+00  0.1295E+00
     14.559  0.2715E-02  0.3429E-02  0.1301E+00  0.1295E+00
     14.577  0.2667E-02  0.3406E-02  0.1302E+00  0.1296E+00
     14.594  0.2626E-02  0.3367E-02  0.1302E+00  0.1297E+00
     14.612  0.2590E-02  0.3313E-02  0.1303E+00  0.1297E+00
     14.630  0.2561E-02  0.3248E-02  0.1303E+00  0.1298E+00
     14.648  0.2539E-02  0.3176E-02  0.1304E+00  0.1298E+00
     14.665  0.2524E-02  0.3101E-02  0.1304E+00  0.1299E+00
     14.683  0.2518E-02  0.3025E-02  0.1304E+00  0.1299E+00
     14.701  0.2521E-02  0.2951E-02  0.1305E+00  0.1300E+00
     14.718  0.2537E-02  0.2881E-02  0.1305E+00  0.1300E+00
     14.736  0.2564E-02  0.2817E-02  0.1306E+00  0.1301E+00
     14.754  0.2606E-02  0.2759E-02  0.1306E+00  0.1301E+00
     14.772  0.2661E-02  0.2709E-02  0.1307E+00  0.1302E+00
     14.789  0.2731E-02  0.2667E-02  0.1307E+00  0.1302E+00
     14.807  0.2815E-02  0.2634E-02  0.1308E+00  0.1303E+00
     14.825  0.2912E-02  0.2610E-02  0.1308E+00  0.1303E+00
     14.843  0.3019E-02  0.2596E-02  0.1309E+00  0.1304E+00
     14.860  0.3134E-02  0.2592E-02  0.1309E+00  0.1304E+00
     14.878  0.3253E-02  0.2601E-02  0.1310E+00  0.1305E+00
     14.896  0.3372E-02  0.2621E-02  0.1310E+00  0.1305E+00
     14.914  0.3487E-02  0.2654E-02  0.1311E+00  0.1306E+00
     14.931  0.3593E-02  0.2700E-02  0.1312E+00  0.1306E+00
     14.949  0.3689E-02  0.2759E-02  0.1312E+00  0.1307E+00
     14.967  0.3769E-02  0.2831E-02  0.1313E+00  0.1307E+00
     14.984  0.3833E-02  0.2915E-02  0.1314E+00  0.1308E+00
     15.002  0.3881E-02  0.3009E-02  0.1314E+00  0.1308E+00
     15.020  0.3912E-02  0.3112E-02  0.1315E+00  0.1309E+00
     15.038  0.3930E-02  0.3221E-02  0.1316E+00  0.1309E+00
     15.055  0.3938E-02  0.3333E-02  0.1317E+00  0.1310E+00
     15.073  0.3938E-02  0.3445E-02  0.1317E+00  0.1310E+00
     15.091  0.3937E-02  0.3554E-02  0.1318E+00  0.1311E+00
     15.109  0.3936E-02  0.3656E-02  0.1319E+00  0.1312E+00
     15.126  0.3940E-02  0.3748E-02  0.1319E+00  0.1312E+00
     15.144  0.3950E-02  0.3829E-02  0.1320E+00  0.1313E+00
     15.162  0.3966E-02  0.3897E-02  0.1321E+00  0.1314E+00
     15.179  0.3988E-02  0.3951E-02  0.1321E+00  0.1314E+00
     15.197  0.4011E-02  0.3993E-02  0.1322E+00  0.1315E+00
     15.215  0.4033E-02  0.4025E-02  0.1323E+00  0.1316E+00
     15.233  0.4050E-02  0.4049E-02  0.1324E+00  0.1317E+00
     15.250  0.4055E-02  0.4069E-02  0.1324E+00  0.1317E+00
     15.268  0.4046E-02  0.4087E-02  0.1325E+00  0.1318E+00
     15.286  0.4019E-02  0.4105E-02  0.1326E+00  0.1319E+00
     15.304  0.3972E-02  0.4125E-02  0.1326E+00  0.1320E+00
     15.321  0.3906E-02  0.4148E-02  0.1327E+00  0.1320E+00
     15.339  0.3821E-02  0.4172E-02  0.1328E+00  0.1321E+00
     15.357  0.3721E-02  0.4196E-02  0.1328E+00  0.1322E+00
     15.375  0.3610E-02  0.4215E-02  0.1329E+00  0.1322E+00
     15.392  0.3495E-02  0.4226E-02  0.1330E+00  0.1323E+00
     15.410  0.3379E-02  0.4226E-02  0.1330E+00  0.1324E+00
     15.428  0.3269E-02  0.4209E-02  0.1331E+00  0.1325E+00
     15.445  0.3170E-02  0.4173E-02  0.1331E+00  0.1325E+00
     15.463  0.3086E-02  0.4117E-02  0.1332E+00  0.1326E+00
     15.481  0.3020E-02  0.4039E-02  0.1333E+00  0.1327E+00
     15.499  0.2974E-02  0.3942E-02  0.1333E+00  0.1328E+00
     15.516  0.2949E-02  0.3828E-02  0.1334E+00  0.1328E+00
     15.534  0.2943E-02  0.3702E-02  0.1334E+00  0.1329E+00
     15.552  0.2955E-02  0.3569E-02  0.1335E+00  0.1330E+00
     15.570  0.2983E-02  0.3436E-02  0.1335E+00  0.1330E+00
     15.587  0.3024E-02  0.3307E-02  0.1336E+00  0.1331E+00
     15.605  0.3074E-02  0.3190E-02  0.1336E+00  0.1331E+00
     15.623  0.3129E-02  0.3090E-02  0.1337E+00  0.1332E+00
     15.640  0.3186E-02  0.3011E-02  0.1337E+00  0.1332E+00
     15.658  0.3241E-02  0.2955E-02  0.1338E+00  0.1333E+00
     15.676  0.3291E-02  0.2924E-02  0.1339E+00  0.1333E+00
     15.694  0.3334E-02  0.2919E-02  0.1339E+00  0.1334E+00
     15.711  0.3366E-02  0.2938E-02  0.1340E+00  0.1335E+00
     15.729  0.3386E-02  0.2977E-02  0.1340E+00  0.1335E+00
     15.747  0.3393E-02  0.3033E-02  0.1341E+00  0.1336E+00
     15.765  0.3386E-02  0.3102E-02  0.1342E+00  0.1336E+00
     15.782  0.3366E-02  0.3178E-02  0.1342E+00  0.1337E+00
     15.800  0.3334E-02  0.3256E-02  0.1343E+00  0.1337E+00
     15.818  0.3291E-02  0.3331E-02  0.1343E+00  0.1338E+00
     15.836  0.3241E-02  0.3398E-02  0.1344E+00  0.1338E+00
     15.853  0.3187E-02  0.3453E-02  0.1344E+00  0.1339E+00
     15.871  0.3132E-02  0.3493E-02  0.1345E+00  0.1340E+00
     15.889  0.3080E-02  0.3515E-02  0.1346E+00  0.1340E+00
     15.906  0.3035E-02  0.3520E-02  0.1346E+00  0.1341E+00
     15.924  0.3002E-02  0.3507E-02  0.1347E+00  0.1342E+00
     15.942  0.2983E-02  0.3479E-02  0.1347E+00  0.1342E+00
     15.960  0.2981E-02  0.3438E-02  0.1348E+00  0.1343E+00
     15.977  0.2998E-02  0.3388E-02  0.1348E+00  0.1343E+00
     15.995  0.3035E-02  0.3333E-02  0.1349E+00  0.1344E+00
     16.013  0.3093E-02  0.3277E-02  0.1349E+00  0.1345E+00
     16.031  0.3171E-02  0.3226E-02  0.1350E+00  0.1345E+00
     16.048  0.3267E-02  0.3183E-02  0.1350E+00  0.1346E+00
     16.066  0.3379E-02  0.3152E-02  0.1351E+00  0.1346E+00
     16.084  0.3504E-02  0.3135E-02  0.1352E+00  0.1347E+00
     16.101  0.3639E-02  0.3134E-02  0.1352E+00  0.1347E+00
     16.119  0.3779E-02  0.3150E-02  0.1353E+00  0.1348E+00
     16.137  0.3919E-02  0.3184E-02  0.1354E+00  0.1348E+00
     16.155  0.4054E-02  0.3234E-02  0.1354E+00  0.1349E+00
     16.172  0.4180E-02  0.3300E-02  0.1355E+00  0.1350E+00
     16.190  0.4292E-02  0.3381E-02  0.1356E+00  0.1350E+00
     16.208  0.4386E-02  0.3473E-02  0.1357E+00  0.1351E+00
     16.226  0.4457E-02  0.3575E-02  0.1357E+00  0.1351E+00
     16.243  0.4503E-02  0.3685E-02  0.1358E+00  0.1352E+00
     16.261  0.4522E-02  0.3800E-02  0.1359E+00  0.1353E+00
     16.279  0.4513E-02  0.3917E-02  0.1360E+00  0.1354E+00
     16.296  0.4477E-02  0.4032E-02  0.1361E+00  0.1354E+00
     16.314  0.4415E-02  0.4142E-02  0.1361E+00  0.1355E+00
     16.332  0.4329E-02  0.4243E-02  0.1362E+00  0.1356E+00
     16.350  0.4223E-02  0.4331E-02  0.1363E+00  0.1356E+00
     16.367  0.4101E-02  0.4404E-02  0.1364E+00  0.1357E+00
     16.385  0.3966E-02  0.4457E-02  0.1364E+00  0.1358E+00
     16.403  0.3824E-02  0.4488E-02  0.1365E+00  0.1359E+00
     16.421  0.3677E-02  0.4495E-02  0.1366E+00  0.1360E+00
     16.438  0.3531E-02  0.4478E-02  0.1366E+00  0.1360E+00
     16.456  0.3388E-02  0.4436E-02  0.1367E+00  0.1361E+00
     16.474  0.3253E-02  0.4371E-02  0.1367E+00  0.1362E+00
     16.492  0.3127E-02  0.4284E-02  0.1368E+00  0.1363E+00
     16.509  0.3015E-02  0.4178E-02  0.1369E+00  0.1364E+00
     16.527  0.2918E-02  0.4056E-02  0.1369E+00  0.1364E+00
     16.545  0.2840E-02  0.3922E-02  0.1370E+00  0.1365E+00
     16.562  0.2782E-02  0.3780E-02  0.1370E+00  0.1366E+00
     16.580  0.2747E-02  0.3634E-02  0.1371E+00  0.1366E+00
     16.598  0.2737E-02  0.3487E-02  0.1371E+00  0.1367E+00
     16.616  0.2752E-02  0.3345E-02  0.1372E+00  0.1367E+00
     16.633  0.2791E-02  0.3212E-02  0.1372E+00  0.1368E+00
     16.651  0.2855E-02  0.3092E-02  0.1373E+00  0.1369E+00
     16.669  0.2941E-02  0.2990E-02  0.1373E+00  0.1369E+00
     16.687  0.3045E-02  0.2908E-02  0.1374E+00  0.1370E+00
     16.704  0.3164E-02  0.2850E-02  0.1374E+00  0.1370E+00
     16.722  0.3292E-02  0.2818E-02  0.1375E+00  0.1371E+00
     16.740  0.3425E-02  0.2815E-02  0.1375E+00  0.1371E+00
     16.757  0.3556E-02  0.2839E-02  0.1376E+00  0.1372E+00
     16.775  0.3681E-02  0.2892E-02  0.1377E+00  0.1372E+00
     16.793  0.3794E-02  0.2970E-02  0.1377E+00  0.1373E+00
     16.811  0.3891E-02  0.3070E-02  0.1378E+00  0.1373E+00
     16.828  0.3969E-02  0.3187E-02  0.1379E+00  0.1374E+00
     16.846  0.4027E-02  0.3316E-02  0.1379E+00  0.1374E+00
     16.864  0.4062E-02  0.3451E-02  0.1380E+00  0.1375E+00
     16.882  0.4077E-02  0.3586E-02  0.1381E+00  0.1376E+00
     16.899  0.4072E-02  0.3715E-02  0.1382E+00  0.1376E+00
     16.917  0.4050E-02  0.3831E-02  0.1382E+00  0.1377E+00
     16.935  0.4014E-02  0.3932E-02  0.1383E+00  0.1378E+00
     16.953  0.3969E-02  0.4013E-02  0.1384E+00  0.1378E+00
     16.970  0.3918E-02  0.4073E-02  0.1384E+00  0.1379E+00
     16.988  0.3866E-02  0.4110E-02  0.1385E+00  0.1380E+00
     17.006  0.3816E-02  0.4126E-02  0.1386E+00  0.1381E+00
     17.023  0.3771E-02  0.4123E-02  0.1386E+00  0.1381E+00
     17.041  0.3734E-02  0.4103E-02  0.1387E+00  0.1382E+00
     17.059  0.3705E-02  0.4069E-02  0.1388E+00  0.1383E+00
     17.077  0.3684E-02  0.4027E-02  0.1388E+00  0.1383E+00
     17.094  0.3669E-02  0.3980E-02  0.1389E+00  0.1384E+00
     17.112  0.3659E-02  0.3932E-02  0.1390E+00  0.1385E+00
     17.130  0.3650E-02  0.3886E-02  0.1390E+00  0.1386E+00
     17.148  0.3640E-02  0.3845E-02  0.1391E+00  0.1386E+00
     17.165  0.3627E-02  0.3810E-02  0.1392E+00  0.1387E+00
     17.183  0.3608E-02  0.3781E-02  0.1392E+00  0.1388E+00
     17.201  0.3583E-02  0.3758E-02  0.1393E+00  0.1388E+00
     17.218  0.3553E-02  0.3741E-02  0.1394E+00  0.1389E+00
     17.236  0.3520E-02  0.3727E-02  0.1394E+00  0.1390E+00
     17.254  0.3486E-02  0.3714E-02  0.1395E+00  0.1390E+00
     17.272  0.3456E-02  0.3700E-02  0.1395E+00  0.1391E+00
     17.289  0.3434E-02  0.3684E-02  0.1396E+00  0.1392E+00
     17.307  0.3424E-02  0.3665E-02  0.1397E+00  0.1392E+00
     17.325  0.3429E-02  0.3641E-02  0.1397E+00  0.1393E+00
     17.343  0.3451E-02  0.3615E-02  0.1398E+00  0.1393E+00
     17.360  0.3490E-02  0.3589E-02  0.1398E+00  0.1394E+00
     17.378  0.3544E-02  0.3563E-02  0.1399E+00  0.1395E+00
     17.396  0.3611E-02  0.3543E-02  0.1400E+00  0.1395E+00
     17.414  0.3686E-02  0.3532E-02  0.1400E+00  0.1396E+00
     17.431  0.3763E-02  0.3532E-02  0.1401E+00  0.1397E+00
     17.449  0.3835E-02  0.3546E-02  0.1402E+00  0.1397E+00
     17.467  0.3896E-02  0.3576E-02  0.1402E+00  0.1398E+00
     17.484  0.3940E-02  0.3621E-02  0.1403E+00  0.1398E+00
     17.502  0.3963E-02  0.3679E-02  0.1404E+00  0.1399E+00
     17.520  0.3962E-02  0.3747E-02  0.1405E+00  0.1400E+00
     17.538  0.3937E-02  0.3820E-02  0.1405E+00  0.1400E+00
     17.555  0.3890E-02  0.3891E-02  0.1406E+00  0.1401E+00
     17.573  0.3823E-02  0.3954E-02  0.1407E+00  0.1402E+00
     17.591  0.3742E-02  0.4002E-02  0.1407E+00  0.1403E+00
     17.609  0.3652E-02  0.4029E-02  0.1408E+00  0.1403E+00
     17.626  0.3561E-02  0.4033E-02  0.1409E+00  0.1404E+00
     17.644  0.3474E-02  0.4010E-02  0.1409E+00  0.1405E+00
     17.662  0.3397E-02  0.3961E-02  0.1410E+00  0.1405E+00
     17.679  0.3334E-02  0.3889E-02  0.1410E+00  0.1406E+00
     17.697  0.3290E-02  0.3797E-02  0.1411E+00  0.1407E+00
     17.715  0.3266E-02  0.3693E-02  0.1412E+00  0.1407E+00
     17.733  0.3264E-02  0.3584E-02  0.1412E+00  0.1408E+00
     17.750  0.3283E-02  0.3477E-02  0.1413E+00  0.1409E+00
     17.768  0.3323E-02  0.3379E-02  0.1413E+00  0.1409E+00
     17.786  0.3380E-02  0.3298E-02  0.1414E+00  0.1410E+00
     17.804  0.3453E-02  0.3239E-02  0.1414E+00  0.1410E+00
     17.821  0.3538E-02  0.3205E-02  0.1415E+00  0.1411E+00
     17.839  0.3633E-02  0.3199E-02  0.1416E+00  0.1412E+00
     17.857  0.3733E-02  0.3221E-02  0.1416E+00  0.1412E+00
     17.874  0.3835E-02  0.3270E-02  0.1417E+00  0.1413E+00
     17.892  0.3936E-02  0.3344E-02  0.1418E+00  0.1413E+00
     17.910  0.4032E-02  0.3439E-02  0.1418E+00  0.1414E+00
     17.928  0.4120E-02  0.3550E-02  0.1419E+00  0.1415E+00
     17.945  0.4198E-02  0.3674E-02  0.1420E+00  0.1415E+00
     17.963  0.4263E-02  0.3804E-02  0.1421E+00  0.1416E+00
     17.981  0.4313E-02  0.3936E-02  0.1421E+00  0.1417E+00
     17.999  0.4347E-02  0.4064E-02  0.1422E+00  0.1417E+00
     18.016  0.4364E-02  0.4184E-02  0.1423E+00  0.1418E+00
     18.034  0.4365E-02  0.4291E-02  0.1424E+00  0.1419E+00
     18.052  0.4351E-02  0.4383E-02  0.1425E+00  0.1420E+00
     18.070  0.4323E-02  0.4456E-02  0.1425E+00  0.1420E+00
     18.087  0.4282E-02  0.4507E-02  0.1426E+00  0.1421E+00
     18.105  0.4231E-02  0.4537E-02  0.1427E+00  0.1422E+00
     18.123  0.4171E-02  0.4544E-02  0.1428E+00  0.1423E+00
     18.140  0.4104E-02  0.4529E-02  0.1428E+00  0.1424E+00
     18.158  0.4032E-02  0.4494E-02  0.1429E+00  0.1424E+00
     18.176  0.3956E-02  0.4441E-02  0.1430E+00  0.1425E+00
     18.194  0.3877E-02  0.4373E-02  0.1430E+00  0.1426E+00
     18.211  0.3795E-02  0.4294E-02  0.1431E+00  0.1427E+00
     18.229  0.3713E-02  0.4208E-02  0.1432E+00  0.1427E+00
     18.247  0.3631E-02  0.4117E-02  0.1432E+00  0.1428E+00
     18.265  0.3549E-02  0.4025E-02  0.1433E+00  0.1429E+00
     18.282  0.3470E-02  0.3935E-02  0.1434E+00  0.1430E+00
     18.300  0.3394E-02  0.3849E-02  0.1434E+00  0.1430E+00
     18.318  0.3324E-02  0.3767E-02  0.1435E+00  0.1431E+00
     18.335  0.3260E-02  0.3691E-02  0.1435E+00  0.1432E+00
     18.353  0.3205E-02  0.3619E-02  0.1436E+00  0.1432E+00
     18.371  0.3158E-02  0.3553E-02  0.1437E+00  0.1433E+00
     18.389  0.3122E-02  0.3490E-02  0.1437E+00  0.1434E+00
     18.406  0.3096E-02  0.3431E-02  0.1438E+00  0.1434E+00
     18.424  0.3080E-02  0.3375E-02  0.1438E+00  0.1435E+00
     18.442  0.3074E-02  0.3322E-02  0.1439E+00  0.1435E+00
     18.460  0.3075E-02  0.3272E-02  0.1439E+00  0.1436E+00
     18.477  0.3083E-02  0.3227E-02  0.1440E+00  0.1436E+00
     18.495  0.3096E-02  0.3187E-02  0.1440E+00  0.1437E+00
     18.513  0.3113E-02  0.3155E-02  0.1441E+00  0.1438E+00
     18.531  0.3132E-02  0.3130E-02  0.1441E+00  0.1438E+00
     18.548  0.3152E-02  0.3114E-02  0.1442E+00  0.1439E+00
     18.566  0.3172E-02  0.3108E-02  0.1443E+00  0.1439E+00
     18.584  0.3193E-02  0.3111E-02  0.1443E+00  0.1440E+00
     18.601  0.3213E-02  0.3124E-02  0.1444E+00  0.1440E+00
     18.619  0.3234E-02  0.3145E-02  0.1444E+00  0.1441E+00
     18.637  0.3257E-02  0.3172E-02  0.1445E+00  0.1441E+00
     18.655  0.3280E-02  0.3205E-02  0.1445E+00  0.1442E+00
     18.672  0.3306E-02  0.3240E-02  0.1446E+00  0.1443E+00
     18.690  0.3335E-02  0.3276E-02  0.1447E+00  0.1443E+00
     18.708  0.3367E-02  0.3311E-02  0.1447E+00  0.1444E+00
     18.726  0.3402E-02  0.3344E-02  0.1448E+00  0.1444E+00
     18.743  0.3439E-02  0.3374E-02  0.1448E+00  0.1445E+00
     18.761  0.3478E-02  0.3399E-02  0.1449E+00  0.1446E+00
     18.779  0.3516E-02  0.3421E-02  0.1450E+00  0.1446E+00
     18.796  0.3553E-02  0.3441E-02  0.1450E+00  0.1447E+00
     18.814  0.3585E-02  0.3458E-02  0.1451E+00  0.1447E+00
     18.832  0.3610E-02  0.3475E-02  0.1452E+00  0.1448E+00
     18.850  0.3624E-02  0.3491E-02  0.1452E+00  0.1449E+00
     18.867  0.3624E-02  0.3509E-02  0.1453E+00  0.1449E+00
     18.885  0.3609E-02  0.3527E-02  0.1454E+00  0.1450E+00
     18.903  0.3575E-02  0.3546E-02  0.1454E+00  0.1451E+00
     18.921  0.3522E-02  0.3563E-02  0.1455E+00  0.1451E+00
     18.938  0.3449E-02  0.3576E-02  0.1455E+00  0.1452E+00
     18.956  0.3359E-02  0.3582E-02  0.1456E+00  0.1452E+00
     18.974  0.3253E-02  0.3578E-02  0.1457E+00  0.1453E+00
     18.992  0.3136E-02  0.3562E-02  0.1457E+00  0.1454E+00
     19.009  0.3011E-02  0.3529E-02  0.1458E+00  0.1454E+00
     19.027  0.2884E-02  0.3480E-02  0.1458E+00  0.1455E+00
     19.045  0.2760E-02  0.3412E-02  0.1459E+00  0.1456E+00
     19.062  0.2644E-02  0.3326E-02  0.1459E+00  0.1456E+00
     19.080  0.2539E-02  0.3225E-02  0.1460E+00  0.1457E+00
     19.098  0.2450E-02  0.3111E-02  0.1460E+00  0.1457E+00
     19.116  0.2378E-02  0.2989E-02  0.1460E+00  0.1458E+00
     19.133  0.2324E-02  0.2864E-02  0.1461E+00  0.1458E+00
     19.151  0.2289E-02  0.2741E-02  0.1461E+00  0.1459E+00
     19.169  0.2271E-02  0.2626E-02  0.1462E+00  0.1459E+00
     19.187  0.2268E-02  0.2524E-02  0.1462E+00  0.1460E+00
     19.204  0.2278E-02  0.2438E-02  0.1462E+00  0.1460E+00
     19.222  0.2298E-02  0.2371E-02  0.1463E+00  0.1461E+00
     19.240  0.2324E-02  0.2325E-02  0.1463E+00  0.1461E+00
     19.257  0.2354E-02  0.2300E-02  0.1464E+00  0.1461E+00
     19.275  0.2385E-02  0.2294E-02  0.1464E+00  0.1462E+00
     19.293  0.2413E-02  0.2306E-02  0.1465E+00  0.1462E+00
     19.311  0.2438E-02  0.2331E-02  0.1465E+00  0.1463E+00
     19.328  0.2457E-02  0.2365E-02  0.1465E+00  0.1463E+00
     19.346  0.2468E-02  0.2405E-02  0.1466E+00  0.1463E+00
     19.364  0.2471E-02  0.2445E-02  0.1466E+00  0.1464E+00
     19.382  0.2466E-02  0.2482E-02  0.1467E+00  0.1464E+00
     19.399  0.2452E-02  0.2513E-02  0.1467E+00  0.1465E+00
     19.417  0.2430E-02  0.2535E-02  0.1468E+00  0.1465E+00
     19.435  0.2401E-02  0.2545E-02  0.1468E+00  0.1466E+00
     19.453  0.2364E-02  0.2543E-02  0.1468E+00  0.1466E+00
     19.470  0.2321E-02  0.2529E-02  0.1469E+00  0.1467E+00
     19.488  0.2273E-02  0.2503E-02  0.1469E+00  0.1467E+00
     19.506  0.2221E-02  0.2467E-02  0.1470E+00  0.1467E+00
     19.523  0.2165E-02  0.2422E-02  0.1470E+00  0.1468E+00
     19.541  0.2106E-02  0.2369E-02  0.1470E+00  0.1468E+00
     19.559  0.2045E-02  0.2312E-02  0.1471E+00  0.1469E+00
     19.577  0.1982E-02  0.2250E-02  0.1471E+00  0.1469E+00
     19.594  0.1917E-02  0.2187E-02  0.1471E+00  0.1469E+00
     19.612  0.1851E-02  0.2123E-02  0.1472E+00  0.1470E+00
     19.630  0.1785E-02  0.2058E-02  0.1472E+00  0.1470E+00
     19.648  0.1721E-02  0.1994E-02  0.1472E+00  0.1471E+00
     19.665  0.1660E-02  0.1931E-02  0.1473E+00  0.1471E+00
     19.683  0.1603E-02  0.1869E-02  0.1473E+00  0.1471E+00
     19.701  0.1552E-02  0.1808E-02  0.1473E+00  0.1472E+00
     19.718  0.1509E-02  0.1748E-02  0.1474E+00  0.1472E+00
     19.736  0.1475E-02  0.1691E-02  0.1474E+00  0.1472E+00
     19.754  0.1452E-02  0.1638E-02  0.1474E+00  0.1472E+00
     19.772  0.1439E-02  0.1591E-02  0.1474E+00  0.1473E+00
     19.789  0.1436E-02  0.1550E-02  0.1475E+00  0.1473E+00
     19.807  0.1441E-02  0.1517E-02  0.1475E+00  0.1473E+00
     19.825  0.1455E-02  0.1494E-02  0.1475E+00  0.1474E+00
     19.843  0.1473E-02  0.1481E-02  0.1475E+00  0.1474E+00
     19.860  0.1493E-02  0.1480E-02  0.1476E+00  0.1474E+00
     19.878  0.1513E-02  0.1489E-02  0.1476E+00  0.1474E+00
     19.896  0.1528E-02  0.1507E-02  0.1476E+00  0.1475E+00
     19.913  0.1536E-02  0.1533E-02  0.1476E+00  0.1475E+00
     19.931  0.1534E-02  0.1563E-02  0.1477E+00  0.1475E+00
     19.949  0.1520E-02  0.1595E-02  0.1477E+00  0.1475E+00
     19.967  0.1490E-02  0.1624E-02  0.1477E+00  0.1476E+00
     19.984  0.1445E-02  0.1647E-02  0.1477E+00  0.1476E+00
     20.002  0.1383E-02  0.1660E-02  0.1478E+00  0.1476E+00
     20.020  0.1306E-02  0.1659E-02  0.1478E+00  0.1477E+00
     20.038  0.1215E-02  0.1643E-02  0.1478E+00  0.1477E+00
     20.055  0.1112E-02  0.1608E-02  0.1478E+00  0.1477E+00
     20.073  0.1002E-02  0.1553E-02  0.1479E+00  0.1477E+00
     20.091  0.8881E-03  0.1480E-02  0.1479E+00  0.1478E+00
     20.109  0.7759E-03  0.1389E-02  0.1479E+00  0.1478E+00
     20.126  0.6704E-03  0.1282E-02  0.1479E+00  0.1478E+00
     20.144  0.5766E-03  0.1164E-02  0.1479E+00  0.1478E+00
     20.162  0.4990E-03  0.1038E-02  0.1479E+00  0.1479E+00
     20.179  0.4412E-03  0.9110E-03  0.1479E+00  0.1479E+00
     20.197  0.4057E-03  0.7874E-03  0.1479E+00  0.1479E+00
     20.215  0.3933E-03  0.6732E-03  0.1479E+00  0.1479E+00
     20.233  0.4035E-03  0.5736E-03  0.1479E+00  0.1479E+00
     20.250  0.4344E-03  0.4931E-03  0.1480E+00  0.1479E+00
     20.268  0.4825E-03  0.4349E-03  0.1480E+00  0.1479E+00
     20.286  0.5434E-03  0.4010E-03  0.1480E+00  0.1479E+00
     20.304  0.6121E-03  0.3918E-03  0.1480E+00  0.1479E+00
     20.321  0.6831E-03  0.4061E-03  0.1480E+00  0.1479E+00
     20.339  0.7512E-03  0.4411E-03  0.1480E+00  0.1480E+00
     20.357  0.8118E-03  0.4930E-03  0.1480E+00  0.1480E+00
     20.374  0.8614E-03  0.5568E-03  0.1480E+00  0.1480E+00
     20.392  0.8974E-03  0.6272E-03  0.1481E+00  0.1480E+00
     20.410  0.9188E-03  0.6987E-03  0.1481E+00  0.1480E+00
     20.428  0.9257E-03  0.7662E-03  0.1481E+00  0.1480E+00
     20.445  0.9195E-03  0.8252E-03  0.1481E+00  0.1480E+00
     20.463  0.9026E-03  0.8725E-03  0.1481E+00  0.1480E+00
     20.481  0.8779E-03  0.9062E-03  0.1481E+00  0.1481E+00
     20.499  0.8487E-03  0.9255E-03  0.1481E+00  0.1481E+00
     20.516  0.8181E-03  0.9310E-03  0.1482E+00  0.1481E+00
     20.534  0.7892E-03  0.9244E-03  0.1482E+00  0.1481E+00
     20.552  0.7639E-03  0.9082E-03  0.1482E+00  0.1481E+00
     20.570  0.7438E-03  0.8854E-03  0.1482E+00  0.1481E+00
     20.587  0.7296E-03  0.8591E-03  0.1482E+00  0.1482E+00
     20.605  0.7210E-03  0.8322E-03  0.1482E+00  0.1482E+00
     20.623  0.7174E-03  0.8073E-03  0.1482E+00  0.1482E+00
     20.640  0.7174E-03  0.7860E-03  0.1483E+00  0.1482E+00
     20.658  0.7195E-03  0.7694E-03  0.1483E+00  0.1482E+00
     20.676  0.7220E-03  0.7576E-03  0.1483E+00  0.1482E+00
     20.694  0.7235E-03  0.7503E-03  0.1483E+00  0.1482E+00
     20.711  0.7228E-03  0.7465E-03  0.1483E+00  0.1483E+00
     20.729  0.7188E-03  0.7447E-03  0.1483E+00  0.1483E+00
     20.747  0.7113E-03  0.7435E-03  0.1483E+00  0.1483E+00
     20.765  0.7002E-03  0.7415E-03  0.1483E+00  0.1483E+00
     20.782  0.6859E-03  0.7374E-03  0.1484E+00  0.1483E+00
     20.800  0.6692E-03  0.7303E-03  0.1484E+00  0.1483E+00
     20.818  0.6508E-03  0.7199E-03  0.1484E+00  0.1483E+00
     20.835  0.6318E-03  0.7061E-03  0.1484E+00  0.1483E+00
     20.853  0.6133E-03  0.6894E-03  0.1484E+00  0.1484E+00
     20.871  0.5958E-03  0.6704E-03  0.1484E+00  0.1484E+00
     20.889  0.5801E-03  0.6501E-03  0.1484E+00  0.1484E+00
     20.906  0.5663E-03  0.6295E-03  0.1484E+00  0.1484E+00
     20.924  0.5544E-03  0.6097E-03  0.1484E+00  0.1484E+00
     20.942  0.5440E-03  0.5916E-03  0.1485E+00  0.1484E+00
     20.960  0.5343E-03  0.5755E-03  0.1485E+00  0.1484E+00
     20.977  0.5248E-03  0.5619E-03  0.1485E+00  0.1484E+00
     20.995  0.5146E-03  0.5506E-03  0.1485E+00  0.1484E+00
     21.013  0.5031E-03  0.5412E-03  0.1485E+00  0.1484E+00
     21.031  0.4900E-03  0.5330E-03  0.1485E+00  0.1485E+00
     21.048  0.4754E-03  0.5251E-03  0.1485E+00  0.1485E+00
     21.066  0.4598E-03  0.5167E-03  0.1485E+00  0.1485E+00
     21.084  0.4442E-03  0.5070E-03  0.1485E+00  0.1485E+00
     21.101  0.4298E-03  0.4957E-03  0.1485E+00  0.1485E+00
     21.119  0.4182E-03  0.4827E-03  0.1485E+00  0.1485E+00
     21.137  0.4113E-03  0.4685E-03  0.1485E+00  0.1485E+00
     21.155  0.4104E-03  0.4540E-03  0.1486E+00  0.1485E+00
     21.172  0.4168E-03  0.4405E-03  0.1486E+00  0.1485E+00
     21.190  0.4314E-03  0.4298E-03  0.1486E+00  0.1485E+00
     21.208  0.4539E-03  0.4235E-03  0.1486E+00  0.1485E+00
     21.226  0.4838E-03  0.4232E-03  0.1486E+00  0.1485E+00
     21.243  0.5194E-03  0.4303E-03  0.1486E+00  0.1486E+00
     21.261  0.5585E-03  0.4456E-03  0.1486E+00  0.1486E+00
     21.279  0.5982E-03  0.4689E-03  0.1486E+00  0.1486E+00
     21.296  0.6354E-03  0.4995E-03  0.1486E+00  0.1486E+00
     21.314  0.6667E-03  0.5358E-03  0.1486E+00  0.1486E+00
     21.332  0.6891E-03  0.5753E-03  0.1486E+00  0.1486E+00
     21.350  0.7001E-03  0.6151E-03  0.1487E+00  0.1486E+00
     21.367  0.6980E-03  0.6519E-03  0.1487E+00  0.1486E+00
     21.385  0.6819E-03  0.6823E-03  0.1487E+00  0.1486E+00
     21.403  0.6520E-03  0.7032E-03  0.1487E+00  0.1486E+00
     21.421  0.6096E-03  0.7122E-03  0.1487E+00  0.1487E+00
     21.438  0.5569E-03  0.7076E-03  0.1487E+00  0.1487E+00
     21.456  0.4969E-03  0.6887E-03  0.1487E+00  0.1487E+00
     21.474  0.4330E-03  0.6560E-03  0.1487E+00  0.1487E+00
     21.491  0.3691E-03  0.6110E-03  0.1487E+00  0.1487E+00
     21.509  0.3091E-03  0.5561E-03  0.1487E+00  0.1487E+00
     21.527  0.2565E-03  0.4945E-03  0.1487E+00  0.1487E+00
     21.545  0.2148E-03  0.4300E-03  0.1488E+00  0.1487E+00
     21.562  0.1865E-03  0.3665E-03  0.1488E+00  0.1487E+00
     21.580  0.1737E-03  0.3079E-03  0.1488E+00  0.1487E+00
     21.598  0.1773E-03  0.2579E-03  0.1488E+00  0.1488E+00
     21.616  0.1976E-03  0.2197E-03  0.1488E+00  0.1488E+00
     21.633  0.2341E-03  0.1958E-03  0.1488E+00  0.1488E+00
     21.651  0.2850E-03  0.1878E-03  0.1488E+00  0.1488E+00
     21.669  0.3479E-03  0.1967E-03  0.1488E+00  0.1488E+00
     21.687  0.4196E-03  0.2221E-03  0.1488E+00  0.1488E+00
     21.704  0.4961E-03  0.2630E-03  0.1488E+00  0.1488E+00
     21.722  0.5732E-03  0.3175E-03  0.1488E+00  0.1488E+00
     21.740  0.6463E-03  0.3827E-03  0.1488E+00  0.1488E+00
     21.757  0.7108E-03  0.4549E-03  0.1488E+00  0.1488E+00
     21.775  0.7628E-03  0.5300E-03  0.1488E+00  0.1488E+00
     21.793  0.7989E-03  0.6036E-03  0.1489E+00  0.1488E+00
     21.811  0.8166E-03  0.6712E-03  0.1489E+00  0.1488E+00
     21.828  0.8146E-03  0.7284E-03  0.1489E+00  0.1488E+00
     21.846  0.7931E-03  0.7716E-03  0.1489E+00  0.1489E+00
     21.864  0.7533E-03  0.7979E-03  0.1489E+00  0.1489E+00
     21.882  0.6977E-03  0.8056E-03  0.1489E+00  0.1489E+00
     21.899  0.6297E-03  0.7940E-03  0.1489E+00  0.1489E+00
     21.917  0.5535E-03  0.7639E-03  0.1489E+00  0.1489E+00
     21.935  0.4737E-03  0.7171E-03  0.1490E+00  0.1489E+00
     21.952  0.3948E-03  0.6566E-03  0.1490E+00  0.1489E+00
     21.970  0.3209E-03  0.5862E-03  0.1490E+00  0.1489E+00
     21.988  0.2559E-03  0.5102E-03  0.1490E+00  0.1490E+00
     22.006  0.2026E-03  0.4331E-03  0.1490E+00  0.1490E+00
     22.023  0.1629E-03  0.3592E-03  0.1490E+00  0.1490E+00
     22.041  0.1378E-03  0.2923E-03  0.1490E+00  0.1490E+00
     22.059  0.1274E-03  0.2358E-03  0.1490E+00  0.1490E+00
     22.077  0.1306E-03  0.1918E-03  0.1490E+00  0.1490E+00
     22.094  0.1459E-03  0.1618E-03  0.1490E+00  0.1490E+00
     22.112  0.1712E-03  0.1462E-03  0.1490E+00  0.1490E+00
     22.130  0.2039E-03  0.1443E-03  0.1490E+00  0.1490E+00
     22.148  0.2415E-03  0.1549E-03  0.1490E+00  0.1490E+00
     22.165  0.2813E-03  0.1760E-03  0.1490E+00  0.1490E+00
     22.183  0.3211E-03  0.2052E-03  0.1490E+00  0.1490E+00
     22.201  0.3591E-03  0.2401E-03  0.1490E+00  0.1490E+00
     22.218  0.3938E-03  0.2781E-03  0.1490E+00  0.1490E+00
     22.236  0.4244E-03  0.3168E-03  0.1490E+00  0.1490E+00
     22.254  0.4507E-03  0.3545E-03  0.1490E+00  0.1490E+00
     22.272  0.4728E-03  0.3897E-03  0.1491E+00  0.1490E+00
     22.289  0.4911E-03  0.4215E-03  0.1491E+00  0.1490E+00
     22.307  0.5064E-03  0.4496E-03  0.1491E+00  0.1490E+00
     22.325  0.5193E-03  0.4740E-03  0.1491E+00  0.1490E+00
     22.343  0.5304E-03  0.4951E-03  0.1491E+00  0.1491E+00
     22.360  0.5400E-03  0.5135E-03  0.1491E+00  0.1491E+00
     22.378  0.5481E-03  0.5297E-03  0.1491E+00  0.1491E+00
     22.396  0.5546E-03  0.5441E-03  0.1491E+00  0.1491E+00
     22.413  0.5589E-03  0.5568E-03  0.1491E+00  0.1491E+00
     22.431  0.5604E-03  0.5675E-03  0.1491E+00  0.1491E+00
     22.449  0.5585E-03  0.5760E-03  0.1491E+00  0.1491E+00
     22.467  0.5526E-03  0.5814E-03  0.1492E+00  0.1491E+00
     22.484  0.5426E-03  0.5830E-03  0.1492E+00  0.1491E+00
     22.502  0.5286E-03  0.5802E-03  0.1492E+00  0.1491E+00
     22.520  0.5110E-03  0.5723E-03  0.1492E+00  0.1492E+00
     22.538  0.4907E-03  0.5594E-03  0.1492E+00  0.1492E+00
     22.555  0.4688E-03  0.5417E-03  0.1492E+00  0.1492E+00
     22.573  0.4466E-03  0.5199E-03  0.1492E+00  0.1492E+00
     22.591  0.4254E-03  0.4952E-03  0.1492E+00  0.1492E+00
     22.609  0.4064E-03  0.4691E-03  0.1492E+00  0.1492E+00
     22.626  0.3904E-03  0.4431E-03  0.1492E+00  0.1492E+00
     22.644  0.3780E-03  0.4188E-03  0.1492E+00  0.1492E+00
     22.662  0.3693E-03  0.3975E-03  0.1492E+00  0.1492E+00
     22.679  0.3638E-03  0.3803E-03  0.1492E+00  0.1492E+00
     22.697  0.3610E-03  0.3676E-03  0.1493E+00  0.1492E+00
     22.715  0.3596E-03  0.3594E-03  0.1493E+00  0.1492E+00
     22.733  0.3584E-03  0.3551E-03  0.1493E+00  0.1493E+00
     22.750  0.3562E-03  0.3538E-03  0.1493E+00  0.1493E+00
     22.768  0.3516E-03  0.3541E-03  0.1493E+00  0.1493E+00
     22.786  0.3436E-03  0.3545E-03  0.1493E+00  0.1493E+00
     22.804  0.3314E-03  0.3534E-03  0.1493E+00  0.1493E+00
     22.821  0.3146E-03  0.3493E-03  0.1493E+00  0.1493E+00
     22.839  0.2931E-03  0.3412E-03  0.1493E+00  0.1493E+00
     22.857  0.2674E-03  0.3282E-03  0.1493E+00  0.1493E+00
     22.874  0.2383E-03  0.3101E-03  0.1493E+00  0.1493E+00
     22.892  0.2069E-03  0.2870E-03  0.1493E+00  0.1493E+00
     22.910  0.1748E-03  0.2596E-03  0.1493E+00  0.1493E+00
     22.928  0.1437E-03  0.2291E-03  0.1493E+00  0.1493E+00
     22.945  0.1155E-03  0.1968E-03  0.1493E+00  0.1493E+00
     22.963  0.9217E-04  0.1647E-03  0.1493E+00  0.1493E+00
     22.981  0.7570E-04  0.1348E-03  0.1493E+00  0.1493E+00
     22.999  0.6780E-04  0.1092E-03  0.1493E+00  0.1493E+00
     23.016  0.6989E-04  0.8999E-04  0.1493E+00  0.1493E+00
     23.034  0.8293E-04  0.7907E-04  0.1493E+00  0.1493E+00
     23.052  0.1073E-03  0.7802E-04  0.1493E+00  0.1493E+00
     23.069  0.1428E-03  0.8793E-04  0.1493E+00  0.1493E+00
     23.087  0.1882E-03  0.1093E-03  0.1493E+00  0.1493E+00
     23.105  0.2419E-03  0.1420E-03  0.1493E+00  0.1493E+00
     23.123  0.3014E-03  0.1851E-03  0.1493E+00  0.1493E+00
     23.140  0.3636E-03  0.2369E-03  0.1494E+00  0.1493E+00
     23.158  0.4253E-03  0.2952E-03  0.1494E+00  0.1493E+00
     23.176  0.4828E-03  0.3568E-03  0.1494E+00  0.1494E+00
     23.194  0.5328E-03  0.4185E-03  0.1494E+00  0.1494E+00
     23.211  0.5724E-03  0.4769E-03  0.1494E+00  0.1494E+00
     23.229  0.5991E-03  0.5283E-03  0.1494E+00  0.1494E+00
     23.247  0.6116E-03  0.5699E-03  0.1494E+00  0.1494E+00
     23.265  0.6093E-03  0.5991E-03  0.1494E+00  0.1494E+00
     23.282  0.5926E-03  0.6143E-03  0.1494E+00  0.1494E+00
     23.300  0.5629E-03  0.6148E-03  0.1494E+00  0.1494E+00
     23.318  0.5224E-03  0.6007E-03  0.1495E+00  0.1494E+00
     23.335  0.4737E-03  0.5733E-03  0.1495E+00  0.1494E+00
     23.353  0.4200E-03  0.5346E-03  0.1495E+00  0.1495E+00
     23.371  0.3645E-03  0.4872E-03  0.1495E+00  0.1495E+00
     23.389  0.3101E-03  0.4342E-03  0.1495E+00  0.1495E+00
     23.406  0.2595E-03  0.3787E-03  0.1495E+00  0.1495E+00
     23.424  0.2151E-03  0.3239E-03  0.1495E+00  0.1495E+00
     23.442  0.1784E-03  0.2726E-03  0.1495E+00  0.1495E+00
     23.460  0.1505E-03  0.2271E-03  0.1495E+00  0.1495E+00
     23.477  0.1319E-03  0.1893E-03  0.1495E+00  0.1495E+00
     23.495  0.1226E-03  0.1604E-03  0.1495E+00  0.1495E+00
     23.513  0.1220E-03  0.1408E-03  0.1495E+00  0.1495E+00
     23.530  0.1291E-03  0.1306E-03  0.1495E+00  0.1495E+00
     23.548  0.1428E-03  0.1291E-03  0.1495E+00  0.1495E+00
     23.566  0.1615E-03  0.1354E-03  0.1495E+00  0.1495E+00
     23.584  0.1836E-03  0.1481E-03  0.1495E+00  0.1495E+00
     23.601  0.2074E-03  0.1656E-03  0.1495E+00  0.1495E+00
     23.619  0.2312E-03  0.1863E-03  0.1495E+00  0.1495E+00
     23.637  0.2534E-03  0.2083E-03  0.1495E+00  0.1495E+00
     23.655  0.2727E-03  0.2301E-03  0.1495E+00  0.1495E+00
     23.672  0.2878E-03  0.2501E-03  0.1495E+00  0.1495E+00
     23.690  0.2978E-03  0.2669E-03  0.1495E+00  0.1495E+00
     23.708  0.3021E-03  0.2795E-03  0.1495E+00  0.1495E+00
     23.726  0.3003E-03  0.2872E-03  0.1496E+00  0.1495E+00
     23.743  0.2927E-03  0.2895E-03  0.1496E+00  0.1495E+00
     23.761  0.2796E-03  0.2862E-03  0.1496E+00  0.1496E+00
     23.779  0.2616E-03  0.2777E-03  0.1496E+00  0.1496E+00
     23.796  0.2400E-03  0.2644E-03  0.1496E+00  0.1496E+00
     23.814  0.2158E-03  0.2472E-03  0.1496E+00  0.1496E+00
     23.832  0.1904E-03  0.2270E-03  0.1496E+00  0.1496E+00
     23.850  0.1654E-03  0.2052E-03  0.1496E+00  0.1496E+00
     23.867  0.1422E-03  0.1830E-03  0.1496E+00  0.1496E+00
     23.885  0.1221E-03  0.1617E-03  0.1496E+00  0.1496E+00
     23.903  0.1063E-03  0.1428E-03  0.1496E+00  0.1496E+00
     23.921  0.9581E-04  0.1274E-03  0.1496E+00  0.1496E+00
     23.938  0.9119E-04  0.1165E-03  0.1496E+00  0.1496E+00
     23.956  0.9266E-04  0.1109E-03  0.1496E+00  0.1496E+00
     23.974  0.1001E-03  0.1108E-03  0.1496E+00  0.1496E+00
     23.991  0.1129E-03  0.1163E-03  0.1496E+00  0.1496E+00
     24.009  0.1303E-03  0.1271E-03  0.1496E+00  0.1496E+00
     24.027  0.1512E-03  0.1425E-03  0.1496E+00  0.1496E+00
     24.045  0.1741E-03  0.1616E-03  0.1496E+00  0.1496E+00
     24.062  0.1979E-03  0.1832E-03  0.1496E+00  0.1496E+00
     24.080  0.2210E-03  0.2060E-03  0.1496E+00  0.1496E+00
     24.098  0.2426E-03  0.2290E-03  0.1496E+00  0.1496E+00
     24.116  0.2615E-03  0.2509E-03  0.1496E+00  0.1496E+00
     24.133  0.2772E-03  0.2707E-03  0.1496E+00  0.1496E+00
     24.151  0.2894E-03  0.2879E-03  0.1496E+00  0.1496E+00
     24.169  0.2980E-03  0.3018E-03  0.1496E+00  0.1496E+00
     24.187  0.3032E-03  0.3123E-03  0.1496E+00  0.1496E+00
     24.204  0.3053E-03  0.3193E-03  0.1496E+00  0.1496E+00
     24.222  0.3048E-03  0.3228E-03  0.1497E+00  0.1496E+00
     24.240  0.3020E-03  0.3231E-03  0.1497E+00  0.1497E+00
     24.257  0.2972E-03  0.3202E-03  0.1497E+00  0.1497E+00
     24.275  0.2907E-03  0.3145E-03  0.1497E+00  0.1497E+00
     24.293  0.2826E-03  0.3061E-03  0.1497E+00  0.1497E+00
     24.311  0.2729E-03  0.2950E-03  0.1497E+00  0.1497E+00
     24.328  0.2617E-03  0.2816E-03  0.1497E+00  0.1497E+00
     24.346  0.2491E-03  0.2662E-03  0.1497E+00  0.1497E+00
     24.364  0.2353E-03  0.2490E-03  0.1497E+00  0.1497E+00
     24.382  0.2207E-03  0.2307E-03  0.1497E+00  0.1497E+00
     24.399  0.2057E-03  0.2121E-03  0.1497E+00  0.1497E+00
     24.417  0.1912E-03  0.1939E-03  0.1497E+00  0.1497E+00
     24.435  0.1780E-03  0.1772E-03  0.1497E+00  0.1497E+00
     24.452  0.1668E-03  0.1630E-03  0.1497E+00  0.1497E+00
     24.470  0.1585E-03  0.1519E-03  0.1497E+00  0.1497E+00
     24.488  0.1537E-03  0.1449E-03  0.1497E+00  0.1497E+00
     24.506  0.1526E-03  0.1421E-03  0.1497E+00  0.1497E+00
     24.523  0.1551E-03  0.1437E-03  0.1497E+00  0.1497E+00
     24.541  0.1610E-03  0.1492E-03  0.1497E+00  0.1497E+00
     24.559  0.1694E-03  0.1579E-03  0.1497E+00  0.1497E+00
     24.577  0.1791E-03  0.1686E-03  0.1497E+00  0.1497E+00
     24.594  0.1891E-03  0.1800E-03  0.1497E+00  0.1497E+00
     24.612  0.1978E-03  0.1906E-03  0.1497E+00  0.1497E+00
     24.630  0.2041E-03  0.1991E-03  0.1497E+00  0.1497E+00
     24.648  0.2068E-03  0.2043E-03  0.1497E+00  0.1497E+00
     24.665  0.2052E-03  0.2052E-03  0.1497E+00  0.1497E+00
     24.683  0.1989E-03  0.2013E-03  0.1497E+00  0.1497E+00
     24.701  0.1881E-03  0.1928E-03  0.1498E+00  0.1498E+00
     24.718  0.1731E-03  0.1799E-03  0.1498E+00  0.1498E+00
     24.736  0.1550E-03  0.1637E-03  0.1498E+00  0.1498E+00
     24.754  0.1350E-03  0.1454E-03  0.1498E+00  0.1498E+00
     24.772  0.1145E-03  0.1264E-03  0.1498E+00  0.1498E+00
     24.789  0.9506E-04  0.1084E-03  0.1498E+00  0.1498E+00
     24.807  0.7816E-04  0.9298E-04  0.1498E+00  0.1498E+00
     24.825  0.6516E-04  0.8149E-04  0.1498E+00  0.1498E+00
     24.843  0.5719E-04  0.7509E-04  0.1498E+00  0.1498E+00
     24.860  0.5503E-04  0.7456E-04  0.1498E+00  0.1498E+00
     24.878  0.5912E-04  0.8026E-04  0.1498E+00  0.1498E+00
     24.896  0.6949E-04  0.9214E-04  0.1498E+00  0.1498E+00
     24.913  0.8576E-04  0.1097E-03  0.1498E+00  0.1498E+00
     24.931  0.1072E-03  0.1320E-03  0.1498E+00  0.1498E+00
     24.949  0.1328E-03  0.1580E-03  0.1498E+00  0.1498E+00
     24.967  0.1613E-03  0.1861E-03  0.1498E+00  0.1498E+00
     24.984  0.1911E-03  0.2148E-03  0.1498E+00  0.1498E+00
     25.002  0.2207E-03  0.2426E-03  0.1498E+00  0.1498E+00
     25.020  0.2487E-03  0.2679E-03  0.1498E+00  0.1498E+00
     25.038  0.2735E-03  0.2894E-03  0.1498E+00  0.1498E+00
     25.055  0.2940E-03  0.3058E-03  0.1498E+00  0.1498E+00
     25.073  0.3090E-03  0.3164E-03  0.1498E+00  0.1498E+00
     25.091  0.3180E-03  0.3207E-03  0.1498E+00  0.1498E+00
     25.108  0.3206E-03  0.3185E-03  0.1498E+00  0.1498E+00
     25.126  0.3167E-03  0.3100E-03  0.1498E+00  0.1498E+00
     25.144  0.3067E-03  0.2957E-03  0.1498E+00  0.1498E+00
     25.162  0.2912E-03  0.2765E-03  0.1498E+00  0.1498E+00
     25.179  0.2711E-03  0.2535E-03  0.1498E+00  0.1498E+00
     25.197  0.2474E-03  0.2278E-03  0.1498E+00  0.1498E+00
     25.215  0.2214E-03  0.2007E-03  0.1498E+00  0.1499E+00
     25.233  0.1942E-03  0.1736E-03  0.1499E+00  0.1499E+00
     25.250  0.1672E-03  0.1478E-03  0.1499E+00  0.1499E+00
     25.268  0.1415E-03  0.1242E-03  0.1499E+00  0.1499E+00
     25.286  0.1182E-03  0.1037E-03  0.1499E+00  0.1499E+00
     25.304  0.9802E-04  0.8688E-04  0.1499E+00  0.1499E+00
     25.321  0.8152E-04  0.7405E-04  0.1499E+00  0.1499E+00
     25.339  0.6901E-04  0.6515E-04  0.1499E+00  0.1499E+00
     25.357  0.6047E-04  0.5988E-04  0.1499E+00  0.1499E+00
     25.374  0.5563E-04  0.5769E-04  0.1499E+00  0.1499E+00
     25.392  0.5399E-04  0.5782E-04  0.1499E+00  0.1499E+00
     25.410  0.5485E-04  0.5946E-04  0.1499E+00  0.1499E+00
     25.428  0.5739E-04  0.6173E-04  0.1499E+00  0.1499E+00
     25.445  0.6075E-04  0.6386E-04  0.1499E+00  0.1499E+00
     25.463  0.6408E-04  0.6519E-04  0.1499E+00  0.1499E+00
     25.481  0.6666E-04  0.6527E-04  0.1499E+00  0.1499E+00
     25.499  0.6791E-04  0.6390E-04  0.1499E+00  0.1499E+00
     25.516  0.6748E-04  0.6115E-04  0.1499E+00  0.1499E+00
     25.534  0.6526E-04  0.5730E-04  0.1499E+00  0.1499E+00
     25.552  0.6140E-04  0.5288E-04  0.1499E+00  0.1499E+00
     25.569  0.5626E-04  0.4854E-04  0.1499E+00  0.1499E+00
     25.587  0.5041E-04  0.4504E-04  0.1499E+00  0.1499E+00
     25.605  0.4456E-04  0.4313E-04  0.1499E+00  0.1499E+00
     25.623  0.3949E-04  0.4348E-04  0.1499E+00  0.1499E+00
     25.640  0.3597E-04  0.4658E-04  0.1499E+00  0.1499E+00
     25.658  0.3470E-04  0.5276E-04  0.1499E+00  0.1499E+00
     25.676  0.3623E-04  0.6203E-04  0.1499E+00  0.1499E+00
     25.694  0.4092E-04  0.7419E-04  0.1499E+00  0.1499E+00
     25.711  0.4885E-04  0.8875E-04  0.1499E+00  0.1499E+00
     25.729  0.5988E-04  0.1050E-03  0.1499E+00  0.1499E+00
     25.747  0.7360E-04  0.1221E-03  0.1499E+00  0.1499E+00
     25.765  0.8935E-04  0.1392E-03  0.1499E+00  0.1499E+00
     25.782  0.1063E-03  0.1552E-03  0.1499E+00  0.1499E+00
     25.800  0.1236E-03  0.1693E-03  0.1499E+00  0.1499E+00
     25.818  0.1403E-03  0.1808E-03  0.1499E+00  0.1499E+00
     25.835  0.1554E-03  0.1892E-03  0.1499E+00  0.1499E+00
     25.853  0.1681E-03  0.1941E-03  0.1499E+00  0.1499E+00
     25.871  0.1780E-03  0.1955E-03  0.1499E+00  0.1499E+00
     25.889  0.1846E-03  0.1935E-03  0.1499E+00  0.1499E+00
     25.906  0.1878E-03  0.1884E-03  0.1499E+00  0.1499E+00
     25.924  0.1876E-03  0.1806E-03  0.1499E+00  0.1499E+00
     25.942  0.1844E-03  0.1706E-03  0.1499E+00  0.1499E+00
     25.960  0.1786E-03  0.1589E-03  0.1499E+00  0.1499E+00
     25.977  0.1706E-03  0.1460E-03  0.1499E+00  0.1499E+00
     25.995  0.1611E-03  0.1324E-03  0.1499E+00  0.1499E+00
     26.013  0.1504E-03  0.1186E-03  0.1499E+00  0.1499E+00
     26.030  0.1389E-03  0.1050E-03  0.1499E+00  0.1499E+00
     26.048  0.1272E-03  0.9181E-04  0.1499E+00  0.1499E+00
     26.066  0.1154E-03  0.7946E-04  0.1499E+00  0.1499E+00
     26.084  0.1039E-03  0.6821E-04  0.1499E+00  0.1499E+00
     26.101  0.9265E-04  0.5830E-04  0.1499E+00  0.1499E+00
     26.119  0.8200E-04  0.4991E-04  0.1499E+00  0.1499E+00
     26.137  0.7205E-04  0.4319E-04  0.1499E+00  0.1499E+00
     26.155  0.6297E-04  0.3825E-04  0.1499E+00  0.1499E+00
     26.172  0.5491E-04  0.3509E-04  0.1499E+00  0.1499E+00
     26.190  0.4801E-04  0.3369E-04  0.1499E+00  0.1499E+00
     26.208  0.4239E-04  0.3395E-04  0.1499E+00  0.1499E+00
     26.226  0.3812E-04  0.3571E-04  0.1499E+00  0.1499E+00
     26.243  0.3523E-04  0.3880E-04  0.1499E+00  0.1499E+00
     26.261  0.3369E-04  0.4301E-04  0.1499E+00  0.1499E+00
     26.279  0.3340E-04  0.4813E-04  0.1499E+00  0.1499E+00
     26.296  0.3422E-04  0.5397E-04  0.1499E+00  0.1499E+00
     26.314  0.3601E-04  0.6036E-04  0.1499E+00  0.1500E+00
     26.332  0.3858E-04  0.6713E-04  0.1499E+00  0.1500E+00
     26.350  0.4179E-04  0.7416E-04  0.1499E+00  0.1500E+00
     26.367  0.4550E-04  0.8131E-04  0.1499E+00  0.1500E+00
     26.385  0.4963E-04  0.8845E-04  0.1500E+00  0.1500E+00
     26.403  0.5411E-04  0.9542E-04  0.1500E+00  0.1500E+00
     26.421  0.5894E-04  0.1020E-03  0.1500E+00  0.1500E+00
     26.438  0.6410E-04  0.1081E-03  0.1500E+00  0.1500E+00
     26.456  0.6959E-04  0.1133E-03  0.1500E+00  0.1500E+00
     26.474  0.7539E-04  0.1175E-03  0.1500E+00  0.1500E+00
     26.491  0.8144E-04  0.1204E-03  0.1500E+00  0.1500E+00
     26.509  0.8763E-04  0.1217E-03  0.1500E+00  0.1500E+00
     26.527  0.9381E-04  0.1212E-03  0.1500E+00  0.1500E+00
     26.545  0.9974E-04  0.1189E-03  0.1500E+00  0.1500E+00
     26.562  0.1052E-03  0.1146E-03  0.1500E+00  0.1500E+00
     26.580  0.1098E-03  0.1086E-03  0.1500E+00  0.1500E+00
     26.598  0.1133E-03  0.1010E-03  0.1500E+00  0.1500E+00
     26.616  0.1154E-03  0.9215E-04  0.1500E+00  0.1500E+00
     26.633  0.1158E-03  0.8243E-04  0.1500E+00  0.1500E+00
     26.651  0.1144E-03  0.7235E-04  0.1500E+00  0.1500E+00
     26.669  0.1111E-03  0.6239E-04  0.1500E+00  0.1500E+00
     26.686  0.1060E-03  0.5306E-04  0.1500E+00  0.1500E+00
     26.704  0.9914E-04  0.4480E-04  0.1500E+00  0.1500E+00
     26.722  0.9084E-04  0.3794E-04  0.1500E+00  0.1500E+00
     26.740  0.8146E-04  0.3273E-04  0.1500E+00  0.1500E+00
     26.757  0.7144E-04  0.2926E-04  0.1500E+00  0.1500E+00
     26.775  0.6129E-04  0.2750E-04  0.1500E+00  0.1500E+00
     26.793  0.5149E-04  0.2730E-04  0.1500E+00  0.1500E+00
     26.811  0.4252E-04  0.2836E-04  0.1500E+00  0.1500E+00
     26.828  0.3479E-04  0.3036E-04  0.1500E+00  0.1500E+00
     26.846  0.2860E-04  0.3289E-04  0.1500E+00  0.1500E+00
     26.864  0.2416E-04  0.3557E-04  0.1500E+00  0.1500E+00
     26.882  0.2152E-04  0.3801E-04  0.1500E+00  0.1500E+00
     26.899  0.2062E-04  0.3991E-04  0.1500E+00  0.1500E+00
     26.917  0.2128E-04  0.4103E-04  0.1500E+00  0.1500E+00
     26.935  0.2322E-04  0.4123E-04  0.1500E+00  0.1500E+00
     26.952  0.2607E-04  0.4047E-04  0.1500E+00  0.1500E+00
     26.970  0.2945E-04  0.3878E-04  0.1500E+00  0.1500E+00
     26.988  0.3295E-04  0.3627E-04  0.1500E+00  0.1500E+00
     27.006  0.3620E-04  0.3310E-04  0.1500E+00  0.1500E+00
     27.023  0.3888E-04  0.2946E-04  0.1500E+00  0.1500E+00
     27.041  0.4074E-04  0.2557E-04  0.1500E+00  0.1500E+00
     27.059  0.4164E-04  0.2160E-04  0.1500E+00  0.1500E+00
     27.077  0.4150E-04  0.1774E-04  0.1500E+00  0.1500E+00
     27.094  0.4036E-04  0.1412E-04  0.1500E+00  0.1500E+00
     27.112  0.3830E-04  0.1085E-04  0.1500E+00  0.1500E+00
     27.130  0.3548E-04  0.7986E-05  0.1500E+00  0.1500E+00
     27.147  0.3210E-04  0.5559E-05  0.1500E+00  0.1500E+00
     27.165  0.2836E-04  0.3569E-05  0.1500E+00  0.1500E+00
     27.183  0.2446E-04  0.1991E-05  0.1500E+00  0.1500E+00
     27.201  0.2058E-04  0.7871E-06  0.1500E+00  0.1500E+00
     27.218  0.1688E-04 -0.9124E-07  0.1500E+00  0.1500E+00
     27.236  0.1346E-04 -0.6958E-06  0.1500E+00  0.1500E+00
     27.254  0.1042E-04 -0.1078E-05  0.1500E+00  0.1500E+00
     27.272  0.7774E-05 -0.1286E-05  0.1500E+00  0.1500E+00
     27.289  0.5550E-05 -0.1363E-05  0.1500E+00  0.1500E+00
     27.307  0.3727E-05 -0.1346E-05  0.1500E+00  0.1500E+00
     27.325  0.2276E-05 -0.1265E-05  0.1500E+00  0.1500E+00
     27.343  0.1155E-05 -0.1145E-05  0.1500E+00  0.1500E+00
     27.360  0.3187E-06 -0.1004E-05  0.1500E+00  0.1500E+00
     27.378 -0.2801E-06 -0.8577E-06  0.1500E+00  0.1500E+00
     27.396 -0.6848E-06 -0.7153E-06  0.1500E+00  0.1500E+00
     27.413 -0.9351E-06 -0.5836E-06  0.1500E+00  0.1500E+00
     27.431 -0.1066E-05 -0.4663E-06  0.1500E+00  0.1500E+00
     27.449 -0.1107E-05 -0.3652E-06  0.1500E+00  0.1500E+00
     27.467 -0.1083E-05 -0.2806E-06  0.1500E+00  0.1500E+00
     27.484 -0.1014E-05 -0.2116E-06  0.1500E+00  0.1500E+00
     27.502 -0.9182E-06 -0.1566E-06  0.1500E+00  0.1500E+00
     27.520 -0.8074E-06 -0.1139E-06  0.1500E+00  0.1500E+00
     27.538 -0.6919E-06 -0.8127E-07  0.1500E+00  0.1500E+00
     27.555 -0.5791E-06 -0.5699E-07  0.1500E+00  0.1500E+00
     27.573 -0.4741E-06 -0.3925E-07  0.1500E+00  0.1500E+00
     27.591 -0.3800E-06 -0.2656E-07  0.1500E+00  0.1500E+00
     27.608 -0.2985E-06 -0.1766E-07  0.1500E+00  0.1500E+00
     27.626 -0.2298E-06 -0.1154E-07  0.1500E+00  0.1500E+00
     27.644 -0.1735E-06 -0.7408E-08  0.1500E+00  0.1500E+00
     27.662 -0.1285E-06 -0.4674E-08  0.1500E+00  0.1500E+00
     27.679 -0.9339E-07 -0.2898E-08  0.1500E+00  0.1500E+00
     27.697 -0.6662E-07 -0.1766E-08  0.1500E+00  0.1500E+00
     27.715 -0.4664E-07 -0.1058E-08  0.1500E+00  0.1500E+00
     27.733 -0.3206E-07 -0.6230E-09  0.1500E+00  0.1500E+00
     27.750 -0.2164E-07 -0.3606E-09  0.1500E+00  0.1500E+00
     27.768 -0.1435E-07 -0.2052E-09  0.1500E+00  0.1500E+00
     27.786 -0.9339E-08 -0.1148E-09  0.1500E+00  0.1500E+00
     27.804 -0.5973E-08 -0.6314E-10  0.1500E+00  0.1500E+00
     27.821 -0.3752E-08 -0.3414E-10  0.1500E+00  0.1500E+00
     27.839 -0.2316E-08 -0.1815E-10  0.1500E+00  0.1500E+00
     27.857 -0.1405E-08 -0.9491E-11  0.1500E+00  0.1500E+00
     27.874 -0.8371E-09 -0.4880E-11  0.1500E+00  0.1500E+00
     27.892 -0.4902E-09 -0.2467E-11  0.1500E+00  0.1500E+00
     27.910 -0.2822E-09 -0.1227E-11  0.1500E+00  0.1500E+00
     27.928 -0.1597E-09 -0.5998E-12  0.1500E+00  0.1500E+00
     27.945 -0.8879E-10 -0.2885E-12  0.1500E+00  0.1500E+00
     27.963 -0.4854E-10 -0.1364E-12  0.1500E+00  0.1500E+00
     27.981 -0.2609E-10 -0.6348E-13  0.1500E+00  0.1500E+00
     27.999 -0.1379E-10 -0.2905E-13  0.1500E+00  0.1500E+00
     28.016 -0.7163E-11 -0.1307E-13  0.1500E+00  0.1500E+00
     28.034 -0.3660E-11 -0.5788E-14  0.1500E+00  0.1500E+00
     28.052 -0.1838E-11 -0.2521E-14  0.1500E+00  0.1500E+00
     28.069 -0.9082E-12 -0.1080E-14  0.1500E+00  0.1500E+00
     28.087 -0.4412E-12 -0.4553E-15  0.1500E+00  0.1500E+00
     28.105 -0.2108E-12 -0.1887E-15  0.1500E+00  0.1500E+00
     28.123 -0.9904E-13 -0.7700E-16  0.1500E+00  0.1500E+00
     28.140 -0.4577E-13 -0.3086E-16  0.1500E+00  0.1500E+00
     28.158 -0.2081E-13 -0.1220E-16  0.1500E+00  0.1500E+00
     28.176 -0.9303E-14 -0.4703E-17  0.1500E+00  0.1500E+00
     28.194 -0.4091E-14 -0.1825E-17  0.1500E+00  0.1500E+00
     28.211 -0.1770E-14 -0.6872E-18  0.1500E+00  0.1500E+00
     28.229 -0.7533E-15 -0.2362E-18  0.1500E+00  0.1500E+00
     28.247 -0.3153E-15 -0.1074E-18  0.1500E+00  0.1500E+00
     28.265 -0.1299E-15 -0.2147E-19  0.1500E+00  0.1500E+00
     28.282 -0.5259E-16 -0.2147E-19  0.1500E+00  0.1500E+00
     28.300 -0.2096E-16  0.0000E+00  0.1500E+00  0.1500E+00
     28.318 -0.8246E-17  0.0000E+00  0.1500E+00  0.1500E+00
     28.335 -0.3157E-17  0.0000E+00  0.1500E+00  0.1500E+00
     28.353 -0.1203E-17  0.0000E+00  0.1500E+00  0.1500E+00
     28.371 -0.4509E-18  0.0000E+00  0.1500E+00  0.1500E+00
     28.389 -0.1718E-18  0.0000E+00  0.1500E+00  0.1500E+00
     28.406 -0.4295E-19  0.0000E+00  0.1500E+00  0.1500E+00
     28.424 -0.2147E-19  0.0000E+00  0.1500E+00  0.1500E+00
     28.442 -0.2147E-19  0.0000E+00  0.1500E+00  0.1500E+00
     28.460  0.0000E+00  0.0000E+00  0.1500E+00  0.1500E+00
     28.477  0.0000E+00  0.0000E+00  0.1500E+00  0.1500E+00
     28.495  0.0000E+00  0.0000E+00  0.1500E+00  0.1500E+00
     28.513  0.0000E+00  0.0000E+00  0.1500E+00  0.1500E+00
     28.530  0.0000E+00  0.0000E+00  0.1500E+00  0.1500E+00
     28.548  0.0000E+00  0.0000E+00  0.1500E+00  0.1500E+00
     28.566  0.0000E+00  0.0000E+00  0.1500E+00  0.1500E+00
     28.584  0.0000E+00  0.0000E+00  0.1500E+00  0.1500E+00
     28.601  0.0000E+00  0.0000E+00  0.1500E+00  0.1500E+00
     28.619  0.0000E+00  0.0000E+00  0.1500E+00  0.1500E+00
     28.637  0.0000E+00  0.0000E+00  0.1500E+00  0.1500E+00
     28.655  0.0000E+00  0.0000E+00  0.1500E+00  0.1500E+00
     28.672  0.0000E+00  0.0000E+00  0.1500E+00  0.1500E+00
     28.690  0.0000E+00  0.0000E+00  0.1500E+00  0.1500E+00
     28.708  0.0000E+00  0.0000E+00  0.1500E+00  0.1500E+00
     28.725  0.0000E+00  0.0000E+00  0.1500E+00  0.1500E+00
     28.743  0.0000E+00  0.0000E+00  0.1500E+00  0.1500E+00
     28.761  0.0000E+00  0.0000E+00  0.1500E+00  0.1500E+00
     28.779  0.0000E+00  0.0000E+00  0.1500E+00  0.1500E+00
     28.796  0.0000E+00  0.0000E+00  0.1500E+00  0.1500E+00
     28.814  0.0000E+00  0.0000E+00  0.1500E+00  0.1500E+00
     28.832  0.0000E+00  0.0000E+00  0.1500E+00  0.1500E+00
     28.850  0.0000E+00  0.0000E+00  0.1500E+00  0.1500E+00
     28.867  0.0000E+00  0.0000E+00  0.1500E+00  0.1500E+00
     28.885  0.0000E+00  0.0000E+00  0.1500E+00  0.1500E+00
     28.903  0.0000E+00  0.0000E+00  0.1500E+00  0.1500E+00
     28.921  0.0000E+00  0.0000E+00  0.1500E+00  0.1500E+00
     28.938  0.0000E+00  0.0000E+00  0.1500E+00  0.1500E+00
     28.956  0.0000E+00  0.0000E+00  0.1500E+00  0.1500E+00
     28.974  0.0000E+00  0.0000E+00  0.1500E+00  0.1500E+00
     28.991  0.0000E+00  0.0000E+00  0.1500E+00  0.1500E+00
     29.009  0.0000E+00  0.0000E+00  0.1500E+00  0.1500E+00
     29.027  0.0000E+00  0.0000E+00  0.1500E+00  0.1500E+00
     29.045  0.0000E+00  0.0000E+00  0.1500E+00  0.1500E+00
     29.062  0.0000E+00  0.0000E+00  0.1500E+00  0.1500E+00
     29.080  0.0000E+00  0.0000E+00  0.1500E+00  0.1500E+00
     29.098  0.0000E+00  0.0000E+00  0.1500E+00  0.1500E+00
     29.116  0.0000E+00  0.0000E+00  0.1500E+00  0.1500E+00
     29.133  0.0000E+00  0.0000E+00  0.1500E+00  0.1500E+00
     29.151  0.0000E+00  0.0000E+00  0.1500E+00  0.1500E+00
     29.169  0.0000E+00  0.0000E+00  0.1500E+00  0.1500E+00
     29.186  0.0000E+00  0.0000E+00  0.1500E+00  0.1500E+00
     29.204  0.0000E+00  0.0000E+00  0.1500E+00  0.1500E+00
