# Системное
SYSTEM=Ni3Al L12
PREC=Accurate
NCORE=4
LREAL=.FALSE.
LWAVE=.FALSE.

LASPH    = .TRUE.
ADDGRID  = .TRUE.
KSPACING = 0.10

# Симметрия
SYMPREC=1.0E-5
ISYM=2

# Магнитные настройки
ISPIN=2
MAGMOM = 0.0 3*0.2

# Размытие по энергиям
ISMEAR=1
SIGMA=0.2

# SCF цикл
ISTART=0
ICHARG=2
ENCUT=600
NEDOS=2000
EDIFF=1.0E-7

# Ионная релаксация (только ионы, ячейка фиксирована)
IBRION=2
ISIF=2
NSW = 200
EDIFFG = -0.005

# Проектированный DOS
LORBIT=11
RWIGS=2.0 2.0

# Дополнительный вывод
NWRITE=3
LCHARG=.TRUE.
LVHAR=.TRUE.
