   4   4   0   0
  0.1185948E+02  0.3620000E-09  0.3620000E-09  0.3620000E-09  0.5000000E-15
  1.000000000000000E-004
  CAR 
 Ni3Al EOS                               
     25.45830544     -5.94163144 2000      5.69580976      1.00000000
     -5.942  0.0000E+00  0.0000E+00  0.0000E+00  0.0000E+00
     -5.926  0.0000E+00  0.0000E+00  0.0000E+00  0.0000E+00
     -5.910  0.0000E+00  0.0000E+00  0.0000E+00  0.0000E+00
     -5.895  0.0000E+00  0.0000E+00  0.0000E+00  0.0000E+00
     -5.879  0.0000E+00  0.0000E+00  0.0000E+00  0.0000E+00
     -5.863  0.0000E+00  0.0000E+00  0.0000E+00  0.0000E+00
     -5.847  0.0000E+00  0.0000E+00  0.0000E+00  0.0000E+00
     -5.832  0.0000E+00  0.0000E+00  0.0000E+00  0.0000E+00
     -5.816  0.0000E+00  0.0000E+00  0.0000E+00  0.0000E+00
     -5.800  0.0000E+00  0.0000E+00  0.0000E+00  0.0000E+00
     -5.785  0.0000E+00  0.0000E+00  0.0000E+00  0.0000E+00
     -5.769  0.0000E+00  0.0000E+00  0.0000E+00  0.0000E+00
     -5.753  0.0000E+00  0.0000E+00  0.0000E+00  0.0000E+00
     -5.737  0.0000E+00  0.0000E+00  0.0000E+00  0.0000E+00
     -5.722  0.0000E+00  0.0000E+00  0.0000E+00  0.0000E+00
     -5.706  0.0000E+00  0.0000E+00  0.0000E+00  0.0000E+00
     -5.690  0.0000E+00  0.0000E+00  0.0000E+00  0.0000E+00
     -5.675  0.0000E+00  0.0000E+00  0.0000E+00  0.0000E+00
     -5.659  0.0000E+00  0.0000E+00  0.0000E+00  0.0000E+00
     -5.643  0.0000E+00  0.0000E+00  0.0000E+00  0.0000E+00
     -5.627  0.0000E+00  0.0000E+00  0.0000E+00  0.0000E+00
     -5.612  0.0000E+00  0.0000E+00  0.0000E+00  0.0000E+00
     -5.596  0.0000E+00  0.0000E+00  0.0000E+00  0.0000E+00
     -5.580  0.0000E+00  0.0000E+00  0.0000E+00  0.0000E+00
     -5.565  0.0000E+00  0.0000E+00  0.0000E+00  0.0000E+00
     -5.549  0.0000E+00 -0.2210E-31  0.0000E+00 -0.3471E-33
     -5.533  0.0000E+00 -0.5475E-31  0.0000E+00 -0.1207E-32
     -5.518 -0.1772E-31 -0.2769E-30 -0.2784E-33 -0.5557E-32
     -5.502 -0.4405E-31 -0.8552E-30 -0.9704E-33 -0.1899E-31
     -5.486 -0.2228E-30 -0.2872E-29 -0.4470E-32 -0.6411E-31
     -5.470 -0.6901E-30 -0.9954E-29 -0.1531E-31 -0.2205E-30
     -5.455 -0.2323E-29 -0.3227E-28 -0.5179E-31 -0.7273E-30
     -5.439 -0.8063E-29 -0.1048E-27 -0.1785E-30 -0.2373E-29
     -5.423 -0.2620E-28 -0.3354E-27 -0.5900E-30 -0.7641E-29
     -5.408 -0.8526E-28 -0.1061E-26 -0.1929E-29 -0.2430E-28
     -5.392 -0.2735E-27 -0.3315E-26 -0.6225E-29 -0.7637E-28
     -5.376 -0.8669E-27 -0.1023E-25 -0.1984E-28 -0.2371E-27
     -5.360 -0.2714E-26 -0.3119E-25 -0.6248E-28 -0.7269E-27
     -5.345 -0.8395E-26 -0.9392E-25 -0.1944E-27 -0.2202E-26
     -5.329 -0.2565E-25 -0.2794E-24 -0.5973E-27 -0.6590E-26
     -5.313 -0.7741E-25 -0.8209E-24 -0.1813E-26 -0.1948E-25
     -5.298 -0.2308E-24 -0.2383E-23 -0.5438E-26 -0.5691E-25
     -5.282 -0.6795E-24 -0.6831E-23 -0.1611E-25 -0.1642E-24
     -5.266 -0.1977E-23 -0.1935E-22 -0.4716E-25 -0.4681E-24
     -5.250 -0.5679E-23 -0.5412E-22 -0.1364E-24 -0.1318E-23
     -5.235 -0.1612E-22 -0.1495E-21 -0.3895E-24 -0.3667E-23
     -5.219 -0.4519E-22 -0.4082E-21 -0.1099E-23 -0.1008E-22
     -5.203 -0.1251E-21 -0.1101E-20 -0.3065E-23 -0.2737E-22
     -5.188 -0.3423E-21 -0.2931E-20 -0.8442E-23 -0.7341E-22
     -5.172 -0.9249E-21 -0.7712E-20 -0.2297E-22 -0.1945E-21
     -5.156 -0.2469E-20 -0.2004E-19 -0.6175E-22 -0.5094E-21
     -5.141 -0.6509E-20 -0.5145E-19 -0.1640E-21 -0.1317E-20
     -5.125 -0.1695E-19 -0.1244E-18 -0.4303E-21 -0.3271E-20
     -5.109 -0.4361E-19 -0.3267E-18 -0.1115E-20 -0.8404E-20
     -5.093 -0.1108E-18 -0.7963E-18 -0.2856E-20 -0.2091E-19
     -5.078 -0.2721E-18 -0.1903E-17 -0.7130E-20 -0.5080E-19
     -5.062 -0.6776E-18 -0.4624E-17 -0.1777E-19 -0.1234E-18
     -5.046 -0.1629E-17 -0.1101E-16 -0.4336E-19 -0.2964E-18
     -5.031 -0.3984E-17 -0.2592E-16 -0.1059E-18 -0.7035E-18
     -5.015 -0.9427E-17 -0.6021E-16 -0.2540E-18 -0.1649E-17
     -4.999 -0.2229E-16 -0.1384E-15 -0.6041E-18 -0.3823E-17
     -4.983 -0.5204E-16 -0.3136E-15 -0.1422E-17 -0.8750E-17
     -4.968 -0.1196E-15 -0.7028E-15 -0.3300E-17 -0.1979E-16
     -4.952 -0.2718E-15 -0.1555E-14 -0.7569E-17 -0.4421E-16
     -4.936 -0.6101E-15 -0.3397E-14 -0.1715E-16 -0.9758E-16
     -4.921 -0.1353E-14 -0.7333E-14 -0.3840E-16 -0.2128E-15
     -4.905 -0.2962E-14 -0.1563E-13 -0.8493E-16 -0.4583E-15
     -4.889 -0.6408E-14 -0.3292E-13 -0.1856E-15 -0.9754E-15
     -4.873 -0.1369E-13 -0.6846E-13 -0.4007E-15 -0.2051E-14
     -4.858 -0.2889E-13 -0.1406E-12 -0.8545E-15 -0.4259E-14
     -4.842 -0.6021E-13 -0.2852E-12 -0.1800E-14 -0.8740E-14
     -4.826 -0.1239E-12 -0.5715E-12 -0.3747E-14 -0.1772E-13
     -4.811 -0.2520E-12 -0.1131E-11 -0.7706E-14 -0.3548E-13
     -4.795 -0.5060E-12 -0.2210E-11 -0.1565E-13 -0.7020E-13
     -4.779 -0.1003E-11 -0.4266E-11 -0.3142E-13 -0.1372E-12
     -4.764 -0.1965E-11 -0.8131E-11 -0.6229E-13 -0.2649E-12
     -4.748 -0.3802E-11 -0.1530E-10 -0.1220E-12 -0.5053E-12
     -4.732 -0.7262E-11 -0.2845E-10 -0.2361E-12 -0.9522E-12
     -4.716 -0.1370E-10 -0.5223E-10 -0.4513E-12 -0.1773E-11
     -4.701 -0.2552E-10 -0.9468E-10 -0.8522E-12 -0.3260E-11
     -4.685 -0.4696E-10 -0.1695E-09 -0.1590E-11 -0.5922E-11
     -4.669 -0.8531E-10 -0.2996E-09 -0.2930E-11 -0.1063E-10
     -4.654 -0.1531E-09 -0.5229E-09 -0.5334E-11 -0.1884E-10
     -4.638 -0.2712E-09 -0.9012E-09 -0.9593E-11 -0.3300E-10
     -4.622 -0.4743E-09 -0.1533E-08 -0.1704E-10 -0.5708E-10
     -4.606 -0.8193E-09 -0.2576E-08 -0.2991E-10 -0.9755E-10
     -4.591 -0.1397E-08 -0.4273E-08 -0.5186E-10 -0.1647E-09
     -4.575 -0.2353E-08 -0.6998E-08 -0.8882E-10 -0.2746E-09
     -4.559 -0.3911E-08 -0.1131E-07 -0.1503E-09 -0.4523E-09
     -4.544 -0.6419E-08 -0.1805E-07 -0.2511E-09 -0.7358E-09
     -4.528 -0.1040E-07 -0.2844E-07 -0.4145E-09 -0.1182E-08
     -4.512 -0.1664E-07 -0.4421E-07 -0.6758E-09 -0.1877E-08
     -4.497 -0.2626E-07 -0.6784E-07 -0.1088E-08 -0.2943E-08
     -4.481 -0.4093E-07 -0.1027E-06 -0.1731E-08 -0.4557E-08
     -4.465 -0.6295E-07 -0.1535E-06 -0.2720E-08 -0.6968E-08
     -4.449 -0.9556E-07 -0.2264E-06 -0.4221E-08 -0.1052E-07
     -4.434 -0.1431E-06 -0.3294E-06 -0.6470E-08 -0.1570E-07
     -4.418 -0.2116E-06 -0.4728E-06 -0.9793E-08 -0.2313E-07
     -4.402 -0.3086E-06 -0.6693E-06 -0.1464E-07 -0.3364E-07
     -4.387 -0.4439E-06 -0.9344E-06 -0.2161E-07 -0.4831E-07
     -4.371 -0.6299E-06 -0.1286E-05 -0.3151E-07 -0.6852E-07
     -4.355 -0.8816E-06 -0.1746E-05 -0.4536E-07 -0.9594E-07
     -4.339 -0.1217E-05 -0.2335E-05 -0.6447E-07 -0.1326E-06
     -4.324 -0.1655E-05 -0.3077E-05 -0.9047E-07 -0.1809E-06
     -4.308 -0.2220E-05 -0.3994E-05 -0.1253E-06 -0.2437E-06
     -4.292 -0.2933E-05 -0.5104E-05 -0.1714E-06 -0.3238E-06
     -4.277 -0.3817E-05 -0.6418E-05 -0.2314E-06 -0.4246E-06
     -4.261 -0.4892E-05 -0.7936E-05 -0.3082E-06 -0.5493E-06
     -4.245 -0.6169E-05 -0.9642E-05 -0.4051E-06 -0.7008E-06
     -4.229 -0.7652E-05 -0.1150E-04 -0.5253E-06 -0.8814E-06
     -4.214 -0.9326E-05 -0.1344E-04 -0.6718E-06 -0.1093E-05
     -4.198 -0.1116E-04 -0.1538E-04 -0.8471E-06 -0.1334E-05
     -4.182 -0.1309E-04 -0.1716E-04 -0.1053E-05 -0.1604E-05
     -4.167 -0.1504E-04 -0.1863E-04 -0.1289E-05 -0.1896E-05
     -4.151 -0.1686E-04 -0.1955E-04 -0.1554E-05 -0.2203E-05
     -4.135 -0.1840E-04 -0.1968E-04 -0.1843E-05 -0.2513E-05
     -4.120 -0.1944E-04 -0.1871E-04 -0.2148E-05 -0.2806E-05
     -4.104 -0.1972E-04 -0.1631E-04 -0.2458E-05 -0.3063E-05
     -4.088 -0.1897E-04 -0.1213E-04 -0.2756E-05 -0.3253E-05
     -4.072 -0.1685E-04 -0.5813E-05 -0.3020E-05 -0.3344E-05
     -4.057 -0.1301E-04  0.2988E-05 -0.3225E-05 -0.3298E-05
     -4.041 -0.7095E-05  0.1459E-04 -0.3336E-05 -0.3068E-05
     -4.025  0.1241E-05  0.2928E-04 -0.3317E-05 -0.2608E-05
     -4.010  0.1233E-04  0.4725E-04 -0.3123E-05 -0.1866E-05
     -3.994  0.2645E-04  0.6864E-04 -0.2708E-05 -0.7880E-06
     -3.978  0.4382E-04  0.9347E-04 -0.2019E-05  0.6802E-06
     -3.962  0.6459E-04  0.1217E-03 -0.1005E-05  0.2591E-05
     -3.947  0.8881E-04  0.1531E-03  0.3904E-06  0.4996E-05
     -3.931  0.1164E-03  0.1874E-03  0.2219E-05  0.7939E-05
     -3.915  0.1473E-03  0.2242E-03  0.4532E-05  0.1146E-04
     -3.900  0.1811E-03  0.2632E-03  0.7376E-05  0.1560E-04
     -3.884  0.2175E-03  0.3038E-03  0.1079E-04  0.2037E-04
     -3.868  0.2561E-03  0.3454E-03  0.1482E-04  0.2579E-04
     -3.852  0.2964E-03  0.3876E-03  0.1947E-04  0.3188E-04
     -3.837  0.3379E-03  0.4299E-03  0.2478E-04  0.3863E-04
     -3.821  0.3800E-03  0.4717E-03  0.3075E-04  0.4604E-04
     -3.805  0.4223E-03  0.5128E-03  0.3738E-04  0.5410E-04
     -3.790  0.4642E-03  0.5528E-03  0.4467E-04  0.6278E-04
     -3.774  0.5055E-03  0.5916E-03  0.5261E-04  0.7207E-04
     -3.758  0.5457E-03  0.6289E-03  0.6119E-04  0.8195E-04
     -3.743  0.5847E-03  0.6647E-03  0.7037E-04  0.9239E-04
     -3.727  0.6222E-03  0.6990E-03  0.8014E-04  0.1034E-03
     -3.711  0.6583E-03  0.7318E-03  0.9048E-04  0.1149E-03
     -3.695  0.6928E-03  0.7631E-03  0.1014E-03  0.1269E-03
     -3.680  0.7259E-03  0.7930E-03  0.1128E-03  0.1393E-03
     -3.664  0.7575E-03  0.8215E-03  0.1247E-03  0.1522E-03
     -3.648  0.7876E-03  0.8487E-03  0.1370E-03  0.1655E-03
     -3.633  0.8164E-03  0.8744E-03  0.1499E-03  0.1793E-03
     -3.617  0.8438E-03  0.8988E-03  0.1631E-03  0.1934E-03
     -3.601  0.8698E-03  0.9218E-03  0.1768E-03  0.2079E-03
     -3.585  0.8944E-03  0.9435E-03  0.1908E-03  0.2227E-03
     -3.570  0.9177E-03  0.9639E-03  0.2052E-03  0.2378E-03
     -3.554  0.9396E-03  0.9831E-03  0.2200E-03  0.2533E-03
     -3.538  0.9602E-03  0.1001E-02  0.2351E-03  0.2690E-03
     -3.523  0.9797E-03  0.1019E-02  0.2505E-03  0.2850E-03
     -3.507  0.9982E-03  0.1037E-02  0.2662E-03  0.3013E-03
     -3.491  0.1016E-02  0.1054E-02  0.2821E-03  0.3179E-03
     -3.476  0.1034E-02  0.1072E-02  0.2983E-03  0.3347E-03
     -3.460  0.1051E-02  0.1091E-02  0.3149E-03  0.3518E-03
     -3.444  0.1069E-02  0.1111E-02  0.3316E-03  0.3693E-03
     -3.428  0.1087E-02  0.1132E-02  0.3487E-03  0.3871E-03
     -3.413  0.1107E-02  0.1154E-02  0.3661E-03  0.4052E-03
     -3.397  0.1128E-02  0.1177E-02  0.3838E-03  0.4237E-03
     -3.381  0.1150E-02  0.1200E-02  0.4019E-03  0.4425E-03
     -3.366  0.1173E-02  0.1224E-02  0.4203E-03  0.4618E-03
     -3.350  0.1196E-02  0.1247E-02  0.4391E-03  0.4813E-03
     -3.334  0.1220E-02  0.1269E-02  0.4583E-03  0.5013E-03
     -3.318  0.1243E-02  0.1290E-02  0.4778E-03  0.5215E-03
     -3.303  0.1266E-02  0.1308E-02  0.4977E-03  0.5421E-03
     -3.287  0.1286E-02  0.1323E-02  0.5179E-03  0.5629E-03
     -3.271  0.1305E-02  0.1336E-02  0.5384E-03  0.5839E-03
     -3.256  0.1321E-02  0.1347E-02  0.5591E-03  0.6050E-03
     -3.240  0.1334E-02  0.1355E-02  0.5801E-03  0.6263E-03
     -3.224  0.1345E-02  0.1361E-02  0.6012E-03  0.6477E-03
     -3.208  0.1354E-02  0.1368E-02  0.6225E-03  0.6692E-03
     -3.193  0.1361E-02  0.1374E-02  0.6439E-03  0.6907E-03
     -3.177  0.1367E-02  0.1382E-02  0.6653E-03  0.7125E-03
     -3.161  0.1373E-02  0.1392E-02  0.6869E-03  0.7343E-03
     -3.146  0.1381E-02  0.1406E-02  0.7086E-03  0.7564E-03
     -3.130  0.1391E-02  0.1423E-02  0.7304E-03  0.7788E-03
     -3.114  0.1404E-02  0.1444E-02  0.7525E-03  0.8014E-03
     -3.099  0.1420E-02  0.1468E-02  0.7748E-03  0.8245E-03
     -3.083  0.1440E-02  0.1496E-02  0.7974E-03  0.8480E-03
     -3.067  0.1464E-02  0.1526E-02  0.8204E-03  0.8720E-03
     -3.051  0.1491E-02  0.1556E-02  0.8438E-03  0.8964E-03
     -3.036  0.1521E-02  0.1586E-02  0.8677E-03  0.9213E-03
     -3.020  0.1551E-02  0.1615E-02  0.8921E-03  0.9467E-03
     -3.004  0.1582E-02  0.1641E-02  0.9169E-03  0.9725E-03
     -2.989  0.1611E-02  0.1663E-02  0.9422E-03  0.9986E-03
     -2.973  0.1637E-02  0.1681E-02  0.9680E-03  0.1025E-02
     -2.957  0.1660E-02  0.1694E-02  0.9940E-03  0.1052E-02
     -2.941  0.1679E-02  0.1702E-02  0.1020E-02  0.1078E-02
     -2.926  0.1693E-02  0.1707E-02  0.1047E-02  0.1105E-02
     -2.910  0.1702E-02  0.1708E-02  0.1074E-02  0.1132E-02
     -2.894  0.1707E-02  0.1707E-02  0.1101E-02  0.1159E-02
     -2.879  0.1709E-02  0.1706E-02  0.1127E-02  0.1186E-02
     -2.863  0.1709E-02  0.1704E-02  0.1154E-02  0.1212E-02
     -2.847  0.1707E-02  0.1705E-02  0.1181E-02  0.1239E-02
     -2.831  0.1706E-02  0.1707E-02  0.1208E-02  0.1266E-02
     -2.816  0.1706E-02  0.1713E-02  0.1235E-02  0.1293E-02
     -2.800  0.1708E-02  0.1722E-02  0.1261E-02  0.1320E-02
     -2.784  0.1713E-02  0.1734E-02  0.1288E-02  0.1347E-02
     -2.769  0.1721E-02  0.1751E-02  0.1315E-02  0.1375E-02
     -2.753  0.1733E-02  0.1770E-02  0.1343E-02  0.1402E-02
     -2.737  0.1749E-02  0.1792E-02  0.1370E-02  0.1431E-02
     -2.722  0.1768E-02  0.1816E-02  0.1398E-02  0.1459E-02
     -2.706  0.1789E-02  0.1842E-02  0.1426E-02  0.1488E-02
     -2.690  0.1813E-02  0.1870E-02  0.1454E-02  0.1517E-02
     -2.674  0.1839E-02  0.1898E-02  0.1483E-02  0.1547E-02
     -2.659  0.1866E-02  0.1926E-02  0.1513E-02  0.1577E-02
     -2.643  0.1894E-02  0.1954E-02  0.1542E-02  0.1608E-02
     -2.627  0.1922E-02  0.1983E-02  0.1573E-02  0.1639E-02
     -2.612  0.1951E-02  0.2010E-02  0.1603E-02  0.1671E-02
     -2.596  0.1980E-02  0.2037E-02  0.1634E-02  0.1703E-02
     -2.580  0.2008E-02  0.2061E-02  0.1666E-02  0.1735E-02
     -2.564  0.2035E-02  0.2084E-02  0.1698E-02  0.1768E-02
     -2.549  0.2060E-02  0.2104E-02  0.1730E-02  0.1801E-02
     -2.533  0.2083E-02  0.2120E-02  0.1763E-02  0.1834E-02
     -2.517  0.2104E-02  0.2132E-02  0.1796E-02  0.1868E-02
     -2.502  0.2121E-02  0.2139E-02  0.1829E-02  0.1901E-02
     -2.486  0.2133E-02  0.2141E-02  0.1863E-02  0.1935E-02
     -2.470  0.2141E-02  0.2138E-02  0.1896E-02  0.1969E-02
     -2.454  0.2144E-02  0.2130E-02  0.1930E-02  0.2002E-02
     -2.439  0.2142E-02  0.2119E-02  0.1964E-02  0.2035E-02
     -2.423  0.2135E-02  0.2106E-02  0.1997E-02  0.2068E-02
     -2.407  0.2124E-02  0.2091E-02  0.2031E-02  0.2101E-02
     -2.392  0.2111E-02  0.2078E-02  0.2064E-02  0.2134E-02
     -2.376  0.2096E-02  0.2068E-02  0.2097E-02  0.2166E-02
     -2.360  0.2083E-02  0.2063E-02  0.2129E-02  0.2199E-02
     -2.345  0.2072E-02  0.2064E-02  0.2162E-02  0.2231E-02
     -2.329  0.2066E-02  0.2074E-02  0.2194E-02  0.2264E-02
     -2.313  0.2066E-02  0.2093E-02  0.2227E-02  0.2297E-02
     -2.297  0.2075E-02  0.2121E-02  0.2259E-02  0.2330E-02
     -2.282  0.2092E-02  0.2159E-02  0.2292E-02  0.2364E-02
     -2.266  0.2119E-02  0.2204E-02  0.2326E-02  0.2399E-02
     -2.250  0.2155E-02  0.2256E-02  0.2359E-02  0.2434E-02
     -2.235  0.2200E-02  0.2312E-02  0.2394E-02  0.2470E-02
     -2.219  0.2251E-02  0.2370E-02  0.2429E-02  0.2508E-02
     -2.203  0.2307E-02  0.2427E-02  0.2466E-02  0.2546E-02
     -2.187  0.2365E-02  0.2479E-02  0.2503E-02  0.2585E-02
     -2.172  0.2422E-02  0.2526E-02  0.2541E-02  0.2624E-02
     -2.156  0.2476E-02  0.2564E-02  0.2580E-02  0.2665E-02
     -2.140  0.2524E-02  0.2592E-02  0.2619E-02  0.2705E-02
     -2.125  0.2563E-02  0.2610E-02  0.2660E-02  0.2746E-02
     -2.109  0.2593E-02  0.2616E-02  0.2700E-02  0.2787E-02
     -2.093  0.2613E-02  0.2612E-02  0.2741E-02  0.2828E-02
     -2.078  0.2621E-02  0.2599E-02  0.2783E-02  0.2869E-02
     -2.062  0.2619E-02  0.2579E-02  0.2824E-02  0.2910E-02
     -2.046  0.2607E-02  0.2554E-02  0.2865E-02  0.2950E-02
     -2.030  0.2588E-02  0.2526E-02  0.2905E-02  0.2990E-02
     -2.015  0.2564E-02  0.2499E-02  0.2946E-02  0.3029E-02
     -1.999  0.2537E-02  0.2475E-02  0.2985E-02  0.3068E-02
     -1.983  0.2510E-02  0.2457E-02  0.3025E-02  0.3106E-02
     -1.968  0.2485E-02  0.2446E-02  0.3064E-02  0.3145E-02
     -1.952  0.2466E-02  0.2443E-02  0.3103E-02  0.3183E-02
     -1.936  0.2453E-02  0.2451E-02  0.3141E-02  0.3222E-02
     -1.920  0.2449E-02  0.2470E-02  0.3180E-02  0.3260E-02
     -1.905  0.2456E-02  0.2498E-02  0.3218E-02  0.3300E-02
     -1.889  0.2472E-02  0.2536E-02  0.3257E-02  0.3339E-02
     -1.873  0.2499E-02  0.2583E-02  0.3296E-02  0.3380E-02
     -1.858  0.2535E-02  0.2636E-02  0.3336E-02  0.3421E-02
     -1.842  0.2580E-02  0.2694E-02  0.3377E-02  0.3464E-02
     -1.826  0.2632E-02  0.2754E-02  0.3418E-02  0.3507E-02
     -1.810  0.2689E-02  0.2814E-02  0.3460E-02  0.3551E-02
     -1.795  0.2748E-02  0.2873E-02  0.3503E-02  0.3596E-02
     -1.779  0.2809E-02  0.2928E-02  0.3548E-02  0.3642E-02
     -1.763  0.2868E-02  0.2978E-02  0.3593E-02  0.3689E-02
     -1.748  0.2923E-02  0.3021E-02  0.3639E-02  0.3737E-02
     -1.732  0.2974E-02  0.3057E-02  0.3685E-02  0.3785E-02
     -1.716  0.3018E-02  0.3085E-02  0.3733E-02  0.3833E-02
     -1.701  0.3054E-02  0.3106E-02  0.3781E-02  0.3882E-02
     -1.685  0.3084E-02  0.3122E-02  0.3829E-02  0.3931E-02
     -1.669  0.3106E-02  0.3132E-02  0.3878E-02  0.3980E-02
     -1.653  0.3122E-02  0.3140E-02  0.3927E-02  0.4029E-02
     -1.638  0.3133E-02  0.3147E-02  0.3976E-02  0.4079E-02
     -1.622  0.3142E-02  0.3155E-02  0.4025E-02  0.4128E-02
     -1.606  0.3149E-02  0.3167E-02  0.4075E-02  0.4178E-02
     -1.591  0.3158E-02  0.3183E-02  0.4125E-02  0.4228E-02
     -1.575  0.3170E-02  0.3205E-02  0.4174E-02  0.4278E-02
     -1.559  0.3186E-02  0.3233E-02  0.4224E-02  0.4329E-02
     -1.543  0.3209E-02  0.3268E-02  0.4275E-02  0.4381E-02
     -1.528  0.3237E-02  0.3307E-02  0.4326E-02  0.4433E-02
     -1.512  0.3272E-02  0.3351E-02  0.4377E-02  0.4485E-02
     -1.496  0.3313E-02  0.3396E-02  0.4429E-02  0.4539E-02
     -1.481  0.3357E-02  0.3441E-02  0.4482E-02  0.4593E-02
     -1.465  0.3404E-02  0.3482E-02  0.4535E-02  0.4647E-02
     -1.449  0.3449E-02  0.3518E-02  0.4589E-02  0.4703E-02
     -1.433  0.3492E-02  0.3545E-02  0.4644E-02  0.4758E-02
     -1.418  0.3528E-02  0.3563E-02  0.4700E-02  0.4814E-02
     -1.402  0.3557E-02  0.3570E-02  0.4756E-02  0.4870E-02
     -1.386  0.3576E-02  0.3565E-02  0.4812E-02  0.4926E-02
     -1.371  0.3583E-02  0.3548E-02  0.4868E-02  0.4982E-02
     -1.355  0.3579E-02  0.3521E-02  0.4924E-02  0.5037E-02
     -1.339  0.3563E-02  0.3484E-02  0.4980E-02  0.5092E-02
     -1.324  0.3537E-02  0.3441E-02  0.5036E-02  0.5146E-02
     -1.308  0.3501E-02  0.3394E-02  0.5091E-02  0.5199E-02
     -1.292  0.3460E-02  0.3346E-02  0.5145E-02  0.5252E-02
     -1.276  0.3414E-02  0.3299E-02  0.5199E-02  0.5304E-02
     -1.261  0.3367E-02  0.3257E-02  0.5252E-02  0.5355E-02
     -1.245  0.3323E-02  0.3222E-02  0.5304E-02  0.5406E-02
     -1.229  0.3283E-02  0.3197E-02  0.5355E-02  0.5456E-02
     -1.214  0.3250E-02  0.3182E-02  0.5406E-02  0.5506E-02
     -1.198  0.3227E-02  0.3178E-02  0.5457E-02  0.5556E-02
     -1.182  0.3213E-02  0.3184E-02  0.5508E-02  0.5606E-02
     -1.166  0.3211E-02  0.3200E-02  0.5558E-02  0.5656E-02
     -1.151  0.3219E-02  0.3223E-02  0.5609E-02  0.5707E-02
     -1.135  0.3235E-02  0.3251E-02  0.5659E-02  0.5758E-02
     -1.119  0.3258E-02  0.3280E-02  0.5711E-02  0.5809E-02
     -1.104  0.3285E-02  0.3306E-02  0.5762E-02  0.5861E-02
     -1.088  0.3312E-02  0.3326E-02  0.5814E-02  0.5913E-02
     -1.072  0.3336E-02  0.3337E-02  0.5867E-02  0.5966E-02
     -1.056  0.3354E-02  0.3337E-02  0.5919E-02  0.6018E-02
     -1.041  0.3363E-02  0.3323E-02  0.5972E-02  0.6070E-02
     -1.025  0.3360E-02  0.3297E-02  0.6025E-02  0.6122E-02
     -1.009  0.3344E-02  0.3257E-02  0.6077E-02  0.6173E-02
     -0.994  0.3316E-02  0.3208E-02  0.6129E-02  0.6224E-02
     -0.978  0.3275E-02  0.3150E-02  0.6181E-02  0.6273E-02
     -0.962  0.3225E-02  0.3088E-02  0.6232E-02  0.6322E-02
     -0.947  0.3168E-02  0.3027E-02  0.6281E-02  0.6369E-02
     -0.931  0.3108E-02  0.2969E-02  0.6330E-02  0.6416E-02
     -0.915  0.3050E-02  0.2921E-02  0.6378E-02  0.6462E-02
     -0.899  0.2997E-02  0.2884E-02  0.6425E-02  0.6507E-02
     -0.884  0.2953E-02  0.2861E-02  0.6472E-02  0.6552E-02
     -0.868  0.2921E-02  0.2853E-02  0.6517E-02  0.6597E-02
     -0.852  0.2904E-02  0.2861E-02  0.6563E-02  0.6642E-02
     -0.837  0.2902E-02  0.2884E-02  0.6609E-02  0.6687E-02
     -0.821  0.2916E-02  0.2919E-02  0.6654E-02  0.6733E-02
     -0.805  0.2944E-02  0.2964E-02  0.6701E-02  0.6779E-02
     -0.789  0.2983E-02  0.3014E-02  0.6748E-02  0.6827E-02
     -0.774  0.3031E-02  0.3066E-02  0.6795E-02  0.6875E-02
     -0.758  0.3084E-02  0.3116E-02  0.6844E-02  0.6924E-02
     -0.742  0.3137E-02  0.3161E-02  0.6893E-02  0.6974E-02
     -0.727  0.3187E-02  0.3197E-02  0.6943E-02  0.7024E-02
     -0.711  0.3231E-02  0.3224E-02  0.6994E-02  0.7074E-02
     -0.695  0.3266E-02  0.3240E-02  0.7045E-02  0.7125E-02
     -0.680  0.3291E-02  0.3245E-02  0.7097E-02  0.7176E-02
     -0.664  0.3305E-02  0.3241E-02  0.7149E-02  0.7227E-02
     -0.648  0.3308E-02  0.3230E-02  0.7201E-02  0.7278E-02
     -0.632  0.3303E-02  0.3213E-02  0.7252E-02  0.7328E-02
     -0.617  0.3292E-02  0.3195E-02  0.7304E-02  0.7379E-02
     -0.601  0.3277E-02  0.3179E-02  0.7356E-02  0.7429E-02
     -0.585  0.3261E-02  0.3167E-02  0.7407E-02  0.7478E-02
     -0.570  0.3248E-02  0.3163E-02  0.7458E-02  0.7528E-02
     -0.554  0.3242E-02  0.3169E-02  0.7509E-02  0.7578E-02
     -0.538  0.3243E-02  0.3185E-02  0.7560E-02  0.7628E-02
     -0.522  0.3255E-02  0.3213E-02  0.7611E-02  0.7678E-02
     -0.507  0.3279E-02  0.3252E-02  0.7662E-02  0.7729E-02
     -0.491  0.3315E-02  0.3302E-02  0.7714E-02  0.7781E-02
     -0.475  0.3362E-02  0.3361E-02  0.7767E-02  0.7834E-02
     -0.460  0.3419E-02  0.3428E-02  0.7821E-02  0.7888E-02
     -0.444  0.3485E-02  0.3499E-02  0.7876E-02  0.7943E-02
     -0.428  0.3557E-02  0.3573E-02  0.7932E-02  0.7999E-02
     -0.412  0.3633E-02  0.3647E-02  0.7989E-02  0.8056E-02
     -0.397  0.3710E-02  0.3719E-02  0.8047E-02  0.8115E-02
     -0.381  0.3787E-02  0.3788E-02  0.8106E-02  0.8174E-02
     -0.365  0.3861E-02  0.3853E-02  0.8167E-02  0.8235E-02
     -0.350  0.3931E-02  0.3911E-02  0.8229E-02  0.8296E-02
     -0.334  0.3995E-02  0.3964E-02  0.8291E-02  0.8358E-02
     -0.318  0.4052E-02  0.4010E-02  0.8355E-02  0.8421E-02
     -0.303  0.4102E-02  0.4050E-02  0.8420E-02  0.8485E-02
     -0.287  0.4145E-02  0.4083E-02  0.8485E-02  0.8549E-02
     -0.271  0.4181E-02  0.4111E-02  0.8550E-02  0.8614E-02
     -0.255  0.4210E-02  0.4133E-02  0.8617E-02  0.8679E-02
     -0.240  0.4233E-02  0.4149E-02  0.8683E-02  0.8744E-02
     -0.224  0.4250E-02  0.4161E-02  0.8750E-02  0.8809E-02
     -0.208  0.4261E-02  0.4168E-02  0.8817E-02  0.8875E-02
     -0.193  0.4268E-02  0.4171E-02  0.8884E-02  0.8940E-02
     -0.177  0.4271E-02  0.4170E-02  0.8951E-02  0.9006E-02
     -0.161  0.4271E-02  0.4167E-02  0.9018E-02  0.9071E-02
     -0.145  0.4270E-02  0.4161E-02  0.9085E-02  0.9136E-02
     -0.130  0.4268E-02  0.4155E-02  0.9152E-02  0.9202E-02
     -0.114  0.4267E-02  0.4150E-02  0.9219E-02  0.9267E-02
     -0.098  0.4269E-02  0.4148E-02  0.9286E-02  0.9332E-02
     -0.083  0.4275E-02  0.4149E-02  0.9353E-02  0.9397E-02
     -0.067  0.4288E-02  0.4158E-02  0.9421E-02  0.9462E-02
     -0.051  0.4310E-02  0.4174E-02  0.9488E-02  0.9528E-02
     -0.035  0.4343E-02  0.4200E-02  0.9557E-02  0.9594E-02
     -0.020  0.4388E-02  0.4238E-02  0.9625E-02  0.9661E-02
     -0.004  0.4445E-02  0.4287E-02  0.9695E-02  0.9728E-02
      0.012  0.4517E-02  0.4349E-02  0.9766E-02  0.9796E-02
      0.027  0.4603E-02  0.4422E-02  0.9838E-02  0.9866E-02
      0.043  0.4701E-02  0.4507E-02  0.9912E-02  0.9937E-02
      0.059  0.4809E-02  0.4601E-02  0.9988E-02  0.1001E-01
      0.074  0.4926E-02  0.4703E-02  0.1007E-01  0.1008E-01
      0.090  0.5048E-02  0.4809E-02  0.1014E-01  0.1016E-01
      0.106  0.5171E-02  0.4917E-02  0.1023E-01  0.1024E-01
      0.122  0.5290E-02  0.5024E-02  0.1031E-01  0.1031E-01
      0.137  0.5402E-02  0.5125E-02  0.1039E-01  0.1039E-01
      0.153  0.5500E-02  0.5218E-02  0.1048E-01  0.1048E-01
      0.169  0.5582E-02  0.5299E-02  0.1057E-01  0.1056E-01
      0.184  0.5642E-02  0.5366E-02  0.1066E-01  0.1064E-01
      0.200  0.5678E-02  0.5415E-02  0.1075E-01  0.1073E-01
      0.216  0.5686E-02  0.5444E-02  0.1083E-01  0.1081E-01
      0.232  0.5666E-02  0.5452E-02  0.1092E-01  0.1090E-01
      0.247  0.5616E-02  0.5435E-02  0.1101E-01  0.1099E-01
      0.263  0.5537E-02  0.5395E-02  0.1110E-01  0.1107E-01
      0.279  0.5429E-02  0.5330E-02  0.1118E-01  0.1115E-01
      0.294  0.5296E-02  0.5240E-02  0.1127E-01  0.1124E-01
      0.310  0.5139E-02  0.5126E-02  0.1135E-01  0.1132E-01
      0.326  0.4964E-02  0.4991E-02  0.1143E-01  0.1140E-01
      0.341  0.4775E-02  0.4837E-02  0.1150E-01  0.1147E-01
      0.357  0.4576E-02  0.4668E-02  0.1157E-01  0.1154E-01
      0.373  0.4374E-02  0.4487E-02  0.1164E-01  0.1162E-01
      0.389  0.4173E-02  0.4299E-02  0.1171E-01  0.1168E-01
      0.404  0.3980E-02  0.4110E-02  0.1177E-01  0.1175E-01
      0.420  0.3799E-02  0.3926E-02  0.1183E-01  0.1181E-01
      0.436  0.3634E-02  0.3750E-02  0.1189E-01  0.1187E-01
      0.451  0.3491E-02  0.3589E-02  0.1194E-01  0.1192E-01
      0.467  0.3371E-02  0.3447E-02  0.1199E-01  0.1198E-01
      0.483  0.3277E-02  0.3326E-02  0.1205E-01  0.1203E-01
      0.499  0.3210E-02  0.3231E-02  0.1210E-01  0.1208E-01
      0.514  0.3171E-02  0.3162E-02  0.1215E-01  0.1213E-01
      0.530  0.3159E-02  0.3120E-02  0.1220E-01  0.1218E-01
      0.546  0.3172E-02  0.3105E-02  0.1225E-01  0.1223E-01
      0.561  0.3208E-02  0.3114E-02  0.1230E-01  0.1228E-01
      0.577  0.3265E-02  0.3147E-02  0.1235E-01  0.1233E-01
      0.593  0.3339E-02  0.3200E-02  0.1240E-01  0.1238E-01
      0.609  0.3429E-02  0.3271E-02  0.1245E-01  0.1243E-01
      0.624  0.3531E-02  0.3356E-02  0.1251E-01  0.1248E-01
      0.640  0.3642E-02  0.3453E-02  0.1257E-01  0.1254E-01
      0.656  0.3761E-02  0.3558E-02  0.1263E-01  0.1259E-01
      0.671  0.3884E-02  0.3670E-02  0.1269E-01  0.1265E-01
      0.687  0.4009E-02  0.3785E-02  0.1275E-01  0.1271E-01
      0.703  0.4136E-02  0.3902E-02  0.1281E-01  0.1277E-01
      0.718  0.4263E-02  0.4020E-02  0.1288E-01  0.1283E-01
      0.734  0.4390E-02  0.4137E-02  0.1295E-01  0.1290E-01
      0.750  0.4515E-02  0.4252E-02  0.1302E-01  0.1297E-01
      0.766  0.4637E-02  0.4364E-02  0.1309E-01  0.1303E-01
      0.781  0.4757E-02  0.4473E-02  0.1317E-01  0.1310E-01
      0.797  0.4874E-02  0.4578E-02  0.1325E-01  0.1318E-01
      0.813  0.4988E-02  0.4679E-02  0.1332E-01  0.1325E-01
      0.828  0.5098E-02  0.4776E-02  0.1340E-01  0.1332E-01
      0.844  0.5205E-02  0.4870E-02  0.1349E-01  0.1340E-01
      0.860  0.5310E-02  0.4959E-02  0.1357E-01  0.1348E-01
      0.876  0.5411E-02  0.5045E-02  0.1365E-01  0.1356E-01
      0.891  0.5510E-02  0.5128E-02  0.1374E-01  0.1364E-01
      0.907  0.5609E-02  0.5209E-02  0.1383E-01  0.1372E-01
      0.923  0.5706E-02  0.5288E-02  0.1392E-01  0.1380E-01
      0.938  0.5805E-02  0.5366E-02  0.1401E-01  0.1389E-01
      0.954  0.5906E-02  0.5443E-02  0.1410E-01  0.1397E-01
      0.970  0.6011E-02  0.5522E-02  0.1420E-01  0.1406E-01
      0.986  0.6122E-02  0.5603E-02  0.1429E-01  0.1415E-01
      1.001  0.6239E-02  0.5687E-02  0.1439E-01  0.1424E-01
      1.017  0.6364E-02  0.5774E-02  0.1449E-01  0.1433E-01
      1.033  0.6499E-02  0.5866E-02  0.1459E-01  0.1442E-01
      1.048  0.6645E-02  0.5965E-02  0.1470E-01  0.1451E-01
      1.064  0.6801E-02  0.6069E-02  0.1480E-01  0.1461E-01
      1.080  0.6968E-02  0.6181E-02  0.1491E-01  0.1471E-01
      1.095  0.7147E-02  0.6301E-02  0.1503E-01  0.1481E-01
      1.111  0.7335E-02  0.6430E-02  0.1514E-01  0.1491E-01
      1.127  0.7532E-02  0.6567E-02  0.1526E-01  0.1501E-01
      1.143  0.7735E-02  0.6712E-02  0.1538E-01  0.1511E-01
      1.158  0.7942E-02  0.6865E-02  0.1551E-01  0.1522E-01
      1.174  0.8150E-02  0.7025E-02  0.1563E-01  0.1533E-01
      1.190  0.8355E-02  0.7191E-02  0.1576E-01  0.1545E-01
      1.205  0.8554E-02  0.7361E-02  0.1590E-01  0.1556E-01
      1.221  0.8743E-02  0.7534E-02  0.1604E-01  0.1568E-01
      1.237  0.8918E-02  0.7706E-02  0.1618E-01  0.1580E-01
      1.253  0.9077E-02  0.7876E-02  0.1632E-01  0.1592E-01
      1.268  0.9217E-02  0.8040E-02  0.1646E-01  0.1605E-01
      1.284  0.9334E-02  0.8196E-02  0.1661E-01  0.1618E-01
      1.300  0.9428E-02  0.8342E-02  0.1676E-01  0.1631E-01
      1.315  0.9497E-02  0.8475E-02  0.1691E-01  0.1644E-01
      1.331  0.9542E-02  0.8594E-02  0.1706E-01  0.1658E-01
      1.347  0.9564E-02  0.8697E-02  0.1721E-01  0.1672E-01
      1.363  0.9564E-02  0.8783E-02  0.1736E-01  0.1685E-01
      1.378  0.9546E-02  0.8852E-02  0.1751E-01  0.1699E-01
      1.394  0.9514E-02  0.8902E-02  0.1766E-01  0.1713E-01
      1.410  0.9471E-02  0.8936E-02  0.1781E-01  0.1727E-01
      1.425  0.9425E-02  0.8953E-02  0.1795E-01  0.1741E-01
      1.441  0.9380E-02  0.8953E-02  0.1810E-01  0.1755E-01
      1.457  0.9346E-02  0.8940E-02  0.1825E-01  0.1769E-01
      1.472  0.9330E-02  0.8914E-02  0.1839E-01  0.1783E-01
      1.488  0.9339E-02  0.8879E-02  0.1854E-01  0.1797E-01
      1.504  0.9382E-02  0.8838E-02  0.1869E-01  0.1811E-01
      1.520  0.9466E-02  0.8796E-02  0.1884E-01  0.1825E-01
      1.535  0.9597E-02  0.8758E-02  0.1899E-01  0.1839E-01
      1.551  0.9779E-02  0.8731E-02  0.1914E-01  0.1853E-01
      1.567  0.1001E-01  0.8722E-02  0.1930E-01  0.1866E-01
      1.582  0.1030E-01  0.8738E-02  0.1946E-01  0.1880E-01
      1.598  0.1063E-01  0.8786E-02  0.1963E-01  0.1894E-01
      1.614  0.1101E-01  0.8874E-02  0.1980E-01  0.1908E-01
      1.630  0.1142E-01  0.9005E-02  0.1998E-01  0.1922E-01
      1.645  0.1184E-01  0.9184E-02  0.2017E-01  0.1936E-01
      1.661  0.1227E-01  0.9411E-02  0.2036E-01  0.1951E-01
      1.677  0.1268E-01  0.9685E-02  0.2056E-01  0.1966E-01
      1.692  0.1307E-01  0.1000E-01  0.2076E-01  0.1982E-01
      1.708  0.1341E-01  0.1035E-01  0.2097E-01  0.1998E-01
      1.724  0.1368E-01  0.1073E-01  0.2119E-01  0.2015E-01
      1.739  0.1389E-01  0.1111E-01  0.2141E-01  0.2033E-01
      1.755  0.1401E-01  0.1150E-01  0.2163E-01  0.2051E-01
      1.771  0.1405E-01  0.1187E-01  0.2185E-01  0.2069E-01
      1.787  0.1401E-01  0.1220E-01  0.2207E-01  0.2088E-01
      1.802  0.1389E-01  0.1248E-01  0.2229E-01  0.2108E-01
      1.818  0.1370E-01  0.1271E-01  0.2250E-01  0.2128E-01
      1.834  0.1346E-01  0.1287E-01  0.2271E-01  0.2148E-01
      1.849  0.1319E-01  0.1295E-01  0.2292E-01  0.2169E-01
      1.865  0.1289E-01  0.1295E-01  0.2312E-01  0.2189E-01
      1.881  0.1261E-01  0.1288E-01  0.2332E-01  0.2209E-01
      1.897  0.1234E-01  0.1274E-01  0.2351E-01  0.2229E-01
      1.912  0.1212E-01  0.1254E-01  0.2370E-01  0.2249E-01
      1.928  0.1195E-01  0.1230E-01  0.2389E-01  0.2268E-01
      1.944  0.1185E-01  0.1203E-01  0.2408E-01  0.2287E-01
      1.959  0.1183E-01  0.1174E-01  0.2426E-01  0.2305E-01
      1.975  0.1188E-01  0.1146E-01  0.2445E-01  0.2323E-01
      1.991  0.1201E-01  0.1120E-01  0.2464E-01  0.2341E-01
      2.007  0.1222E-01  0.1098E-01  0.2483E-01  0.2358E-01
      2.022  0.1248E-01  0.1081E-01  0.2503E-01  0.2375E-01
      2.038  0.1278E-01  0.1070E-01  0.2523E-01  0.2392E-01
      2.054  0.1312E-01  0.1066E-01  0.2543E-01  0.2409E-01
      2.069  0.1346E-01  0.1069E-01  0.2565E-01  0.2426E-01
      2.085  0.1379E-01  0.1078E-01  0.2586E-01  0.2443E-01
      2.101  0.1410E-01  0.1094E-01  0.2608E-01  0.2460E-01
      2.116  0.1437E-01  0.1115E-01  0.2631E-01  0.2477E-01
      2.132  0.1458E-01  0.1141E-01  0.2654E-01  0.2495E-01
      2.148  0.1473E-01  0.1170E-01  0.2677E-01  0.2514E-01
      2.164  0.1480E-01  0.1200E-01  0.2700E-01  0.2532E-01
      2.179  0.1480E-01  0.1231E-01  0.2724E-01  0.2552E-01
      2.195  0.1473E-01  0.1261E-01  0.2747E-01  0.2572E-01
      2.211  0.1460E-01  0.1288E-01  0.2770E-01  0.2592E-01
      2.226  0.1440E-01  0.1312E-01  0.2792E-01  0.2612E-01
      2.242  0.1417E-01  0.1331E-01  0.2814E-01  0.2633E-01
      2.258  0.1390E-01  0.1345E-01  0.2836E-01  0.2654E-01
      2.274  0.1361E-01  0.1354E-01  0.2858E-01  0.2676E-01
      2.289  0.1332E-01  0.1357E-01  0.2879E-01  0.2697E-01
      2.305  0.1306E-01  0.1355E-01  0.2899E-01  0.2718E-01
      2.321  0.1283E-01  0.1349E-01  0.2919E-01  0.2740E-01
      2.336  0.1266E-01  0.1338E-01  0.2939E-01  0.2761E-01
      2.352  0.1258E-01  0.1325E-01  0.2959E-01  0.2781E-01
      2.368  0.1259E-01  0.1309E-01  0.2979E-01  0.2802E-01
      2.384  0.1274E-01  0.1292E-01  0.2999E-01  0.2822E-01
      2.399  0.1303E-01  0.1276E-01  0.3019E-01  0.2842E-01
      2.415  0.1351E-01  0.1260E-01  0.3040E-01  0.2862E-01
      2.431  0.1418E-01  0.1246E-01  0.3063E-01  0.2882E-01
      2.446  0.1507E-01  0.1234E-01  0.3086E-01  0.2901E-01
      2.462  0.1621E-01  0.1226E-01  0.3112E-01  0.2920E-01
      2.478  0.1760E-01  0.1223E-01  0.3139E-01  0.2939E-01
      2.493  0.1925E-01  0.1224E-01  0.3170E-01  0.2959E-01
      2.509  0.2116E-01  0.1231E-01  0.3203E-01  0.2978E-01
      2.525  0.2332E-01  0.1244E-01  0.3240E-01  0.2998E-01
      2.541  0.2570E-01  0.1266E-01  0.3280E-01  0.3017E-01
      2.556  0.2829E-01  0.1298E-01  0.3324E-01  0.3038E-01
      2.572  0.3103E-01  0.1340E-01  0.3373E-01  0.3059E-01
      2.588  0.3388E-01  0.1395E-01  0.3426E-01  0.3081E-01
      2.603  0.3678E-01  0.1464E-01  0.3484E-01  0.3104E-01
      2.619  0.3966E-01  0.1549E-01  0.3546E-01  0.3128E-01
      2.635  0.4246E-01  0.1652E-01  0.3613E-01  0.3154E-01
      2.651  0.4511E-01  0.1774E-01  0.3684E-01  0.3182E-01
      2.666  0.4755E-01  0.1915E-01  0.3759E-01  0.3212E-01
      2.682  0.4972E-01  0.2075E-01  0.3837E-01  0.3245E-01
      2.698  0.5157E-01  0.2255E-01  0.3918E-01  0.3280E-01
      2.713  0.5306E-01  0.2453E-01  0.4001E-01  0.3319E-01
      2.729  0.5416E-01  0.2667E-01  0.4086E-01  0.3360E-01
      2.745  0.5487E-01  0.2894E-01  0.4172E-01  0.3406E-01
      2.761  0.5520E-01  0.3131E-01  0.4259E-01  0.3455E-01
      2.776  0.5514E-01  0.3374E-01  0.4346E-01  0.3508E-01
      2.792  0.5475E-01  0.3618E-01  0.4432E-01  0.3565E-01
      2.808  0.5406E-01  0.3857E-01  0.4517E-01  0.3626E-01
      2.823  0.5313E-01  0.4086E-01  0.4600E-01  0.3690E-01
      2.839  0.5201E-01  0.4300E-01  0.4682E-01  0.3757E-01
      2.855  0.5076E-01  0.4492E-01  0.4761E-01  0.3828E-01
      2.870  0.4945E-01  0.4658E-01  0.4839E-01  0.3901E-01
      2.886  0.4813E-01  0.4793E-01  0.4915E-01  0.3976E-01
      2.902  0.4686E-01  0.4893E-01  0.4988E-01  0.4053E-01
      2.918  0.4568E-01  0.4955E-01  0.5060E-01  0.4131E-01
      2.933  0.4462E-01  0.4977E-01  0.5130E-01  0.4209E-01
      2.949  0.4371E-01  0.4958E-01  0.5199E-01  0.4287E-01
      2.965  0.4296E-01  0.4899E-01  0.5266E-01  0.4364E-01
      2.980  0.4237E-01  0.4803E-01  0.5333E-01  0.4439E-01
      2.996  0.4194E-01  0.4673E-01  0.5399E-01  0.4513E-01
      3.012  0.4165E-01  0.4514E-01  0.5464E-01  0.4584E-01
      3.028  0.4147E-01  0.4332E-01  0.5529E-01  0.4652E-01
      3.043  0.4140E-01  0.4134E-01  0.5594E-01  0.4717E-01
      3.059  0.4139E-01  0.3928E-01  0.5659E-01  0.4778E-01
      3.075  0.4143E-01  0.3722E-01  0.5724E-01  0.4837E-01
      3.090  0.4149E-01  0.3525E-01  0.5790E-01  0.4892E-01
      3.106  0.4156E-01  0.3343E-01  0.5855E-01  0.4945E-01
      3.122  0.4161E-01  0.3183E-01  0.5920E-01  0.4995E-01
      3.137  0.4163E-01  0.3051E-01  0.5986E-01  0.5043E-01
      3.153  0.4162E-01  0.2952E-01  0.6051E-01  0.5089E-01
      3.169  0.4157E-01  0.2888E-01  0.6116E-01  0.5134E-01
      3.185  0.4146E-01  0.2860E-01  0.6181E-01  0.5179E-01
      3.200  0.4132E-01  0.2869E-01  0.6246E-01  0.5224E-01
      3.216  0.4112E-01  0.2912E-01  0.6311E-01  0.5270E-01
      3.232  0.4087E-01  0.2987E-01  0.6375E-01  0.5317E-01
      3.247  0.4057E-01  0.3088E-01  0.6439E-01  0.5366E-01
      3.263  0.4022E-01  0.3211E-01  0.6502E-01  0.5416E-01
      3.279  0.3982E-01  0.3351E-01  0.6565E-01  0.5469E-01
      3.295  0.3937E-01  0.3502E-01  0.6626E-01  0.5524E-01
      3.310  0.3887E-01  0.3657E-01  0.6687E-01  0.5581E-01
      3.326  0.3834E-01  0.3813E-01  0.6748E-01  0.5641E-01
      3.342  0.3777E-01  0.3963E-01  0.6807E-01  0.5703E-01
      3.357  0.3720E-01  0.4104E-01  0.6865E-01  0.5768E-01
      3.373  0.3663E-01  0.4231E-01  0.6923E-01  0.5834E-01
      3.389  0.3608E-01  0.4343E-01  0.6980E-01  0.5902E-01
      3.405  0.3560E-01  0.4437E-01  0.7036E-01  0.5972E-01
      3.420  0.3521E-01  0.4510E-01  0.7091E-01  0.6043E-01
      3.436  0.3495E-01  0.4562E-01  0.7146E-01  0.6115E-01
      3.452  0.3484E-01  0.4591E-01  0.7200E-01  0.6187E-01
      3.467  0.3494E-01  0.4599E-01  0.7255E-01  0.6259E-01
      3.483  0.3527E-01  0.4584E-01  0.7311E-01  0.6331E-01
      3.499  0.3585E-01  0.4547E-01  0.7367E-01  0.6402E-01
      3.514  0.3669E-01  0.4489E-01  0.7425E-01  0.6473E-01
      3.530  0.3780E-01  0.4411E-01  0.7484E-01  0.6542E-01
      3.546  0.3916E-01  0.4315E-01  0.7546E-01  0.6610E-01
      3.562  0.4074E-01  0.4203E-01  0.7610E-01  0.6676E-01
      3.577  0.4252E-01  0.4078E-01  0.7676E-01  0.6740E-01
      3.593  0.4441E-01  0.3943E-01  0.7746E-01  0.6802E-01
      3.609  0.4637E-01  0.3800E-01  0.7819E-01  0.6862E-01
      3.624  0.4830E-01  0.3654E-01  0.7895E-01  0.6919E-01
      3.640  0.5014E-01  0.3509E-01  0.7974E-01  0.6974E-01
      3.656  0.5179E-01  0.3368E-01  0.8055E-01  0.7027E-01
      3.672  0.5318E-01  0.3237E-01  0.8138E-01  0.7078E-01
      3.687  0.5423E-01  0.3118E-01  0.8224E-01  0.7127E-01
      3.703  0.5490E-01  0.3017E-01  0.8310E-01  0.7174E-01
      3.719  0.5513E-01  0.2936E-01  0.8397E-01  0.7220E-01
      3.734  0.5492E-01  0.2878E-01  0.8483E-01  0.7266E-01
      3.750  0.5426E-01  0.2848E-01  0.8568E-01  0.7310E-01
      3.766  0.5318E-01  0.2847E-01  0.8652E-01  0.7355E-01
      3.782  0.5171E-01  0.2877E-01  0.8733E-01  0.7400E-01
      3.797  0.4990E-01  0.2938E-01  0.8811E-01  0.7446E-01
      3.813  0.4783E-01  0.3032E-01  0.8886E-01  0.7494E-01
      3.829  0.4557E-01  0.3157E-01  0.8958E-01  0.7544E-01
      3.844  0.4320E-01  0.3311E-01  0.9026E-01  0.7596E-01
      3.860  0.4080E-01  0.3492E-01  0.9090E-01  0.7650E-01
      3.876  0.3843E-01  0.3694E-01  0.9150E-01  0.7708E-01
      3.891  0.3616E-01  0.3913E-01  0.9207E-01  0.7770E-01
      3.907  0.3404E-01  0.4142E-01  0.9260E-01  0.7835E-01
      3.923  0.3211E-01  0.4374E-01  0.9311E-01  0.7904E-01
      3.939  0.3039E-01  0.4601E-01  0.9359E-01  0.7976E-01
      3.954  0.2888E-01  0.4817E-01  0.9404E-01  0.8052E-01
      3.970  0.2760E-01  0.5012E-01  0.9447E-01  0.8130E-01
      3.986  0.2652E-01  0.5179E-01  0.9489E-01  0.8212E-01
      4.001  0.2564E-01  0.5314E-01  0.9529E-01  0.8295E-01
      4.017  0.2492E-01  0.5409E-01  0.9568E-01  0.8380E-01
      4.033  0.2435E-01  0.5463E-01  0.9607E-01  0.8466E-01
      4.049  0.2390E-01  0.5473E-01  0.9644E-01  0.8552E-01
      4.064  0.2356E-01  0.5440E-01  0.9681E-01  0.8637E-01
      4.080  0.2331E-01  0.5364E-01  0.9718E-01  0.8722E-01
      4.096  0.2314E-01  0.5251E-01  0.9754E-01  0.8804E-01
      4.111  0.2305E-01  0.5104E-01  0.9790E-01  0.8884E-01
      4.127  0.2304E-01  0.4929E-01  0.9827E-01  0.8962E-01
      4.143  0.2312E-01  0.4734E-01  0.9863E-01  0.9036E-01
      4.158  0.2330E-01  0.4524E-01  0.9900E-01  0.9107E-01
      4.174  0.2359E-01  0.4306E-01  0.9937E-01  0.9175E-01
      4.190  0.2401E-01  0.4087E-01  0.9974E-01  0.9239E-01
      4.206  0.2457E-01  0.3871E-01  0.1001E+00  0.9300E-01
      4.221  0.2529E-01  0.3665E-01  0.1005E+00  0.9357E-01
      4.237  0.2618E-01  0.3471E-01  0.1009E+00  0.9412E-01
      4.253  0.2725E-01  0.3291E-01  0.1014E+00  0.9464E-01
      4.268  0.2849E-01  0.3129E-01  0.1018E+00  0.9513E-01
      4.284  0.2993E-01  0.2985E-01  0.1023E+00  0.9560E-01
      4.300  0.3156E-01  0.2859E-01  0.1028E+00  0.9604E-01
      4.316  0.3338E-01  0.2751E-01  0.1033E+00  0.9648E-01
      4.331  0.3538E-01  0.2662E-01  0.1039E+00  0.9689E-01
      4.347  0.3756E-01  0.2592E-01  0.1044E+00  0.9730E-01
      4.363  0.3993E-01  0.2540E-01  0.1051E+00  0.9770E-01
      4.378  0.4245E-01  0.2507E-01  0.1057E+00  0.9809E-01
      4.394  0.4514E-01  0.2494E-01  0.1065E+00  0.9849E-01
      4.410  0.4797E-01  0.2501E-01  0.1072E+00  0.9888E-01
      4.426  0.5093E-01  0.2530E-01  0.1080E+00  0.9928E-01
      4.441  0.5398E-01  0.2581E-01  0.1089E+00  0.9968E-01
      4.457  0.5711E-01  0.2656E-01  0.1098E+00  0.1001E+00
      4.473  0.6027E-01  0.2756E-01  0.1107E+00  0.1005E+00
      4.488  0.6342E-01  0.2880E-01  0.1117E+00  0.1010E+00
      4.504  0.6651E-01  0.3029E-01  0.1127E+00  0.1015E+00
      4.520  0.6948E-01  0.3202E-01  0.1138E+00  0.1020E+00
      4.535  0.7228E-01  0.3397E-01  0.1150E+00  0.1025E+00
      4.551  0.7484E-01  0.3614E-01  0.1161E+00  0.1031E+00
      4.567  0.7712E-01  0.3848E-01  0.1174E+00  0.1037E+00
      4.583  0.7905E-01  0.4097E-01  0.1186E+00  0.1043E+00
      4.598  0.8060E-01  0.4358E-01  0.1199E+00  0.1050E+00
      4.614  0.8174E-01  0.4626E-01  0.1211E+00  0.1057E+00
      4.630  0.8244E-01  0.4898E-01  0.1224E+00  0.1065E+00
      4.645  0.8269E-01  0.5171E-01  0.1237E+00  0.1073E+00
      4.661  0.8251E-01  0.5441E-01  0.1250E+00  0.1082E+00
      4.677  0.8190E-01  0.5704E-01  0.1263E+00  0.1091E+00
      4.693  0.8089E-01  0.5958E-01  0.1276E+00  0.1100E+00
      4.708  0.7953E-01  0.6201E-01  0.1288E+00  0.1110E+00
      4.724  0.7785E-01  0.6433E-01  0.1301E+00  0.1120E+00
      4.740  0.7592E-01  0.6650E-01  0.1313E+00  0.1130E+00
      4.755  0.7378E-01  0.6854E-01  0.1324E+00  0.1141E+00
      4.771  0.7148E-01  0.7043E-01  0.1335E+00  0.1152E+00
      4.787  0.6909E-01  0.7218E-01  0.1346E+00  0.1163E+00
      4.803  0.6665E-01  0.7377E-01  0.1357E+00  0.1175E+00
      4.818  0.6423E-01  0.7522E-01  0.1367E+00  0.1187E+00
      4.834  0.6186E-01  0.7649E-01  0.1376E+00  0.1199E+00
      4.850  0.5958E-01  0.7759E-01  0.1386E+00  0.1211E+00
      4.865  0.5744E-01  0.7849E-01  0.1395E+00  0.1223E+00
      4.881  0.5547E-01  0.7917E-01  0.1404E+00  0.1236E+00
      4.897  0.5369E-01  0.7961E-01  0.1412E+00  0.1248E+00
      4.912  0.5211E-01  0.7978E-01  0.1420E+00  0.1261E+00
      4.928  0.5075E-01  0.7965E-01  0.1428E+00  0.1273E+00
      4.944  0.4961E-01  0.7921E-01  0.1436E+00  0.1286E+00
      4.960  0.4868E-01  0.7845E-01  0.1444E+00  0.1298E+00
      4.975  0.4795E-01  0.7737E-01  0.1451E+00  0.1310E+00
      4.991  0.4740E-01  0.7597E-01  0.1459E+00  0.1322E+00
      5.007  0.4700E-01  0.7427E-01  0.1466E+00  0.1334E+00
      5.022  0.4672E-01  0.7232E-01  0.1473E+00  0.1345E+00
      5.038  0.4652E-01  0.7014E-01  0.1481E+00  0.1356E+00
      5.054  0.4637E-01  0.6781E-01  0.1488E+00  0.1367E+00
      5.070  0.4625E-01  0.6537E-01  0.1495E+00  0.1377E+00
      5.085  0.4611E-01  0.6290E-01  0.1502E+00  0.1387E+00
      5.101  0.4594E-01  0.6044E-01  0.1510E+00  0.1396E+00
      5.117  0.4572E-01  0.5806E-01  0.1517E+00  0.1406E+00
      5.132  0.4544E-01  0.5581E-01  0.1524E+00  0.1414E+00
      5.148  0.4509E-01  0.5373E-01  0.1531E+00  0.1423E+00
      5.164  0.4469E-01  0.5185E-01  0.1538E+00  0.1431E+00
      5.180  0.4424E-01  0.5017E-01  0.1545E+00  0.1439E+00
      5.195  0.4376E-01  0.4870E-01  0.1552E+00  0.1446E+00
      5.211  0.4325E-01  0.4742E-01  0.1559E+00  0.1454E+00
      5.227  0.4273E-01  0.4631E-01  0.1565E+00  0.1461E+00
      5.242  0.4222E-01  0.4534E-01  0.1572E+00  0.1468E+00
      5.258  0.4171E-01  0.4445E-01  0.1579E+00  0.1475E+00
      5.274  0.4120E-01  0.4362E-01  0.1585E+00  0.1482E+00
      5.289  0.4068E-01  0.4280E-01  0.1591E+00  0.1489E+00
      5.305  0.4015E-01  0.4195E-01  0.1598E+00  0.1495E+00
      5.321  0.3958E-01  0.4104E-01  0.1604E+00  0.1502E+00
      5.337  0.3895E-01  0.4005E-01  0.1610E+00  0.1508E+00
      5.352  0.3823E-01  0.3897E-01  0.1616E+00  0.1514E+00
      5.368  0.3740E-01  0.3779E-01  0.1622E+00  0.1520E+00
      5.384  0.3643E-01  0.3652E-01  0.1628E+00  0.1526E+00
      5.399  0.3532E-01  0.3518E-01  0.1633E+00  0.1532E+00
      5.415  0.3404E-01  0.3379E-01  0.1639E+00  0.1537E+00
      5.431  0.3261E-01  0.3239E-01  0.1644E+00  0.1542E+00
      5.447  0.3101E-01  0.3100E-01  0.1649E+00  0.1547E+00
      5.462  0.2928E-01  0.2967E-01  0.1653E+00  0.1551E+00
      5.478  0.2743E-01  0.2843E-01  0.1657E+00  0.1556E+00
      5.494  0.2548E-01  0.2731E-01  0.1661E+00  0.1560E+00
      5.509  0.2348E-01  0.2634E-01  0.1665E+00  0.1564E+00
      5.525  0.2145E-01  0.2554E-01  0.1669E+00  0.1568E+00
      5.541  0.1944E-01  0.2493E-01  0.1672E+00  0.1572E+00
      5.556  0.1748E-01  0.2452E-01  0.1674E+00  0.1576E+00
      5.572  0.1559E-01  0.2431E-01  0.1677E+00  0.1580E+00
      5.588  0.1382E-01  0.2430E-01  0.1679E+00  0.1584E+00
      5.604  0.1218E-01  0.2448E-01  0.1681E+00  0.1588E+00
      5.619  0.1069E-01  0.2481E-01  0.1683E+00  0.1592E+00
      5.635  0.9366E-02  0.2528E-01  0.1684E+00  0.1595E+00
      5.651  0.8206E-02  0.2586E-01  0.1685E+00  0.1600E+00
      5.666  0.7213E-02  0.2651E-01  0.1686E+00  0.1604E+00
      5.682  0.6380E-02  0.2719E-01  0.1687E+00  0.1608E+00
      5.698  0.5699E-02  0.2786E-01  0.1688E+00  0.1612E+00
      5.714  0.5156E-02  0.2849E-01  0.1689E+00  0.1617E+00
      5.729  0.4738E-02  0.2903E-01  0.1690E+00  0.1621E+00
      5.745  0.4428E-02  0.2945E-01  0.1691E+00  0.1626E+00
      5.761  0.4208E-02  0.2973E-01  0.1691E+00  0.1631E+00
      5.776  0.4064E-02  0.2983E-01  0.1692E+00  0.1635E+00
      5.792  0.3978E-02  0.2975E-01  0.1693E+00  0.1640E+00
      5.808  0.3938E-02  0.2946E-01  0.1693E+00  0.1645E+00
      5.824  0.3930E-02  0.2898E-01  0.1694E+00  0.1649E+00
      5.839  0.3944E-02  0.2830E-01  0.1694E+00  0.1654E+00
      5.855  0.3971E-02  0.2743E-01  0.1695E+00  0.1658E+00
      5.871  0.4003E-02  0.2640E-01  0.1696E+00  0.1662E+00
      5.886  0.4034E-02  0.2522E-01  0.1696E+00  0.1666E+00
      5.902  0.4062E-02  0.2391E-01  0.1697E+00  0.1670E+00
      5.918  0.4083E-02  0.2250E-01  0.1698E+00  0.1673E+00
      5.933  0.4095E-02  0.2103E-01  0.1698E+00  0.1677E+00
      5.949  0.4097E-02  0.1951E-01  0.1699E+00  0.1680E+00
      5.965  0.4091E-02  0.1797E-01  0.1699E+00  0.1683E+00
      5.981  0.4077E-02  0.1645E-01  0.1700E+00  0.1685E+00
      5.996  0.4057E-02  0.1495E-01  0.1701E+00  0.1687E+00
      6.012  0.4033E-02  0.1350E-01  0.1701E+00  0.1690E+00
      6.028  0.4007E-02  0.1213E-01  0.1702E+00  0.1692E+00
      6.043  0.3982E-02  0.1084E-01  0.1703E+00  0.1693E+00
      6.059  0.3961E-02  0.9641E-02  0.1703E+00  0.1695E+00
      6.075  0.3946E-02  0.8548E-02  0.1704E+00  0.1696E+00
      6.091  0.3942E-02  0.7564E-02  0.1704E+00  0.1697E+00
      6.106  0.3950E-02  0.6693E-02  0.1705E+00  0.1698E+00
      6.122  0.3972E-02  0.5933E-02  0.1706E+00  0.1699E+00
      6.138  0.4012E-02  0.5283E-02  0.1706E+00  0.1700E+00
      6.153  0.4070E-02  0.4737E-02  0.1707E+00  0.1701E+00
      6.169  0.4149E-02  0.4289E-02  0.1708E+00  0.1702E+00
      6.185  0.4250E-02  0.3931E-02  0.1708E+00  0.1702E+00
      6.201  0.4374E-02  0.3653E-02  0.1709E+00  0.1703E+00
      6.216  0.4523E-02  0.3445E-02  0.1710E+00  0.1703E+00
      6.232  0.4696E-02  0.3297E-02  0.1710E+00  0.1704E+00
      6.248  0.4896E-02  0.3198E-02  0.1711E+00  0.1704E+00
      6.263  0.5121E-02  0.3138E-02  0.1712E+00  0.1705E+00
      6.279  0.5372E-02  0.3110E-02  0.1713E+00  0.1705E+00
      6.295  0.5648E-02  0.3104E-02  0.1714E+00  0.1706E+00
      6.310  0.5947E-02  0.3114E-02  0.1715E+00  0.1706E+00
      6.326  0.6266E-02  0.3136E-02  0.1716E+00  0.1707E+00
      6.342  0.6602E-02  0.3165E-02  0.1717E+00  0.1707E+00
      6.358  0.6949E-02  0.3199E-02  0.1718E+00  0.1708E+00
      6.373  0.7302E-02  0.3238E-02  0.1719E+00  0.1708E+00
      6.389  0.7654E-02  0.3280E-02  0.1720E+00  0.1709E+00
      6.405  0.7997E-02  0.3328E-02  0.1721E+00  0.1709E+00
      6.420  0.8325E-02  0.3384E-02  0.1723E+00  0.1710E+00
      6.436  0.8630E-02  0.3451E-02  0.1724E+00  0.1710E+00
      6.452  0.8907E-02  0.3531E-02  0.1725E+00  0.1711E+00
      6.468  0.9150E-02  0.3629E-02  0.1727E+00  0.1711E+00
      6.483  0.9357E-02  0.3748E-02  0.1728E+00  0.1712E+00
      6.499  0.9525E-02  0.3892E-02  0.1730E+00  0.1713E+00
      6.515  0.9654E-02  0.4064E-02  0.1731E+00  0.1713E+00
      6.530  0.9748E-02  0.4266E-02  0.1733E+00  0.1714E+00
      6.546  0.9807E-02  0.4501E-02  0.1734E+00  0.1715E+00
      6.562  0.9838E-02  0.4769E-02  0.1736E+00  0.1715E+00
      6.578  0.9845E-02  0.5071E-02  0.1738E+00  0.1716E+00
      6.593  0.9834E-02  0.5406E-02  0.1739E+00  0.1717E+00
      6.609  0.9808E-02  0.5770E-02  0.1741E+00  0.1718E+00
      6.625  0.9775E-02  0.6160E-02  0.1742E+00  0.1719E+00
      6.640  0.9736E-02  0.6573E-02  0.1744E+00  0.1720E+00
      6.656  0.9696E-02  0.7001E-02  0.1745E+00  0.1721E+00
      6.672  0.9657E-02  0.7440E-02  0.1747E+00  0.1722E+00
      6.687  0.9619E-02  0.7882E-02  0.1748E+00  0.1723E+00
      6.703  0.9583E-02  0.8322E-02  0.1750E+00  0.1725E+00
      6.719  0.9549E-02  0.8752E-02  0.1751E+00  0.1726E+00
      6.735  0.9516E-02  0.9168E-02  0.1753E+00  0.1728E+00
      6.750  0.9483E-02  0.9563E-02  0.1754E+00  0.1729E+00
      6.766  0.9447E-02  0.9936E-02  0.1756E+00  0.1731E+00
      6.782  0.9408E-02  0.1028E-01  0.1757E+00  0.1732E+00
      6.797  0.9362E-02  0.1060E-01  0.1759E+00  0.1734E+00
      6.813  0.9310E-02  0.1088E-01  0.1760E+00  0.1736E+00
      6.829  0.9248E-02  0.1114E-01  0.1762E+00  0.1737E+00
      6.845  0.9175E-02  0.1136E-01  0.1763E+00  0.1739E+00
      6.860  0.9089E-02  0.1155E-01  0.1764E+00  0.1741E+00
      6.876  0.8990E-02  0.1170E-01  0.1766E+00  0.1743E+00
      6.892  0.8876E-02  0.1182E-01  0.1767E+00  0.1745E+00
      6.907  0.8747E-02  0.1190E-01  0.1769E+00  0.1747E+00
      6.923  0.8604E-02  0.1195E-01  0.1770E+00  0.1748E+00
      6.939  0.8448E-02  0.1195E-01  0.1771E+00  0.1750E+00
      6.954  0.8282E-02  0.1192E-01  0.1773E+00  0.1752E+00
      6.970  0.8109E-02  0.1184E-01  0.1774E+00  0.1754E+00
      6.986  0.7931E-02  0.1173E-01  0.1775E+00  0.1756E+00
      7.002  0.7753E-02  0.1157E-01  0.1776E+00  0.1758E+00
      7.017  0.7578E-02  0.1138E-01  0.1778E+00  0.1759E+00
      7.033  0.7411E-02  0.1115E-01  0.1779E+00  0.1761E+00
      7.049  0.7255E-02  0.1090E-01  0.1780E+00  0.1763E+00
      7.064  0.7113E-02  0.1062E-01  0.1781E+00  0.1765E+00
      7.080  0.6986E-02  0.1032E-01  0.1782E+00  0.1766E+00
      7.096  0.6876E-02  0.1001E-01  0.1783E+00  0.1768E+00
      7.112  0.6783E-02  0.9703E-02  0.1784E+00  0.1769E+00
      7.127  0.6707E-02  0.9397E-02  0.1785E+00  0.1771E+00
      7.143  0.6647E-02  0.9103E-02  0.1786E+00  0.1772E+00
      7.159  0.6602E-02  0.8825E-02  0.1787E+00  0.1774E+00
      7.174  0.6570E-02  0.8571E-02  0.1788E+00  0.1775E+00
      7.190  0.6551E-02  0.8344E-02  0.1789E+00  0.1776E+00
      7.206  0.6543E-02  0.8146E-02  0.1790E+00  0.1778E+00
      7.222  0.6545E-02  0.7979E-02  0.1791E+00  0.1779E+00
      7.237  0.6557E-02  0.7843E-02  0.1792E+00  0.1780E+00
      7.253  0.6577E-02  0.7736E-02  0.1794E+00  0.1781E+00
      7.269  0.6606E-02  0.7654E-02  0.1795E+00  0.1782E+00
      7.284  0.6641E-02  0.7595E-02  0.1796E+00  0.1784E+00
      7.300  0.6682E-02  0.7554E-02  0.1797E+00  0.1785E+00
      7.316  0.6725E-02  0.7525E-02  0.1798E+00  0.1786E+00
      7.331  0.6769E-02  0.7506E-02  0.1799E+00  0.1787E+00
      7.347  0.6809E-02  0.7491E-02  0.1800E+00  0.1788E+00
      7.363  0.6841E-02  0.7476E-02  0.1801E+00  0.1790E+00
      7.379  0.6862E-02  0.7459E-02  0.1802E+00  0.1791E+00
      7.394  0.6868E-02  0.7439E-02  0.1803E+00  0.1792E+00
      7.410  0.6854E-02  0.7414E-02  0.1804E+00  0.1793E+00
      7.426  0.6820E-02  0.7385E-02  0.1805E+00  0.1794E+00
      7.441  0.6762E-02  0.7351E-02  0.1806E+00  0.1795E+00
      7.457  0.6681E-02  0.7316E-02  0.1807E+00  0.1797E+00
      7.473  0.6578E-02  0.7278E-02  0.1808E+00  0.1798E+00
      7.489  0.6455E-02  0.7240E-02  0.1809E+00  0.1799E+00
      7.504  0.6317E-02  0.7202E-02  0.1810E+00  0.1800E+00
      7.520  0.6168E-02  0.7163E-02  0.1811E+00  0.1801E+00
      7.536  0.6013E-02  0.7124E-02  0.1812E+00  0.1802E+00
      7.551  0.5859E-02  0.7083E-02  0.1813E+00  0.1803E+00
      7.567  0.5712E-02  0.7038E-02  0.1814E+00  0.1804E+00
      7.583  0.5575E-02  0.6986E-02  0.1815E+00  0.1806E+00
      7.599  0.5454E-02  0.6927E-02  0.1816E+00  0.1807E+00
      7.614  0.5352E-02  0.6858E-02  0.1817E+00  0.1808E+00
      7.630  0.5269E-02  0.6777E-02  0.1818E+00  0.1809E+00
      7.646  0.5205E-02  0.6686E-02  0.1818E+00  0.1810E+00
      7.661  0.5161E-02  0.6583E-02  0.1819E+00  0.1811E+00
      7.677  0.5132E-02  0.6472E-02  0.1820E+00  0.1812E+00
      7.693  0.5117E-02  0.6354E-02  0.1821E+00  0.1813E+00
      7.708  0.5112E-02  0.6234E-02  0.1822E+00  0.1814E+00
      7.724  0.5114E-02  0.6113E-02  0.1822E+00  0.1815E+00
      7.740  0.5119E-02  0.5996E-02  0.1823E+00  0.1816E+00
      7.756  0.5127E-02  0.5887E-02  0.1824E+00  0.1817E+00
      7.771  0.5135E-02  0.5787E-02  0.1825E+00  0.1818E+00
      7.787  0.5144E-02  0.5699E-02  0.1826E+00  0.1818E+00
      7.803  0.5154E-02  0.5624E-02  0.1826E+00  0.1819E+00
      7.818  0.5167E-02  0.5563E-02  0.1827E+00  0.1820E+00
      7.834  0.5185E-02  0.5513E-02  0.1828E+00  0.1821E+00
      7.850  0.5211E-02  0.5475E-02  0.1829E+00  0.1822E+00
      7.866  0.5245E-02  0.5447E-02  0.1830E+00  0.1823E+00
      7.881  0.5288E-02  0.5427E-02  0.1830E+00  0.1824E+00
      7.897  0.5341E-02  0.5414E-02  0.1831E+00  0.1824E+00
      7.913  0.5401E-02  0.5407E-02  0.1832E+00  0.1825E+00
      7.928  0.5465E-02  0.5405E-02  0.1833E+00  0.1826E+00
      7.944  0.5530E-02  0.5409E-02  0.1834E+00  0.1827E+00
      7.960  0.5590E-02  0.5417E-02  0.1835E+00  0.1828E+00
      7.975  0.5639E-02  0.5432E-02  0.1836E+00  0.1829E+00
      7.991  0.5672E-02  0.5454E-02  0.1837E+00  0.1830E+00
      8.007  0.5682E-02  0.5481E-02  0.1837E+00  0.1830E+00
      8.023  0.5666E-02  0.5515E-02  0.1838E+00  0.1831E+00
      8.038  0.5620E-02  0.5555E-02  0.1839E+00  0.1832E+00
      8.054  0.5542E-02  0.5597E-02  0.1840E+00  0.1833E+00
      8.070  0.5434E-02  0.5640E-02  0.1841E+00  0.1834E+00
      8.085  0.5297E-02  0.5681E-02  0.1842E+00  0.1835E+00
      8.101  0.5136E-02  0.5714E-02  0.1843E+00  0.1836E+00
      8.117  0.4956E-02  0.5737E-02  0.1843E+00  0.1837E+00
      8.133  0.4764E-02  0.5745E-02  0.1844E+00  0.1838E+00
      8.148  0.4568E-02  0.5735E-02  0.1845E+00  0.1838E+00
      8.164  0.4376E-02  0.5702E-02  0.1846E+00  0.1839E+00
      8.180  0.4195E-02  0.5646E-02  0.1846E+00  0.1840E+00
      8.195  0.4032E-02  0.5566E-02  0.1847E+00  0.1841E+00
      8.211  0.3892E-02  0.5462E-02  0.1847E+00  0.1842E+00
      8.227  0.3780E-02  0.5336E-02  0.1848E+00  0.1843E+00
      8.243  0.3698E-02  0.5192E-02  0.1849E+00  0.1844E+00
      8.258  0.3647E-02  0.5034E-02  0.1849E+00  0.1844E+00
      8.274  0.3627E-02  0.4868E-02  0.1850E+00  0.1845E+00
      8.290  0.3634E-02  0.4699E-02  0.1850E+00  0.1846E+00
      8.305  0.3665E-02  0.4534E-02  0.1851E+00  0.1847E+00
      8.321  0.3716E-02  0.4379E-02  0.1851E+00  0.1847E+00
      8.337  0.3780E-02  0.4238E-02  0.1852E+00  0.1848E+00
      8.352  0.3852E-02  0.4118E-02  0.1853E+00  0.1849E+00
      8.368  0.3925E-02  0.4019E-02  0.1853E+00  0.1849E+00
      8.384  0.3995E-02  0.3946E-02  0.1854E+00  0.1850E+00
      8.400  0.4056E-02  0.3898E-02  0.1855E+00  0.1850E+00
      8.415  0.4104E-02  0.3874E-02  0.1855E+00  0.1851E+00
      8.431  0.4137E-02  0.3871E-02  0.1856E+00  0.1852E+00
      8.447  0.4153E-02  0.3887E-02  0.1856E+00  0.1852E+00
      8.462  0.4154E-02  0.3916E-02  0.1857E+00  0.1853E+00
      8.478  0.4141E-02  0.3954E-02  0.1858E+00  0.1854E+00
      8.494  0.4116E-02  0.3995E-02  0.1858E+00  0.1854E+00
      8.510  0.4085E-02  0.4035E-02  0.1859E+00  0.1855E+00
      8.525  0.4051E-02  0.4071E-02  0.1860E+00  0.1855E+00
      8.541  0.4019E-02  0.4098E-02  0.1860E+00  0.1856E+00
      8.557  0.3995E-02  0.4116E-02  0.1861E+00  0.1857E+00
      8.572  0.3981E-02  0.4123E-02  0.1862E+00  0.1857E+00
      8.588  0.3979E-02  0.4123E-02  0.1862E+00  0.1858E+00
      8.604  0.3992E-02  0.4115E-02  0.1863E+00  0.1859E+00
      8.620  0.4019E-02  0.4105E-02  0.1863E+00  0.1859E+00
      8.635  0.4057E-02  0.4094E-02  0.1864E+00  0.1860E+00
      8.651  0.4104E-02  0.4088E-02  0.1865E+00  0.1861E+00
      8.667  0.4154E-02  0.4088E-02  0.1865E+00  0.1861E+00
      8.682  0.4203E-02  0.4097E-02  0.1866E+00  0.1862E+00
      8.698  0.4245E-02  0.4118E-02  0.1867E+00  0.1863E+00
      8.714  0.4275E-02  0.4148E-02  0.1867E+00  0.1863E+00
      8.729  0.4289E-02  0.4188E-02  0.1868E+00  0.1864E+00
      8.745  0.4282E-02  0.4235E-02  0.1869E+00  0.1865E+00
      8.761  0.4253E-02  0.4284E-02  0.1869E+00  0.1865E+00
      8.777  0.4201E-02  0.4331E-02  0.1870E+00  0.1866E+00
      8.792  0.4126E-02  0.4373E-02  0.1871E+00  0.1867E+00
      8.808  0.4029E-02  0.4403E-02  0.1871E+00  0.1867E+00
      8.824  0.3914E-02  0.4417E-02  0.1872E+00  0.1868E+00
      8.839  0.3784E-02  0.4413E-02  0.1873E+00  0.1869E+00
      8.855  0.3642E-02  0.4388E-02  0.1873E+00  0.1869E+00
      8.871  0.3495E-02  0.4340E-02  0.1874E+00  0.1870E+00
      8.887  0.3346E-02  0.4269E-02  0.1874E+00  0.1871E+00
      8.902  0.3199E-02  0.4176E-02  0.1875E+00  0.1871E+00
      8.918  0.3060E-02  0.4064E-02  0.1875E+00  0.1872E+00
      8.934  0.2932E-02  0.3934E-02  0.1876E+00  0.1873E+00
      8.949  0.2819E-02  0.3791E-02  0.1876E+00  0.1873E+00
      8.965  0.2726E-02  0.3638E-02  0.1877E+00  0.1874E+00
      8.981  0.2655E-02  0.3480E-02  0.1877E+00  0.1874E+00
      8.997  0.2609E-02  0.3321E-02  0.1877E+00  0.1875E+00
      9.012  0.2591E-02  0.3166E-02  0.1878E+00  0.1875E+00
      9.028  0.2604E-02  0.3019E-02  0.1878E+00  0.1876E+00
      9.044  0.2649E-02  0.2886E-02  0.1879E+00  0.1876E+00
      9.059  0.2725E-02  0.2770E-02  0.1879E+00  0.1877E+00
      9.075  0.2834E-02  0.2676E-02  0.1879E+00  0.1877E+00
      9.091  0.2973E-02  0.2608E-02  0.1880E+00  0.1878E+00
      9.106  0.3138E-02  0.2569E-02  0.1880E+00  0.1878E+00
      9.122  0.3327E-02  0.2563E-02  0.1881E+00  0.1878E+00
      9.138  0.3535E-02  0.2591E-02  0.1882E+00  0.1879E+00
      9.154  0.3754E-02  0.2655E-02  0.1882E+00  0.1879E+00
      9.169  0.3978E-02  0.2753E-02  0.1883E+00  0.1880E+00
      9.185  0.4201E-02  0.2885E-02  0.1883E+00  0.1880E+00
      9.201  0.4416E-02  0.3047E-02  0.1884E+00  0.1881E+00
      9.216  0.4616E-02  0.3234E-02  0.1885E+00  0.1881E+00
      9.232  0.4796E-02  0.3442E-02  0.1886E+00  0.1882E+00
      9.248  0.4952E-02  0.3663E-02  0.1886E+00  0.1882E+00
      9.264  0.5083E-02  0.3889E-02  0.1887E+00  0.1883E+00
      9.279  0.5186E-02  0.4115E-02  0.1888E+00  0.1883E+00
      9.295  0.5263E-02  0.4331E-02  0.1889E+00  0.1884E+00
      9.311  0.5315E-02  0.4531E-02  0.1890E+00  0.1885E+00
      9.326  0.5347E-02  0.4709E-02  0.1890E+00  0.1886E+00
      9.342  0.5362E-02  0.4860E-02  0.1891E+00  0.1886E+00
      9.358  0.5367E-02  0.4982E-02  0.1892E+00  0.1887E+00
      9.373  0.5365E-02  0.5073E-02  0.1893E+00  0.1888E+00
      9.389  0.5363E-02  0.5132E-02  0.1894E+00  0.1889E+00
      9.405  0.5364E-02  0.5163E-02  0.1895E+00  0.1889E+00
      9.421  0.5373E-02  0.5167E-02  0.1896E+00  0.1890E+00
      9.436  0.5393E-02  0.5150E-02  0.1896E+00  0.1891E+00
      9.452  0.5424E-02  0.5116E-02  0.1897E+00  0.1892E+00
      9.468  0.5467E-02  0.5072E-02  0.1898E+00  0.1893E+00
      9.483  0.5522E-02  0.5022E-02  0.1899E+00  0.1894E+00
      9.499  0.5586E-02  0.4972E-02  0.1900E+00  0.1894E+00
      9.515  0.5658E-02  0.4928E-02  0.1901E+00  0.1895E+00
      9.531  0.5736E-02  0.4894E-02  0.1902E+00  0.1896E+00
      9.546  0.5815E-02  0.4873E-02  0.1903E+00  0.1897E+00
      9.562  0.5894E-02  0.4867E-02  0.1903E+00  0.1897E+00
      9.578  0.5969E-02  0.4877E-02  0.1904E+00  0.1898E+00
      9.593  0.6041E-02  0.4904E-02  0.1905E+00  0.1899E+00
      9.609  0.6105E-02  0.4948E-02  0.1906E+00  0.1900E+00
      9.625  0.6163E-02  0.5006E-02  0.1907E+00  0.1900E+00
      9.641  0.6212E-02  0.5077E-02  0.1908E+00  0.1901E+00
      9.656  0.6253E-02  0.5160E-02  0.1909E+00  0.1902E+00
      9.672  0.6286E-02  0.5250E-02  0.1910E+00  0.1903E+00
      9.688  0.6311E-02  0.5347E-02  0.1911E+00  0.1904E+00
      9.703  0.6329E-02  0.5449E-02  0.1912E+00  0.1905E+00
      9.719  0.6339E-02  0.5553E-02  0.1913E+00  0.1905E+00
      9.735  0.6344E-02  0.5657E-02  0.1914E+00  0.1906E+00
      9.750  0.6344E-02  0.5762E-02  0.1915E+00  0.1907E+00
      9.766  0.6341E-02  0.5864E-02  0.1916E+00  0.1908E+00
      9.782  0.6337E-02  0.5964E-02  0.1917E+00  0.1909E+00
      9.798  0.6336E-02  0.6060E-02  0.1918E+00  0.1910E+00
      9.813  0.6339E-02  0.6152E-02  0.1919E+00  0.1911E+00
      9.829  0.6351E-02  0.6240E-02  0.1920E+00  0.1912E+00
      9.845  0.6373E-02  0.6323E-02  0.1921E+00  0.1913E+00
      9.860  0.6409E-02  0.6401E-02  0.1922E+00  0.1914E+00
      9.876  0.6460E-02  0.6476E-02  0.1923E+00  0.1915E+00
      9.892  0.6527E-02  0.6549E-02  0.1924E+00  0.1916E+00
      9.908  0.6610E-02  0.6621E-02  0.1925E+00  0.1917E+00
      9.923  0.6707E-02  0.6693E-02  0.1926E+00  0.1918E+00
      9.939  0.6816E-02  0.6768E-02  0.1927E+00  0.1919E+00
      9.955  0.6933E-02  0.6848E-02  0.1928E+00  0.1920E+00
      9.970  0.7055E-02  0.6933E-02  0.1930E+00  0.1921E+00
      9.986  0.7176E-02  0.7025E-02  0.1931E+00  0.1922E+00
     10.002  0.7293E-02  0.7124E-02  0.1932E+00  0.1924E+00
     10.018  0.7400E-02  0.7228E-02  0.1933E+00  0.1925E+00
     10.033  0.7495E-02  0.7337E-02  0.1934E+00  0.1926E+00
     10.049  0.7574E-02  0.7447E-02  0.1935E+00  0.1927E+00
     10.065  0.7636E-02  0.7556E-02  0.1937E+00  0.1928E+00
     10.080  0.7679E-02  0.7660E-02  0.1938E+00  0.1929E+00
     10.096  0.7703E-02  0.7756E-02  0.1939E+00  0.1931E+00
     10.112  0.7708E-02  0.7841E-02  0.1940E+00  0.1932E+00
     10.127  0.7695E-02  0.7911E-02  0.1941E+00  0.1933E+00
     10.143  0.7664E-02  0.7965E-02  0.1943E+00  0.1934E+00
     10.159  0.7617E-02  0.8001E-02  0.1944E+00  0.1936E+00
     10.175  0.7553E-02  0.8019E-02  0.1945E+00  0.1937E+00
     10.190  0.7475E-02  0.8019E-02  0.1946E+00  0.1938E+00
     10.206  0.7384E-02  0.8002E-02  0.1947E+00  0.1939E+00
     10.222  0.7280E-02  0.7969E-02  0.1948E+00  0.1941E+00
     10.237  0.7166E-02  0.7922E-02  0.1950E+00  0.1942E+00
     10.253  0.7043E-02  0.7861E-02  0.1951E+00  0.1943E+00
     10.269  0.6915E-02  0.7789E-02  0.1952E+00  0.1944E+00
     10.285  0.6784E-02  0.7706E-02  0.1953E+00  0.1946E+00
     10.300  0.6654E-02  0.7614E-02  0.1954E+00  0.1947E+00
     10.316  0.6528E-02  0.7513E-02  0.1955E+00  0.1948E+00
     10.332  0.6412E-02  0.7406E-02  0.1956E+00  0.1949E+00
     10.347  0.6308E-02  0.7292E-02  0.1957E+00  0.1950E+00
     10.363  0.6221E-02  0.7175E-02  0.1958E+00  0.1951E+00
     10.379  0.6152E-02  0.7054E-02  0.1959E+00  0.1953E+00
     10.395  0.6105E-02  0.6933E-02  0.1960E+00  0.1954E+00
     10.410  0.6079E-02  0.6814E-02  0.1961E+00  0.1955E+00
     10.426  0.6075E-02  0.6700E-02  0.1962E+00  0.1956E+00
     10.442  0.6090E-02  0.6593E-02  0.1963E+00  0.1957E+00
     10.457  0.6124E-02  0.6498E-02  0.1964E+00  0.1958E+00
     10.473  0.6172E-02  0.6416E-02  0.1965E+00  0.1959E+00
     10.489  0.6230E-02  0.6350E-02  0.1966E+00  0.1960E+00
     10.504  0.6293E-02  0.6302E-02  0.1967E+00  0.1961E+00
     10.520  0.6356E-02  0.6274E-02  0.1968E+00  0.1962E+00
     10.536  0.6413E-02  0.6267E-02  0.1969E+00  0.1963E+00
     10.552  0.6459E-02  0.6278E-02  0.1970E+00  0.1964E+00
     10.567  0.6489E-02  0.6307E-02  0.1971E+00  0.1965E+00
     10.583  0.6500E-02  0.6350E-02  0.1972E+00  0.1966E+00
     10.599  0.6488E-02  0.6404E-02  0.1973E+00  0.1967E+00
     10.614  0.6453E-02  0.6463E-02  0.1974E+00  0.1968E+00
     10.630  0.6395E-02  0.6522E-02  0.1975E+00  0.1969E+00
     10.646  0.6316E-02  0.6576E-02  0.1976E+00  0.1970E+00
     10.662  0.6219E-02  0.6617E-02  0.1977E+00  0.1971E+00
     10.677  0.6111E-02  0.6642E-02  0.1978E+00  0.1972E+00
     10.693  0.5997E-02  0.6646E-02  0.1979E+00  0.1973E+00
     10.709  0.5884E-02  0.6628E-02  0.1979E+00  0.1974E+00
     10.724  0.5779E-02  0.6585E-02  0.1980E+00  0.1975E+00
     10.740  0.5688E-02  0.6519E-02  0.1981E+00  0.1976E+00
     10.756  0.5617E-02  0.6434E-02  0.1982E+00  0.1977E+00
     10.771  0.5570E-02  0.6333E-02  0.1983E+00  0.1978E+00
     10.787  0.5548E-02  0.6225E-02  0.1984E+00  0.1979E+00
     10.803  0.5552E-02  0.6114E-02  0.1985E+00  0.1980E+00
     10.819  0.5579E-02  0.6009E-02  0.1986E+00  0.1981E+00
     10.834  0.5624E-02  0.5916E-02  0.1987E+00  0.1982E+00
     10.850  0.5683E-02  0.5841E-02  0.1987E+00  0.1983E+00
     10.866  0.5747E-02  0.5788E-02  0.1988E+00  0.1984E+00
     10.881  0.5811E-02  0.5759E-02  0.1989E+00  0.1985E+00
     10.897  0.5865E-02  0.5754E-02  0.1990E+00  0.1985E+00
     10.913  0.5906E-02  0.5769E-02  0.1991E+00  0.1986E+00
     10.929  0.5926E-02  0.5802E-02  0.1992E+00  0.1987E+00
     10.944  0.5924E-02  0.5845E-02  0.1993E+00  0.1988E+00
     10.960  0.5898E-02  0.5892E-02  0.1994E+00  0.1989E+00
     10.976  0.5849E-02  0.5937E-02  0.1995E+00  0.1990E+00
     10.991  0.5782E-02  0.5971E-02  0.1996E+00  0.1991E+00
     11.007  0.5701E-02  0.5990E-02  0.1997E+00  0.1992E+00
     11.023  0.5612E-02  0.5989E-02  0.1997E+00  0.1993E+00
     11.039  0.5525E-02  0.5967E-02  0.1998E+00  0.1994E+00
     11.054  0.5447E-02  0.5923E-02  0.1999E+00  0.1995E+00
     11.070  0.5385E-02  0.5860E-02  0.2000E+00  0.1996E+00
     11.086  0.5345E-02  0.5783E-02  0.2001E+00  0.1997E+00
     11.101  0.5333E-02  0.5699E-02  0.2002E+00  0.1997E+00
     11.117  0.5350E-02  0.5614E-02  0.2003E+00  0.1998E+00
     11.133  0.5397E-02  0.5537E-02  0.2003E+00  0.1999E+00
     11.148  0.5471E-02  0.5475E-02  0.2004E+00  0.2000E+00
     11.164  0.5567E-02  0.5437E-02  0.2005E+00  0.2001E+00
     11.180  0.5678E-02  0.5426E-02  0.2006E+00  0.2002E+00
     11.196  0.5794E-02  0.5446E-02  0.2007E+00  0.2003E+00
     11.211  0.5905E-02  0.5498E-02  0.2008E+00  0.2004E+00
     11.227  0.6001E-02  0.5578E-02  0.2009E+00  0.2004E+00
     11.243  0.6073E-02  0.5681E-02  0.2010E+00  0.2005E+00
     11.258  0.6111E-02  0.5800E-02  0.2011E+00  0.2006E+00
     11.274  0.6110E-02  0.5924E-02  0.2012E+00  0.2007E+00
     11.290  0.6066E-02  0.6044E-02  0.2013E+00  0.2008E+00
     11.306  0.5977E-02  0.6147E-02  0.2014E+00  0.2009E+00
     11.321  0.5845E-02  0.6224E-02  0.2015E+00  0.2010E+00
     11.337  0.5676E-02  0.6264E-02  0.2015E+00  0.2011E+00
     11.353  0.5477E-02  0.6260E-02  0.2016E+00  0.2012E+00
     11.368  0.5258E-02  0.6209E-02  0.2017E+00  0.2013E+00
     11.384  0.5031E-02  0.6109E-02  0.2018E+00  0.2014E+00
     11.400  0.4807E-02  0.5964E-02  0.2019E+00  0.2015E+00
     11.416  0.4599E-02  0.5779E-02  0.2019E+00  0.2016E+00
     11.431  0.4418E-02  0.5563E-02  0.2020E+00  0.2017E+00
     11.447  0.4274E-02  0.5327E-02  0.2021E+00  0.2017E+00
     11.463  0.4175E-02  0.5085E-02  0.2021E+00  0.2018E+00
     11.478  0.4126E-02  0.4850E-02  0.2022E+00  0.2019E+00
     11.494  0.4129E-02  0.4636E-02  0.2023E+00  0.2020E+00
     11.510  0.4182E-02  0.4455E-02  0.2023E+00  0.2020E+00
     11.525  0.4282E-02  0.4317E-02  0.2024E+00  0.2021E+00
     11.541  0.4422E-02  0.4229E-02  0.2025E+00  0.2022E+00
     11.557  0.4593E-02  0.4195E-02  0.2025E+00  0.2022E+00
     11.573  0.4786E-02  0.4217E-02  0.2026E+00  0.2023E+00
     11.588  0.4987E-02  0.4291E-02  0.2027E+00  0.2024E+00
     11.604  0.5187E-02  0.4411E-02  0.2028E+00  0.2024E+00
     11.620  0.5375E-02  0.4570E-02  0.2029E+00  0.2025E+00
     11.635  0.5541E-02  0.4755E-02  0.2029E+00  0.2026E+00
     11.651  0.5678E-02  0.4957E-02  0.2030E+00  0.2027E+00
     11.667  0.5781E-02  0.5161E-02  0.2031E+00  0.2028E+00
     11.683  0.5847E-02  0.5357E-02  0.2032E+00  0.2028E+00
     11.698  0.5875E-02  0.5534E-02  0.2033E+00  0.2029E+00
     11.714  0.5870E-02  0.5684E-02  0.2034E+00  0.2030E+00
     11.730  0.5834E-02  0.5799E-02  0.2035E+00  0.2031E+00
     11.745  0.5776E-02  0.5877E-02  0.2036E+00  0.2032E+00
     11.761  0.5703E-02  0.5916E-02  0.2037E+00  0.2033E+00
     11.777  0.5625E-02  0.5919E-02  0.2038E+00  0.2034E+00
     11.792  0.5549E-02  0.5890E-02  0.2039E+00  0.2035E+00
     11.808  0.5486E-02  0.5835E-02  0.2039E+00  0.2036E+00
     11.824  0.5442E-02  0.5763E-02  0.2040E+00  0.2037E+00
     11.840  0.5422E-02  0.5682E-02  0.2041E+00  0.2037E+00
     11.855  0.5432E-02  0.5603E-02  0.2042E+00  0.2038E+00
     11.871  0.5472E-02  0.5533E-02  0.2043E+00  0.2039E+00
     11.887  0.5543E-02  0.5482E-02  0.2044E+00  0.2040E+00
     11.902  0.5641E-02  0.5455E-02  0.2045E+00  0.2041E+00
     11.918  0.5761E-02  0.5458E-02  0.2045E+00  0.2042E+00
     11.934  0.5898E-02  0.5493E-02  0.2046E+00  0.2043E+00
     11.950  0.6045E-02  0.5561E-02  0.2047E+00  0.2044E+00
     11.965  0.6194E-02  0.5659E-02  0.2048E+00  0.2044E+00
     11.981  0.6338E-02  0.5783E-02  0.2049E+00  0.2045E+00
     11.997  0.6470E-02  0.5929E-02  0.2050E+00  0.2046E+00
     12.012  0.6585E-02  0.6088E-02  0.2051E+00  0.2047E+00
     12.028  0.6679E-02  0.6254E-02  0.2052E+00  0.2048E+00
     12.044  0.6748E-02  0.6417E-02  0.2053E+00  0.2049E+00
     12.060  0.6793E-02  0.6571E-02  0.2055E+00  0.2050E+00
     12.075  0.6814E-02  0.6708E-02  0.2056E+00  0.2051E+00
     12.091  0.6813E-02  0.6823E-02  0.2057E+00  0.2052E+00
     12.107  0.6794E-02  0.6911E-02  0.2058E+00  0.2053E+00
     12.122  0.6762E-02  0.6969E-02  0.2059E+00  0.2055E+00
     12.138  0.6721E-02  0.6999E-02  0.2060E+00  0.2056E+00
     12.154  0.6676E-02  0.7000E-02  0.2061E+00  0.2057E+00
     12.169  0.6633E-02  0.6977E-02  0.2062E+00  0.2058E+00
     12.185  0.6595E-02  0.6933E-02  0.2063E+00  0.2059E+00
     12.201  0.6567E-02  0.6874E-02  0.2064E+00  0.2060E+00
     12.217  0.6550E-02  0.6807E-02  0.2065E+00  0.2061E+00
     12.232  0.6547E-02  0.6739E-02  0.2066E+00  0.2062E+00
     12.248  0.6556E-02  0.6674E-02  0.2067E+00  0.2063E+00
     12.264  0.6578E-02  0.6619E-02  0.2068E+00  0.2064E+00
     12.279  0.6609E-02  0.6577E-02  0.2069E+00  0.2065E+00
     12.295  0.6648E-02  0.6552E-02  0.2070E+00  0.2066E+00
     12.311  0.6690E-02  0.6545E-02  0.2071E+00  0.2067E+00
     12.327  0.6732E-02  0.6556E-02  0.2072E+00  0.2068E+00
     12.342  0.6771E-02  0.6583E-02  0.2073E+00  0.2069E+00
     12.358  0.6804E-02  0.6624E-02  0.2074E+00  0.2070E+00
     12.374  0.6829E-02  0.6674E-02  0.2076E+00  0.2071E+00
     12.389  0.6844E-02  0.6731E-02  0.2077E+00  0.2073E+00
     12.405  0.6850E-02  0.6790E-02  0.2078E+00  0.2074E+00
     12.421  0.6846E-02  0.6848E-02  0.2079E+00  0.2075E+00
     12.437  0.6836E-02  0.6901E-02  0.2080E+00  0.2076E+00
     12.452  0.6822E-02  0.6948E-02  0.2081E+00  0.2077E+00
     12.468  0.6806E-02  0.6989E-02  0.2082E+00  0.2078E+00
     12.484  0.6793E-02  0.7023E-02  0.2083E+00  0.2079E+00
     12.499  0.6784E-02  0.7052E-02  0.2084E+00  0.2080E+00
     12.515  0.6783E-02  0.7077E-02  0.2085E+00  0.2081E+00
     12.531  0.6793E-02  0.7101E-02  0.2086E+00  0.2082E+00
     12.546  0.6812E-02  0.7126E-02  0.2087E+00  0.2084E+00
     12.562  0.6844E-02  0.7153E-02  0.2088E+00  0.2085E+00
     12.578  0.6886E-02  0.7186E-02  0.2089E+00  0.2086E+00
     12.594  0.6937E-02  0.7223E-02  0.2091E+00  0.2087E+00
     12.609  0.6996E-02  0.7267E-02  0.2092E+00  0.2088E+00
     12.625  0.7060E-02  0.7315E-02  0.2093E+00  0.2089E+00
     12.641  0.7127E-02  0.7367E-02  0.2094E+00  0.2090E+00
     12.656  0.7194E-02  0.7421E-02  0.2095E+00  0.2092E+00
     12.672  0.7261E-02  0.7475E-02  0.2096E+00  0.2093E+00
     12.688  0.7324E-02  0.7528E-02  0.2097E+00  0.2094E+00
     12.704  0.7384E-02  0.7578E-02  0.2098E+00  0.2095E+00
     12.719  0.7439E-02  0.7625E-02  0.2100E+00  0.2096E+00
     12.735  0.7489E-02  0.7667E-02  0.2101E+00  0.2097E+00
     12.751  0.7535E-02  0.7704E-02  0.2102E+00  0.2099E+00
     12.766  0.7577E-02  0.7738E-02  0.2103E+00  0.2100E+00
     12.782  0.7615E-02  0.7769E-02  0.2104E+00  0.2101E+00
     12.798  0.7650E-02  0.7797E-02  0.2106E+00  0.2102E+00
     12.814  0.7684E-02  0.7825E-02  0.2107E+00  0.2104E+00
     12.829  0.7716E-02  0.7851E-02  0.2108E+00  0.2105E+00
     12.845  0.7746E-02  0.7877E-02  0.2109E+00  0.2106E+00
     12.861  0.7776E-02  0.7903E-02  0.2110E+00  0.2107E+00
     12.876  0.7805E-02  0.7929E-02  0.2112E+00  0.2109E+00
     12.892  0.7834E-02  0.7953E-02  0.2113E+00  0.2110E+00
     12.908  0.7864E-02  0.7976E-02  0.2114E+00  0.2111E+00
     12.923  0.7896E-02  0.7997E-02  0.2115E+00  0.2112E+00
     12.939  0.7931E-02  0.8016E-02  0.2117E+00  0.2114E+00
     12.955  0.7970E-02  0.8033E-02  0.2118E+00  0.2115E+00
     12.971  0.8016E-02  0.8049E-02  0.2119E+00  0.2116E+00
     12.986  0.8069E-02  0.8065E-02  0.2120E+00  0.2117E+00
     13.002  0.8131E-02  0.8085E-02  0.2122E+00  0.2119E+00
     13.018  0.8203E-02  0.8110E-02  0.2123E+00  0.2120E+00
     13.033  0.8285E-02  0.8143E-02  0.2124E+00  0.2121E+00
     13.049  0.8376E-02  0.8187E-02  0.2126E+00  0.2122E+00
     13.065  0.8475E-02  0.8244E-02  0.2127E+00  0.2124E+00
     13.081  0.8579E-02  0.8314E-02  0.2128E+00  0.2125E+00
     13.096  0.8683E-02  0.8398E-02  0.2130E+00  0.2126E+00
     13.112  0.8784E-02  0.8495E-02  0.2131E+00  0.2128E+00
     13.128  0.8876E-02  0.8601E-02  0.2132E+00  0.2129E+00
     13.143  0.8954E-02  0.8713E-02  0.2134E+00  0.2130E+00
     13.159  0.9012E-02  0.8825E-02  0.2135E+00  0.2132E+00
     13.175  0.9046E-02  0.8931E-02  0.2137E+00  0.2133E+00
     13.190  0.9052E-02  0.9024E-02  0.2138E+00  0.2135E+00
     13.206  0.9027E-02  0.9097E-02  0.2139E+00  0.2136E+00
     13.222  0.8970E-02  0.9145E-02  0.2141E+00  0.2137E+00
     13.238  0.8882E-02  0.9162E-02  0.2142E+00  0.2139E+00
     13.253  0.8765E-02  0.9145E-02  0.2144E+00  0.2140E+00
     13.269  0.8622E-02  0.9092E-02  0.2145E+00  0.2142E+00
     13.285  0.8458E-02  0.9004E-02  0.2146E+00  0.2143E+00
     13.300  0.8280E-02  0.8883E-02  0.2148E+00  0.2145E+00
     13.316  0.8093E-02  0.8732E-02  0.2149E+00  0.2146E+00
     13.332  0.7905E-02  0.8559E-02  0.2150E+00  0.2147E+00
     13.348  0.7720E-02  0.8369E-02  0.2151E+00  0.2149E+00
     13.363  0.7544E-02  0.8170E-02  0.2153E+00  0.2150E+00
     13.379  0.7383E-02  0.7969E-02  0.2154E+00  0.2151E+00
     13.395  0.7238E-02  0.7773E-02  0.2155E+00  0.2152E+00
     13.410  0.7112E-02  0.7588E-02  0.2156E+00  0.2154E+00
     13.426  0.7006E-02  0.7418E-02  0.2157E+00  0.2155E+00
     13.442  0.6919E-02  0.7269E-02  0.2158E+00  0.2156E+00
     13.458  0.6849E-02  0.7141E-02  0.2159E+00  0.2157E+00
     13.473  0.6796E-02  0.7034E-02  0.2160E+00  0.2158E+00
     13.489  0.6756E-02  0.6950E-02  0.2161E+00  0.2159E+00
     13.505  0.6728E-02  0.6886E-02  0.2162E+00  0.2160E+00
     13.520  0.6709E-02  0.6839E-02  0.2163E+00  0.2161E+00
     13.536  0.6698E-02  0.6807E-02  0.2165E+00  0.2162E+00
     13.552  0.6693E-02  0.6787E-02  0.2166E+00  0.2163E+00
     13.567  0.6693E-02  0.6777E-02  0.2167E+00  0.2165E+00
     13.583  0.6699E-02  0.6773E-02  0.2168E+00  0.2166E+00
     13.599  0.6711E-02  0.6775E-02  0.2169E+00  0.2167E+00
     13.615  0.6729E-02  0.6781E-02  0.2170E+00  0.2168E+00
     13.630  0.6755E-02  0.6791E-02  0.2171E+00  0.2169E+00
     13.646  0.6790E-02  0.6805E-02  0.2172E+00  0.2170E+00
     13.662  0.6834E-02  0.6825E-02  0.2173E+00  0.2171E+00
     13.677  0.6890E-02  0.6852E-02  0.2174E+00  0.2172E+00
     13.693  0.6958E-02  0.6887E-02  0.2175E+00  0.2173E+00
     13.709  0.7039E-02  0.6933E-02  0.2176E+00  0.2174E+00
     13.725  0.7133E-02  0.6991E-02  0.2177E+00  0.2175E+00
     13.740  0.7239E-02  0.7062E-02  0.2179E+00  0.2176E+00
     13.756  0.7356E-02  0.7147E-02  0.2180E+00  0.2178E+00
     13.772  0.7483E-02  0.7246E-02  0.2181E+00  0.2179E+00
     13.787  0.7617E-02  0.7357E-02  0.2182E+00  0.2180E+00
     13.803  0.7755E-02  0.7479E-02  0.2183E+00  0.2181E+00
     13.819  0.7891E-02  0.7609E-02  0.2185E+00  0.2182E+00
     13.835  0.8021E-02  0.7743E-02  0.2186E+00  0.2183E+00
     13.850  0.8140E-02  0.7875E-02  0.2187E+00  0.2185E+00
     13.866  0.8241E-02  0.8002E-02  0.2188E+00  0.2186E+00
     13.882  0.8321E-02  0.8117E-02  0.2190E+00  0.2187E+00
     13.897  0.8372E-02  0.8215E-02  0.2191E+00  0.2188E+00
     13.913  0.8393E-02  0.8292E-02  0.2192E+00  0.2190E+00
     13.929  0.8379E-02  0.8343E-02  0.2194E+00  0.2191E+00
     13.944  0.8330E-02  0.8365E-02  0.2195E+00  0.2192E+00
     13.960  0.8246E-02  0.8357E-02  0.2196E+00  0.2194E+00
     13.976  0.8129E-02  0.8317E-02  0.2197E+00  0.2195E+00
     13.992  0.7983E-02  0.8246E-02  0.2199E+00  0.2196E+00
     14.007  0.7813E-02  0.8147E-02  0.2200E+00  0.2198E+00
     14.023  0.7626E-02  0.8023E-02  0.2201E+00  0.2199E+00
     14.039  0.7427E-02  0.7877E-02  0.2202E+00  0.2200E+00
     14.054  0.7224E-02  0.7715E-02  0.2203E+00  0.2201E+00
     14.070  0.7023E-02  0.7541E-02  0.2205E+00  0.2202E+00
     14.086  0.6830E-02  0.7361E-02  0.2206E+00  0.2204E+00
     14.102  0.6649E-02  0.7178E-02  0.2207E+00  0.2205E+00
     14.117  0.6483E-02  0.6996E-02  0.2208E+00  0.2206E+00
     14.133  0.6334E-02  0.6820E-02  0.2209E+00  0.2207E+00
     14.149  0.6203E-02  0.6651E-02  0.2210E+00  0.2208E+00
     14.164  0.6088E-02  0.6491E-02  0.2211E+00  0.2209E+00
     14.180  0.5990E-02  0.6343E-02  0.2212E+00  0.2210E+00
     14.196  0.5905E-02  0.6208E-02  0.2213E+00  0.2211E+00
     14.212  0.5835E-02  0.6086E-02  0.2213E+00  0.2212E+00
     14.227  0.5776E-02  0.5978E-02  0.2214E+00  0.2213E+00
     14.243  0.5729E-02  0.5885E-02  0.2215E+00  0.2214E+00
     14.259  0.5696E-02  0.5810E-02  0.2216E+00  0.2215E+00
     14.274  0.5676E-02  0.5752E-02  0.2217E+00  0.2216E+00
     14.290  0.5672E-02  0.5714E-02  0.2218E+00  0.2217E+00
     14.306  0.5687E-02  0.5697E-02  0.2219E+00  0.2217E+00
     14.321  0.5722E-02  0.5702E-02  0.2220E+00  0.2218E+00
     14.337  0.5780E-02  0.5731E-02  0.2221E+00  0.2219E+00
     14.353  0.5861E-02  0.5784E-02  0.2222E+00  0.2220E+00
     14.369  0.5966E-02  0.5860E-02  0.2222E+00  0.2221E+00
     14.384  0.6093E-02  0.5958E-02  0.2223E+00  0.2222E+00
     14.400  0.6239E-02  0.6076E-02  0.2224E+00  0.2223E+00
     14.416  0.6401E-02  0.6211E-02  0.2225E+00  0.2224E+00
     14.431  0.6573E-02  0.6358E-02  0.2226E+00  0.2225E+00
     14.447  0.6749E-02  0.6513E-02  0.2227E+00  0.2226E+00
     14.463  0.6922E-02  0.6670E-02  0.2229E+00  0.2227E+00
     14.479  0.7086E-02  0.6825E-02  0.2230E+00  0.2228E+00
     14.494  0.7235E-02  0.6973E-02  0.2231E+00  0.2229E+00
     14.510  0.7363E-02  0.7107E-02  0.2232E+00  0.2230E+00
     14.526  0.7466E-02  0.7225E-02  0.2233E+00  0.2231E+00
     14.541  0.7541E-02  0.7323E-02  0.2234E+00  0.2233E+00
     14.557  0.7587E-02  0.7398E-02  0.2236E+00  0.2234E+00
     14.573  0.7604E-02  0.7449E-02  0.2237E+00  0.2235E+00
     14.588  0.7592E-02  0.7476E-02  0.2238E+00  0.2236E+00
     14.604  0.7554E-02  0.7479E-02  0.2239E+00  0.2237E+00
     14.620  0.7494E-02  0.7460E-02  0.2240E+00  0.2238E+00
     14.636  0.7415E-02  0.7420E-02  0.2241E+00  0.2240E+00
     14.651  0.7321E-02  0.7363E-02  0.2243E+00  0.2241E+00
     14.667  0.7217E-02  0.7291E-02  0.2244E+00  0.2242E+00
     14.683  0.7107E-02  0.7208E-02  0.2245E+00  0.2243E+00
     14.698  0.6996E-02  0.7117E-02  0.2246E+00  0.2244E+00
     14.714  0.6886E-02  0.7022E-02  0.2247E+00  0.2245E+00
     14.730  0.6783E-02  0.6927E-02  0.2248E+00  0.2246E+00
     14.746  0.6690E-02  0.6836E-02  0.2249E+00  0.2247E+00
     14.761  0.6609E-02  0.6751E-02  0.2250E+00  0.2248E+00
     14.777  0.6542E-02  0.6677E-02  0.2251E+00  0.2249E+00
     14.793  0.6492E-02  0.6616E-02  0.2252E+00  0.2251E+00
     14.808  0.6459E-02  0.6571E-02  0.2253E+00  0.2252E+00
     14.824  0.6445E-02  0.6545E-02  0.2254E+00  0.2253E+00
     14.840  0.6449E-02  0.6537E-02  0.2255E+00  0.2254E+00
     14.856  0.6469E-02  0.6549E-02  0.2256E+00  0.2255E+00
     14.871  0.6505E-02  0.6580E-02  0.2257E+00  0.2256E+00
     14.887  0.6555E-02  0.6628E-02  0.2258E+00  0.2257E+00
     14.903  0.6614E-02  0.6692E-02  0.2259E+00  0.2258E+00
     14.918  0.6680E-02  0.6768E-02  0.2260E+00  0.2259E+00
     14.934  0.6750E-02  0.6853E-02  0.2261E+00  0.2260E+00
     14.950  0.6819E-02  0.6942E-02  0.2263E+00  0.2261E+00
     14.965  0.6885E-02  0.7031E-02  0.2264E+00  0.2262E+00
     14.981  0.6945E-02  0.7116E-02  0.2265E+00  0.2263E+00
     14.997  0.6996E-02  0.7192E-02  0.2266E+00  0.2264E+00
     15.013  0.7037E-02  0.7257E-02  0.2267E+00  0.2265E+00
     15.028  0.7068E-02  0.7307E-02  0.2268E+00  0.2267E+00
     15.044  0.7089E-02  0.7342E-02  0.2269E+00  0.2268E+00
     15.060  0.7101E-02  0.7361E-02  0.2270E+00  0.2269E+00
     15.075  0.7107E-02  0.7366E-02  0.2271E+00  0.2270E+00
     15.091  0.7111E-02  0.7360E-02  0.2273E+00  0.2271E+00
     15.107  0.7116E-02  0.7345E-02  0.2274E+00  0.2272E+00
     15.123  0.7128E-02  0.7327E-02  0.2275E+00  0.2274E+00
     15.138  0.7150E-02  0.7311E-02  0.2276E+00  0.2275E+00
     15.154  0.7186E-02  0.7303E-02  0.2277E+00  0.2276E+00
     15.170  0.7240E-02  0.7307E-02  0.2278E+00  0.2277E+00
     15.185  0.7315E-02  0.7329E-02  0.2279E+00  0.2278E+00
     15.201  0.7411E-02  0.7371E-02  0.2280E+00  0.2279E+00
     15.217  0.7529E-02  0.7438E-02  0.2282E+00  0.2280E+00
     15.233  0.7666E-02  0.7529E-02  0.2283E+00  0.2282E+00
     15.248  0.7819E-02  0.7644E-02  0.2284E+00  0.2283E+00
     15.264  0.7983E-02  0.7779E-02  0.2285E+00  0.2284E+00
     15.280  0.8152E-02  0.7932E-02  0.2287E+00  0.2285E+00
     15.295  0.8320E-02  0.8096E-02  0.2288E+00  0.2287E+00
     15.311  0.8480E-02  0.8264E-02  0.2289E+00  0.2288E+00
     15.327  0.8625E-02  0.8429E-02  0.2291E+00  0.2289E+00
     15.342  0.8750E-02  0.8585E-02  0.2292E+00  0.2291E+00
     15.358  0.8850E-02  0.8723E-02  0.2293E+00  0.2292E+00
     15.374  0.8922E-02  0.8839E-02  0.2295E+00  0.2293E+00
     15.390  0.8964E-02  0.8927E-02  0.2296E+00  0.2295E+00
     15.405  0.8976E-02  0.8984E-02  0.2298E+00  0.2296E+00
     15.421  0.8960E-02  0.9008E-02  0.2299E+00  0.2298E+00
     15.437  0.8917E-02  0.9000E-02  0.2300E+00  0.2299E+00
     15.452  0.8850E-02  0.8962E-02  0.2302E+00  0.2300E+00
     15.468  0.8763E-02  0.8895E-02  0.2303E+00  0.2302E+00
     15.484  0.8660E-02  0.8804E-02  0.2305E+00  0.2303E+00
     15.500  0.8544E-02  0.8693E-02  0.2306E+00  0.2305E+00
     15.515  0.8418E-02  0.8567E-02  0.2307E+00  0.2306E+00
     15.531  0.8284E-02  0.8428E-02  0.2308E+00  0.2307E+00
     15.547  0.8142E-02  0.8281E-02  0.2310E+00  0.2308E+00
     15.562  0.7994E-02  0.8128E-02  0.2311E+00  0.2310E+00
     15.578  0.7840E-02  0.7971E-02  0.2312E+00  0.2311E+00
     15.594  0.7681E-02  0.7812E-02  0.2313E+00  0.2312E+00
     15.610  0.7517E-02  0.7651E-02  0.2315E+00  0.2313E+00
     15.625  0.7349E-02  0.7488E-02  0.2316E+00  0.2315E+00
     15.641  0.7178E-02  0.7325E-02  0.2317E+00  0.2316E+00
     15.657  0.7007E-02  0.7162E-02  0.2318E+00  0.2317E+00
     15.672  0.6839E-02  0.7000E-02  0.2319E+00  0.2318E+00
     15.688  0.6679E-02  0.6844E-02  0.2320E+00  0.2319E+00
     15.704  0.6531E-02  0.6695E-02  0.2321E+00  0.2320E+00
     15.719  0.6400E-02  0.6558E-02  0.2322E+00  0.2321E+00
     15.735  0.6291E-02  0.6437E-02  0.2323E+00  0.2322E+00
     15.751  0.6207E-02  0.6337E-02  0.2324E+00  0.2323E+00
     15.767  0.6153E-02  0.6261E-02  0.2325E+00  0.2324E+00
     15.782  0.6129E-02  0.6214E-02  0.2326E+00  0.2325E+00
     15.798  0.6138E-02  0.6198E-02  0.2327E+00  0.2326E+00
     15.814  0.6177E-02  0.6213E-02  0.2328E+00  0.2327E+00
     15.829  0.6245E-02  0.6260E-02  0.2329E+00  0.2328E+00
     15.845  0.6339E-02  0.6338E-02  0.2330E+00  0.2329E+00
     15.861  0.6454E-02  0.6442E-02  0.2331E+00  0.2330E+00
     15.877  0.6585E-02  0.6569E-02  0.2332E+00  0.2331E+00
     15.892  0.6727E-02  0.6714E-02  0.2333E+00  0.2332E+00
     15.908  0.6874E-02  0.6872E-02  0.2334E+00  0.2333E+00
     15.924  0.7022E-02  0.7035E-02  0.2335E+00  0.2334E+00
     15.939  0.7165E-02  0.7198E-02  0.2336E+00  0.2335E+00
     15.955  0.7300E-02  0.7357E-02  0.2338E+00  0.2337E+00
     15.971  0.7423E-02  0.7504E-02  0.2339E+00  0.2338E+00
     15.986  0.7531E-02  0.7636E-02  0.2340E+00  0.2339E+00
     16.002  0.7622E-02  0.7750E-02  0.2341E+00  0.2340E+00
     16.018  0.7693E-02  0.7841E-02  0.2342E+00  0.2341E+00
     16.034  0.7744E-02  0.7907E-02  0.2344E+00  0.2343E+00
     16.049  0.7773E-02  0.7948E-02  0.2345E+00  0.2344E+00
     16.065  0.7780E-02  0.7963E-02  0.2346E+00  0.2345E+00
     16.081  0.7766E-02  0.7951E-02  0.2347E+00  0.2346E+00
     16.096  0.7731E-02  0.7916E-02  0.2348E+00  0.2348E+00
     16.112  0.7677E-02  0.7858E-02  0.2350E+00  0.2349E+00
     16.128  0.7606E-02  0.7781E-02  0.2351E+00  0.2350E+00
     16.144  0.7520E-02  0.7689E-02  0.2352E+00  0.2351E+00
     16.159  0.7421E-02  0.7584E-02  0.2353E+00  0.2353E+00
     16.175  0.7313E-02  0.7471E-02  0.2354E+00  0.2354E+00
     16.191  0.7196E-02  0.7353E-02  0.2355E+00  0.2355E+00
     16.206  0.7074E-02  0.7232E-02  0.2357E+00  0.2356E+00
     16.222  0.6948E-02  0.7109E-02  0.2358E+00  0.2357E+00
     16.238  0.6818E-02  0.6986E-02  0.2359E+00  0.2358E+00
     16.254  0.6683E-02  0.6860E-02  0.2360E+00  0.2359E+00
     16.269  0.6541E-02  0.6731E-02  0.2361E+00  0.2360E+00
     16.285  0.6391E-02  0.6594E-02  0.2362E+00  0.2361E+00
     16.301  0.6230E-02  0.6445E-02  0.2363E+00  0.2362E+00
     16.316  0.6055E-02  0.6282E-02  0.2364E+00  0.2363E+00
     16.332  0.5862E-02  0.6098E-02  0.2365E+00  0.2364E+00
     16.348  0.5650E-02  0.5893E-02  0.2366E+00  0.2365E+00
     16.363  0.5417E-02  0.5662E-02  0.2366E+00  0.2366E+00
     16.379  0.5163E-02  0.5406E-02  0.2367E+00  0.2367E+00
     16.395  0.4889E-02  0.5126E-02  0.2368E+00  0.2368E+00
     16.411  0.4598E-02  0.4824E-02  0.2369E+00  0.2369E+00
     16.426  0.4292E-02  0.4504E-02  0.2369E+00  0.2369E+00
     16.442  0.3978E-02  0.4172E-02  0.2370E+00  0.2370E+00
     16.458  0.3662E-02  0.3835E-02  0.2371E+00  0.2371E+00
     16.473  0.3350E-02  0.3501E-02  0.2371E+00  0.2371E+00
     16.489  0.3049E-02  0.3178E-02  0.2372E+00  0.2372E+00
     16.505  0.2766E-02  0.2872E-02  0.2372E+00  0.2372E+00
     16.521  0.2508E-02  0.2592E-02  0.2372E+00  0.2372E+00
     16.536  0.2280E-02  0.2343E-02  0.2373E+00  0.2373E+00
     16.552  0.2087E-02  0.2130E-02  0.2373E+00  0.2373E+00
     16.568  0.1931E-02  0.1956E-02  0.2373E+00  0.2373E+00
     16.583  0.1814E-02  0.1823E-02  0.2374E+00  0.2374E+00
     16.599  0.1736E-02  0.1731E-02  0.2374E+00  0.2374E+00
     16.615  0.1695E-02  0.1679E-02  0.2374E+00  0.2374E+00
     16.631  0.1689E-02  0.1663E-02  0.2374E+00  0.2375E+00
     16.646  0.1714E-02  0.1680E-02  0.2375E+00  0.2375E+00
     16.662  0.1764E-02  0.1724E-02  0.2375E+00  0.2375E+00
     16.678  0.1832E-02  0.1789E-02  0.2375E+00  0.2375E+00
     16.693  0.1914E-02  0.1870E-02  0.2376E+00  0.2376E+00
     16.709  0.2002E-02  0.1959E-02  0.2376E+00  0.2376E+00
     16.725  0.2091E-02  0.2052E-02  0.2376E+00  0.2376E+00
     16.740  0.2175E-02  0.2142E-02  0.2377E+00  0.2377E+00
     16.756  0.2249E-02  0.2224E-02  0.2377E+00  0.2377E+00
     16.772  0.2309E-02  0.2294E-02  0.2377E+00  0.2377E+00
     16.788  0.2353E-02  0.2350E-02  0.2378E+00  0.2378E+00
     16.803  0.2379E-02  0.2388E-02  0.2378E+00  0.2378E+00
     16.819  0.2386E-02  0.2406E-02  0.2378E+00  0.2378E+00
     16.835  0.2373E-02  0.2405E-02  0.2379E+00  0.2379E+00
     16.850  0.2343E-02  0.2384E-02  0.2379E+00  0.2379E+00
     16.866  0.2294E-02  0.2343E-02  0.2379E+00  0.2380E+00
     16.882  0.2230E-02  0.2284E-02  0.2380E+00  0.2380E+00
     16.898  0.2152E-02  0.2207E-02  0.2380E+00  0.2380E+00
     16.913  0.2061E-02  0.2116E-02  0.2381E+00  0.2381E+00
     16.929  0.1961E-02  0.2010E-02  0.2381E+00  0.2381E+00
     16.945  0.1851E-02  0.1895E-02  0.2381E+00  0.2381E+00
     16.960  0.1736E-02  0.1771E-02  0.2381E+00  0.2381E+00
     16.976  0.1617E-02  0.1642E-02  0.2382E+00  0.2382E+00
     16.992  0.1496E-02  0.1512E-02  0.2382E+00  0.2382E+00
     17.007  0.1376E-02  0.1383E-02  0.2382E+00  0.2382E+00
     17.023  0.1259E-02  0.1259E-02  0.2382E+00  0.2382E+00
     17.039  0.1149E-02  0.1143E-02  0.2382E+00  0.2383E+00
     17.055  0.1047E-02  0.1038E-02  0.2383E+00  0.2383E+00
     17.070  0.9555E-03  0.9466E-03  0.2383E+00  0.2383E+00
     17.086  0.8770E-03  0.8703E-03  0.2383E+00  0.2383E+00
     17.102  0.8128E-03  0.8103E-03  0.2383E+00  0.2383E+00
     17.117  0.7636E-03  0.7667E-03  0.2383E+00  0.2383E+00
     17.133  0.7294E-03  0.7390E-03  0.2383E+00  0.2383E+00
     17.149  0.7095E-03  0.7256E-03  0.2383E+00  0.2384E+00
     17.165  0.7026E-03  0.7246E-03  0.2383E+00  0.2384E+00
     17.180  0.7067E-03  0.7332E-03  0.2384E+00  0.2384E+00
     17.196  0.7192E-03  0.7487E-03  0.2384E+00  0.2384E+00
     17.212  0.7374E-03  0.7680E-03  0.2384E+00  0.2384E+00
     17.227  0.7585E-03  0.7884E-03  0.2384E+00  0.2384E+00
     17.243  0.7800E-03  0.8075E-03  0.2384E+00  0.2384E+00
     17.259  0.7995E-03  0.8233E-03  0.2384E+00  0.2384E+00
     17.275  0.8153E-03  0.8346E-03  0.2384E+00  0.2384E+00
     17.290  0.8264E-03  0.8409E-03  0.2384E+00  0.2385E+00
     17.306  0.8321E-03  0.8420E-03  0.2385E+00  0.2385E+00
     17.322  0.8328E-03  0.8385E-03  0.2385E+00  0.2385E+00
     17.337  0.8288E-03  0.8313E-03  0.2385E+00  0.2385E+00
     17.353  0.8213E-03  0.8214E-03  0.2385E+00  0.2385E+00
     17.369  0.8113E-03  0.8100E-03  0.2385E+00  0.2385E+00
     17.384  0.8000E-03  0.7982E-03  0.2385E+00  0.2385E+00
     17.400  0.7884E-03  0.7866E-03  0.2385E+00  0.2386E+00
     17.416  0.7774E-03  0.7758E-03  0.2385E+00  0.2386E+00
     17.432  0.7673E-03  0.7660E-03  0.2386E+00  0.2386E+00
     17.447  0.7584E-03  0.7570E-03  0.2386E+00  0.2386E+00
     17.463  0.7504E-03  0.7485E-03  0.2386E+00  0.2386E+00
     17.479  0.7431E-03  0.7401E-03  0.2386E+00  0.2386E+00
     17.494  0.7358E-03  0.7314E-03  0.2386E+00  0.2386E+00
     17.510  0.7280E-03  0.7218E-03  0.2386E+00  0.2386E+00
     17.526  0.7193E-03  0.7113E-03  0.2386E+00  0.2386E+00
     17.542  0.7094E-03  0.6998E-03  0.2386E+00  0.2387E+00
     17.557  0.6982E-03  0.6876E-03  0.2387E+00  0.2387E+00
     17.573  0.6860E-03  0.6750E-03  0.2387E+00  0.2387E+00
     17.589  0.6731E-03  0.6627E-03  0.2387E+00  0.2387E+00
     17.604  0.6602E-03  0.6514E-03  0.2387E+00  0.2387E+00
     17.620  0.6480E-03  0.6417E-03  0.2387E+00  0.2387E+00
     17.636  0.6374E-03  0.6343E-03  0.2387E+00  0.2387E+00
     17.652  0.6289E-03  0.6297E-03  0.2387E+00  0.2387E+00
     17.667  0.6232E-03  0.6281E-03  0.2387E+00  0.2387E+00
     17.683  0.6207E-03  0.6296E-03  0.2387E+00  0.2387E+00
     17.699  0.6215E-03  0.6339E-03  0.2387E+00  0.2388E+00
     17.714  0.6256E-03  0.6405E-03  0.2388E+00  0.2388E+00
     17.730  0.6323E-03  0.6487E-03  0.2388E+00  0.2388E+00
     17.746  0.6413E-03  0.6578E-03  0.2388E+00  0.2388E+00
     17.761  0.6515E-03  0.6665E-03  0.2388E+00  0.2388E+00
     17.777  0.6620E-03  0.6740E-03  0.2388E+00  0.2388E+00
     17.793  0.6716E-03  0.6790E-03  0.2388E+00  0.2388E+00
     17.809  0.6792E-03  0.6807E-03  0.2388E+00  0.2388E+00
     17.824  0.6838E-03  0.6782E-03  0.2388E+00  0.2388E+00
     17.840  0.6843E-03  0.6708E-03  0.2388E+00  0.2389E+00
     17.856  0.6800E-03  0.6581E-03  0.2388E+00  0.2389E+00
     17.871  0.6702E-03  0.6401E-03  0.2389E+00  0.2389E+00
     17.887  0.6548E-03  0.6168E-03  0.2389E+00  0.2389E+00
     17.903  0.6339E-03  0.5889E-03  0.2389E+00  0.2389E+00
     17.919  0.6077E-03  0.5571E-03  0.2389E+00  0.2389E+00
     17.934  0.5771E-03  0.5226E-03  0.2389E+00  0.2389E+00
     17.950  0.5431E-03  0.4867E-03  0.2389E+00  0.2389E+00
     17.966  0.5069E-03  0.4506E-03  0.2389E+00  0.2389E+00
     17.981  0.4700E-03  0.4159E-03  0.2389E+00  0.2389E+00
     17.997  0.4338E-03  0.3840E-03  0.2389E+00  0.2389E+00
     18.013  0.3999E-03  0.3559E-03  0.2389E+00  0.2389E+00
     18.029  0.3693E-03  0.3326E-03  0.2389E+00  0.2389E+00
     18.044  0.3434E-03  0.3148E-03  0.2389E+00  0.2390E+00
     18.060  0.3226E-03  0.3027E-03  0.2389E+00  0.2390E+00
     18.076  0.3076E-03  0.2963E-03  0.2390E+00  0.2390E+00
     18.091  0.2984E-03  0.2953E-03  0.2390E+00  0.2390E+00
     18.107  0.2948E-03  0.2993E-03  0.2390E+00  0.2390E+00
     18.123  0.2963E-03  0.3075E-03  0.2390E+00  0.2390E+00
     18.138  0.3022E-03  0.3193E-03  0.2390E+00  0.2390E+00
     18.154  0.3119E-03  0.3340E-03  0.2390E+00  0.2390E+00
     18.170  0.3246E-03  0.3510E-03  0.2390E+00  0.2390E+00
     18.186  0.3398E-03  0.3698E-03  0.2390E+00  0.2390E+00
     18.201  0.3569E-03  0.3901E-03  0.2390E+00  0.2390E+00
     18.217  0.3756E-03  0.4117E-03  0.2390E+00  0.2390E+00
     18.233  0.3956E-03  0.4343E-03  0.2390E+00  0.2390E+00
     18.248  0.4168E-03  0.4580E-03  0.2390E+00  0.2390E+00
     18.264  0.4392E-03  0.4823E-03  0.2390E+00  0.2390E+00
     18.280  0.4625E-03  0.5070E-03  0.2390E+00  0.2390E+00
     18.296  0.4867E-03  0.5315E-03  0.2390E+00  0.2390E+00
     18.311  0.5112E-03  0.5551E-03  0.2390E+00  0.2391E+00
     18.327  0.5354E-03  0.5771E-03  0.2391E+00  0.2391E+00
     18.343  0.5586E-03  0.5963E-03  0.2391E+00  0.2391E+00
     18.358  0.5799E-03  0.6118E-03  0.2391E+00  0.2391E+00
     18.374  0.5981E-03  0.6229E-03  0.2391E+00  0.2391E+00
     18.390  0.6124E-03  0.6286E-03  0.2391E+00  0.2391E+00
     18.405  0.6218E-03  0.6287E-03  0.2391E+00  0.2391E+00
     18.421  0.6256E-03  0.6230E-03  0.2391E+00  0.2391E+00
     18.437  0.6236E-03  0.6119E-03  0.2391E+00  0.2391E+00
     18.453  0.6157E-03  0.5961E-03  0.2391E+00  0.2391E+00
     18.468  0.6025E-03  0.5766E-03  0.2391E+00  0.2392E+00
     18.484  0.5849E-03  0.5547E-03  0.2391E+00  0.2392E+00
     18.500  0.5639E-03  0.5321E-03  0.2392E+00  0.2392E+00
     18.515  0.5411E-03  0.5101E-03  0.2392E+00  0.2392E+00
     18.531  0.5179E-03  0.4902E-03  0.2392E+00  0.2392E+00
     18.547  0.4960E-03  0.4735E-03  0.2392E+00  0.2392E+00
     18.563  0.4766E-03  0.4609E-03  0.2392E+00  0.2392E+00
     18.578  0.4609E-03  0.4527E-03  0.2392E+00  0.2392E+00
     18.594  0.4496E-03  0.4490E-03  0.2392E+00  0.2392E+00
     18.610  0.4429E-03  0.4495E-03  0.2392E+00  0.2392E+00
     18.625  0.4408E-03  0.4533E-03  0.2392E+00  0.2392E+00
     18.641  0.4427E-03  0.4596E-03  0.2392E+00  0.2392E+00
     18.657  0.4478E-03  0.4673E-03  0.2392E+00  0.2392E+00
     18.673  0.4551E-03  0.4753E-03  0.2392E+00  0.2392E+00
     18.688  0.4634E-03  0.4826E-03  0.2392E+00  0.2393E+00
     18.704  0.4717E-03  0.4885E-03  0.2393E+00  0.2393E+00
     18.720  0.4790E-03  0.4925E-03  0.2393E+00  0.2393E+00
     18.735  0.4846E-03  0.4942E-03  0.2393E+00  0.2393E+00
     18.751  0.4881E-03  0.4937E-03  0.2393E+00  0.2393E+00
     18.767  0.4893E-03  0.4913E-03  0.2393E+00  0.2393E+00
     18.782  0.4882E-03  0.4873E-03  0.2393E+00  0.2393E+00
     18.798  0.4851E-03  0.4821E-03  0.2393E+00  0.2393E+00
     18.814  0.4806E-03  0.4761E-03  0.2393E+00  0.2393E+00
     18.830  0.4751E-03  0.4699E-03  0.2393E+00  0.2393E+00
     18.845  0.4690E-03  0.4635E-03  0.2393E+00  0.2393E+00
     18.861  0.4627E-03  0.4570E-03  0.2393E+00  0.2393E+00
     18.877  0.4565E-03  0.4504E-03  0.2393E+00  0.2393E+00
     18.892  0.4504E-03  0.4435E-03  0.2393E+00  0.2394E+00
     18.908  0.4443E-03  0.4360E-03  0.2393E+00  0.2394E+00
     18.924  0.4380E-03  0.4275E-03  0.2394E+00  0.2394E+00
     18.940  0.4312E-03  0.4178E-03  0.2394E+00  0.2394E+00
     18.955  0.4234E-03  0.4066E-03  0.2394E+00  0.2394E+00
     18.971  0.4145E-03  0.3939E-03  0.2394E+00  0.2394E+00
     18.987  0.4041E-03  0.3797E-03  0.2394E+00  0.2394E+00
     19.002  0.3922E-03  0.3642E-03  0.2394E+00  0.2394E+00
     19.018  0.3787E-03  0.3478E-03  0.2394E+00  0.2394E+00
     19.034  0.3640E-03  0.3310E-03  0.2394E+00  0.2394E+00
     19.050  0.3483E-03  0.3142E-03  0.2394E+00  0.2394E+00
     19.065  0.3321E-03  0.2981E-03  0.2394E+00  0.2394E+00
     19.081  0.3159E-03  0.2830E-03  0.2394E+00  0.2394E+00
     19.097  0.3001E-03  0.2697E-03  0.2394E+00  0.2394E+00
     19.112  0.2855E-03  0.2583E-03  0.2394E+00  0.2394E+00
     19.128  0.2723E-03  0.2491E-03  0.2394E+00  0.2394E+00
     19.144  0.2609E-03  0.2424E-03  0.2394E+00  0.2394E+00
     19.159  0.2517E-03  0.2380E-03  0.2394E+00  0.2394E+00
     19.175  0.2447E-03  0.2359E-03  0.2394E+00  0.2394E+00
     19.191  0.2399E-03  0.2359E-03  0.2394E+00  0.2395E+00
     19.207  0.2374E-03  0.2378E-03  0.2394E+00  0.2395E+00
     19.222  0.2369E-03  0.2411E-03  0.2395E+00  0.2395E+00
     19.238  0.2382E-03  0.2454E-03  0.2395E+00  0.2395E+00
     19.254  0.2409E-03  0.2504E-03  0.2395E+00  0.2395E+00
     19.269  0.2447E-03  0.2555E-03  0.2395E+00  0.2395E+00
     19.285  0.2492E-03  0.2603E-03  0.2395E+00  0.2395E+00
     19.301  0.2539E-03  0.2643E-03  0.2395E+00  0.2395E+00
     19.317  0.2583E-03  0.2671E-03  0.2395E+00  0.2395E+00
     19.332  0.2621E-03  0.2683E-03  0.2395E+00  0.2395E+00
     19.348  0.2648E-03  0.2677E-03  0.2395E+00  0.2395E+00
     19.364  0.2661E-03  0.2651E-03  0.2395E+00  0.2395E+00
     19.379  0.2656E-03  0.2605E-03  0.2395E+00  0.2395E+00
     19.395  0.2632E-03  0.2539E-03  0.2395E+00  0.2395E+00
     19.411  0.2588E-03  0.2456E-03  0.2395E+00  0.2395E+00
     19.427  0.2525E-03  0.2359E-03  0.2395E+00  0.2395E+00
     19.442  0.2445E-03  0.2253E-03  0.2395E+00  0.2395E+00
     19.458  0.2352E-03  0.2141E-03  0.2395E+00  0.2395E+00
     19.474  0.2249E-03  0.2031E-03  0.2395E+00  0.2395E+00
     19.489  0.2141E-03  0.1926E-03  0.2395E+00  0.2395E+00
     19.505  0.2033E-03  0.1832E-03  0.2395E+00  0.2395E+00
     19.521  0.1931E-03  0.1752E-03  0.2395E+00  0.2395E+00
     19.536  0.1838E-03  0.1690E-03  0.2395E+00  0.2395E+00
     19.552  0.1759E-03  0.1647E-03  0.2395E+00  0.2395E+00
     19.568  0.1697E-03  0.1627E-03  0.2395E+00  0.2395E+00
     19.584  0.1654E-03  0.1630E-03  0.2395E+00  0.2395E+00
     19.599  0.1631E-03  0.1657E-03  0.2395E+00  0.2395E+00
     19.615  0.1631E-03  0.1709E-03  0.2395E+00  0.2395E+00
     19.631  0.1654E-03  0.1787E-03  0.2395E+00  0.2395E+00
     19.646  0.1701E-03  0.1893E-03  0.2395E+00  0.2396E+00
     19.662  0.1774E-03  0.2026E-03  0.2395E+00  0.2396E+00
     19.678  0.1873E-03  0.2189E-03  0.2396E+00  0.2396E+00
     19.694  0.1999E-03  0.2379E-03  0.2396E+00  0.2396E+00
     19.709  0.2155E-03  0.2597E-03  0.2396E+00  0.2396E+00
     19.725  0.2338E-03  0.2839E-03  0.2396E+00  0.2396E+00
     19.741  0.2550E-03  0.3101E-03  0.2396E+00  0.2396E+00
     19.756  0.2787E-03  0.3376E-03  0.2396E+00  0.2396E+00
     19.772  0.3044E-03  0.3656E-03  0.2396E+00  0.2396E+00
     19.788  0.3317E-03  0.3931E-03  0.2396E+00  0.2396E+00
     19.803  0.3596E-03  0.4191E-03  0.2396E+00  0.2396E+00
     19.819  0.3872E-03  0.4424E-03  0.2396E+00  0.2396E+00
     19.835  0.4134E-03  0.4622E-03  0.2396E+00  0.2396E+00
     19.851  0.4372E-03  0.4776E-03  0.2396E+00  0.2396E+00
     19.866  0.4575E-03  0.4879E-03  0.2396E+00  0.2396E+00
     19.882  0.4735E-03  0.4930E-03  0.2396E+00  0.2396E+00
     19.898  0.4845E-03  0.4929E-03  0.2396E+00  0.2396E+00
     19.913  0.4902E-03  0.4880E-03  0.2396E+00  0.2397E+00
     19.929  0.4907E-03  0.4789E-03  0.2396E+00  0.2397E+00
     19.945  0.4863E-03  0.4666E-03  0.2396E+00  0.2397E+00
     19.961  0.4775E-03  0.4522E-03  0.2397E+00  0.2397E+00
     19.976  0.4654E-03  0.4367E-03  0.2397E+00  0.2397E+00
     19.992  0.4510E-03  0.4212E-03  0.2397E+00  0.2397E+00
     20.008  0.4353E-03  0.4066E-03  0.2397E+00  0.2397E+00
     20.023  0.4195E-03  0.3935E-03  0.2397E+00  0.2397E+00
     20.039  0.4046E-03  0.3825E-03  0.2397E+00  0.2397E+00
     20.055  0.3912E-03  0.3734E-03  0.2397E+00  0.2397E+00
     20.071  0.3798E-03  0.3663E-03  0.2397E+00  0.2397E+00
     20.086  0.3706E-03  0.3605E-03  0.2397E+00  0.2397E+00
     20.102  0.3634E-03  0.3554E-03  0.2397E+00  0.2397E+00
     20.118  0.3577E-03  0.3504E-03  0.2397E+00  0.2397E+00
     20.133  0.3531E-03  0.3445E-03  0.2397E+00  0.2397E+00
     20.149  0.3486E-03  0.3371E-03  0.2397E+00  0.2397E+00
     20.165  0.3436E-03  0.3275E-03  0.2397E+00  0.2397E+00
     20.180  0.3372E-03  0.3153E-03  0.2397E+00  0.2398E+00
     20.196  0.3287E-03  0.3002E-03  0.2397E+00  0.2398E+00
     20.212  0.3177E-03  0.2822E-03  0.2398E+00  0.2398E+00
     20.228  0.3038E-03  0.2616E-03  0.2398E+00  0.2398E+00
     20.243  0.2870E-03  0.2387E-03  0.2398E+00  0.2398E+00
     20.259  0.2674E-03  0.2140E-03  0.2398E+00  0.2398E+00
     20.275  0.2454E-03  0.1882E-03  0.2398E+00  0.2398E+00
     20.290  0.2214E-03  0.1620E-03  0.2398E+00  0.2398E+00
     20.306  0.1961E-03  0.1361E-03  0.2398E+00  0.2398E+00
     20.322  0.1701E-03  0.1112E-03  0.2398E+00  0.2398E+00
     20.338  0.1442E-03  0.8782E-04  0.2398E+00  0.2398E+00
     20.353  0.1190E-03  0.6642E-04  0.2398E+00  0.2398E+00
     20.369  0.9522E-04  0.4737E-04  0.2398E+00  0.2398E+00
     20.385  0.7324E-04  0.3090E-04  0.2398E+00  0.2398E+00
     20.400  0.5350E-04  0.1712E-04  0.2398E+00  0.2398E+00
     20.416  0.3625E-04  0.6036E-05  0.2398E+00  0.2398E+00
     20.432  0.2166E-04 -0.2431E-05  0.2398E+00  0.2398E+00
     20.448  0.9750E-05 -0.8425E-05  0.2398E+00  0.2398E+00
     20.463  0.4799E-06 -0.1214E-04  0.2398E+00  0.2398E+00
     20.479 -0.6276E-05 -0.1379E-04  0.2398E+00  0.2398E+00
     20.495 -0.1069E-04 -0.1360E-04  0.2398E+00  0.2398E+00
     20.510 -0.1298E-04 -0.1179E-04  0.2398E+00  0.2398E+00
     20.526 -0.1337E-04 -0.8560E-05  0.2398E+00  0.2398E+00
     20.542 -0.1207E-04 -0.4074E-05  0.2398E+00  0.2398E+00
     20.557 -0.9304E-05  0.1534E-05  0.2398E+00  0.2398E+00
     20.573 -0.5241E-05  0.8173E-05  0.2398E+00  0.2398E+00
     20.589 -0.3407E-07  0.1579E-04  0.2398E+00  0.2398E+00
     20.605  0.6208E-05  0.2438E-04  0.2398E+00  0.2398E+00
     20.620  0.1342E-04  0.3397E-04  0.2398E+00  0.2398E+00
     20.636  0.2157E-04  0.4461E-04  0.2398E+00  0.2398E+00
     20.652  0.3067E-04  0.5635E-04  0.2398E+00  0.2398E+00
     20.667  0.4077E-04  0.6925E-04  0.2398E+00  0.2398E+00
     20.683  0.5192E-04  0.8335E-04  0.2398E+00  0.2398E+00
     20.699  0.6420E-04  0.9863E-04  0.2398E+00  0.2398E+00
     20.715  0.7765E-04  0.1150E-03  0.2398E+00  0.2398E+00
     20.730  0.9228E-04  0.1323E-03  0.2398E+00  0.2398E+00
     20.746  0.1080E-03  0.1502E-03  0.2398E+00  0.2398E+00
     20.762  0.1248E-03  0.1684E-03  0.2398E+00  0.2398E+00
     20.777  0.1423E-03  0.1863E-03  0.2398E+00  0.2398E+00
     20.793  0.1603E-03  0.2033E-03  0.2398E+00  0.2398E+00
     20.809  0.1783E-03  0.2189E-03  0.2398E+00  0.2398E+00
     20.824  0.1957E-03  0.2323E-03  0.2398E+00  0.2398E+00
     20.840  0.2119E-03  0.2429E-03  0.2398E+00  0.2398E+00
     20.856  0.2263E-03  0.2500E-03  0.2398E+00  0.2398E+00
     20.872  0.2381E-03  0.2533E-03  0.2398E+00  0.2398E+00
     20.887  0.2467E-03  0.2523E-03  0.2398E+00  0.2398E+00
     20.903  0.2517E-03  0.2470E-03  0.2398E+00  0.2398E+00
     20.919  0.2526E-03  0.2374E-03  0.2398E+00  0.2398E+00
     20.934  0.2492E-03  0.2239E-03  0.2398E+00  0.2398E+00
     20.950  0.2414E-03  0.2069E-03  0.2398E+00  0.2398E+00
     20.966  0.2296E-03  0.1872E-03  0.2398E+00  0.2398E+00
     20.982  0.2141E-03  0.1657E-03  0.2398E+00  0.2399E+00
     20.997  0.1955E-03  0.1433E-03  0.2398E+00  0.2399E+00
     21.013  0.1747E-03  0.1211E-03  0.2398E+00  0.2399E+00
     21.029  0.1526E-03  0.1002E-03  0.2399E+00  0.2399E+00
     21.044  0.1303E-03  0.8165E-04  0.2399E+00  0.2399E+00
     21.060  0.1087E-03  0.6626E-04  0.2399E+00  0.2399E+00
     21.076  0.8902E-04  0.5487E-04  0.2399E+00  0.2399E+00
     21.092  0.7213E-04  0.4808E-04  0.2399E+00  0.2399E+00
     21.107  0.5889E-04  0.4630E-04  0.2399E+00  0.2399E+00
     21.123  0.4998E-04  0.4971E-04  0.2399E+00  0.2399E+00
     21.139  0.4591E-04  0.5829E-04  0.2399E+00  0.2399E+00
     21.154  0.4695E-04  0.7176E-04  0.2399E+00  0.2399E+00
     21.170  0.5317E-04  0.8967E-04  0.2399E+00  0.2399E+00
     21.186  0.6441E-04  0.1113E-03  0.2399E+00  0.2399E+00
     21.201  0.8031E-04  0.1359E-03  0.2399E+00  0.2399E+00
     21.217  0.1003E-03  0.1625E-03  0.2399E+00  0.2399E+00
     21.233  0.1236E-03  0.1900E-03  0.2399E+00  0.2399E+00
     21.249  0.1493E-03  0.2173E-03  0.2399E+00  0.2399E+00
     21.264  0.1764E-03  0.2434E-03  0.2399E+00  0.2399E+00
     21.280  0.2039E-03  0.2672E-03  0.2399E+00  0.2399E+00
     21.296  0.2306E-03  0.2877E-03  0.2399E+00  0.2399E+00
     21.311  0.2556E-03  0.3042E-03  0.2399E+00  0.2399E+00
     21.327  0.2777E-03  0.3161E-03  0.2399E+00  0.2399E+00
     21.343  0.2962E-03  0.3230E-03  0.2399E+00  0.2399E+00
     21.359  0.3104E-03  0.3246E-03  0.2399E+00  0.2399E+00
     21.374  0.3197E-03  0.3210E-03  0.2399E+00  0.2399E+00
     21.390  0.3238E-03  0.3125E-03  0.2399E+00  0.2399E+00
     21.406  0.3228E-03  0.2994E-03  0.2399E+00  0.2399E+00
     21.421  0.3167E-03  0.2824E-03  0.2399E+00  0.2399E+00
     21.437  0.3059E-03  0.2621E-03  0.2399E+00  0.2399E+00
     21.453  0.2908E-03  0.2393E-03  0.2399E+00  0.2399E+00
     21.469  0.2721E-03  0.2149E-03  0.2399E+00  0.2399E+00
     21.484  0.2506E-03  0.1897E-03  0.2399E+00  0.2399E+00
     21.500  0.2270E-03  0.1643E-03  0.2399E+00  0.2399E+00
     21.516  0.2022E-03  0.1395E-03  0.2399E+00  0.2399E+00
     21.531  0.1769E-03  0.1159E-03  0.2399E+00  0.2400E+00
     21.547  0.1518E-03  0.9398E-04  0.2399E+00  0.2400E+00
     21.563  0.1277E-03  0.7402E-04  0.2399E+00  0.2400E+00
     21.578  0.1049E-03  0.5628E-04  0.2400E+00  0.2400E+00
     21.594  0.8398E-04  0.4088E-04  0.2400E+00  0.2400E+00
     21.610  0.6515E-04  0.2783E-04  0.2400E+00  0.2400E+00
     21.626  0.4859E-04  0.1707E-04  0.2400E+00  0.2400E+00
     21.641  0.3438E-04  0.8443E-05  0.2400E+00  0.2400E+00
     21.657  0.2249E-04  0.1767E-05  0.2400E+00  0.2400E+00
     21.673  0.1280E-04 -0.3184E-05  0.2400E+00  0.2400E+00
     21.688  0.5147E-05 -0.6651E-05  0.2400E+00  0.2400E+00
     21.704 -0.6676E-06 -0.8882E-05  0.2400E+00  0.2400E+00
     21.720 -0.4881E-05 -0.1011E-04  0.2400E+00  0.2400E+00
     21.736 -0.7735E-05 -0.1056E-04  0.2400E+00  0.2400E+00
     21.751 -0.9471E-05 -0.1044E-04  0.2400E+00  0.2400E+00
     21.767 -0.1032E-04 -0.9904E-05  0.2400E+00  0.2400E+00
     21.783 -0.1049E-04 -0.9113E-05  0.2400E+00  0.2400E+00
     21.798 -0.1016E-04 -0.8183E-05  0.2400E+00  0.2400E+00
     21.814 -0.9500E-05 -0.7211E-05  0.2400E+00  0.2400E+00
     21.830 -0.8641E-05 -0.6270E-05  0.2400E+00  0.2400E+00
     21.846 -0.7690E-05 -0.5414E-05  0.2400E+00  0.2400E+00
     21.861 -0.6732E-05 -0.4682E-05  0.2400E+00  0.2400E+00
     21.877 -0.5831E-05 -0.4100E-05  0.2400E+00  0.2400E+00
     21.893 -0.5032E-05 -0.3682E-05  0.2400E+00  0.2400E+00
     21.908 -0.4369E-05 -0.3437E-05  0.2400E+00  0.2400E+00
     21.924 -0.3861E-05 -0.3367E-05  0.2400E+00  0.2400E+00
     21.940 -0.3522E-05 -0.3465E-05  0.2400E+00  0.2400E+00
     21.955 -0.3355E-05 -0.3720E-05  0.2400E+00  0.2400E+00
     21.971 -0.3359E-05 -0.4113E-05  0.2400E+00  0.2400E+00
     21.987 -0.3527E-05 -0.4615E-05  0.2400E+00  0.2400E+00
     22.003 -0.3844E-05 -0.5184E-05  0.2400E+00  0.2400E+00
     22.018 -0.4287E-05 -0.5764E-05  0.2400E+00  0.2400E+00
     22.034 -0.4822E-05 -0.6282E-05  0.2400E+00  0.2400E+00
     22.050 -0.5402E-05 -0.6645E-05  0.2400E+00  0.2400E+00
     22.065 -0.5966E-05 -0.6742E-05  0.2400E+00  0.2400E+00
     22.081 -0.6432E-05 -0.6440E-05  0.2400E+00  0.2400E+00
     22.097 -0.6700E-05 -0.5595E-05  0.2400E+00  0.2400E+00
     22.113 -0.6651E-05 -0.4048E-05  0.2400E+00  0.2400E+00
     22.128 -0.6148E-05 -0.1641E-05  0.2400E+00  0.2400E+00
     22.144 -0.5039E-05  0.1778E-05  0.2400E+00  0.2400E+00
     22.160 -0.3167E-05  0.6340E-05  0.2400E+00  0.2400E+00
     22.175 -0.3748E-06  0.1214E-04  0.2400E+00  0.2400E+00
     22.191  0.3482E-05  0.1923E-04  0.2400E+00  0.2400E+00
     22.207  0.8521E-05  0.2759E-04  0.2400E+00  0.2400E+00
     22.222  0.1482E-04  0.3715E-04  0.2400E+00  0.2400E+00
     22.238  0.2241E-04  0.4774E-04  0.2400E+00  0.2400E+00
     22.254  0.3124E-04  0.5912E-04  0.2400E+00  0.2400E+00
     22.270  0.4121E-04  0.7098E-04  0.2400E+00  0.2400E+00
     22.285  0.5213E-04  0.8294E-04  0.2400E+00  0.2400E+00
     22.301  0.6371E-04  0.9458E-04  0.2400E+00  0.2400E+00
     22.317  0.7563E-04  0.1055E-03  0.2400E+00  0.2400E+00
     22.332  0.8750E-04  0.1151E-03  0.2400E+00  0.2400E+00
     22.348  0.9886E-04  0.1232E-03  0.2400E+00  0.2400E+00
     22.364  0.1093E-03  0.1293E-03  0.2400E+00  0.2400E+00
     22.380  0.1184E-03  0.1333E-03  0.2400E+00  0.2400E+00
     22.395  0.1257E-03  0.1349E-03  0.2400E+00  0.2400E+00
     22.411  0.1310E-03  0.1342E-03  0.2400E+00  0.2400E+00
     22.427  0.1340E-03  0.1312E-03  0.2400E+00  0.2400E+00
     22.442  0.1347E-03  0.1262E-03  0.2400E+00  0.2400E+00
     22.458  0.1331E-03  0.1195E-03  0.2400E+00  0.2400E+00
     22.474  0.1293E-03  0.1115E-03  0.2400E+00  0.2400E+00
     22.490  0.1236E-03  0.1027E-03  0.2400E+00  0.2400E+00
     22.505  0.1164E-03  0.9349E-04  0.2400E+00  0.2400E+00
     22.521  0.1081E-03  0.8435E-04  0.2400E+00  0.2400E+00
     22.537  0.9906E-04  0.7565E-04  0.2400E+00  0.2400E+00
     22.552  0.8984E-04  0.6773E-04  0.2400E+00  0.2400E+00
     22.568  0.8085E-04  0.6079E-04  0.2400E+00  0.2400E+00
     22.584  0.7243E-04  0.5496E-04  0.2400E+00  0.2400E+00
     22.599  0.6488E-04  0.5026E-04  0.2400E+00  0.2400E+00
     22.615  0.5837E-04  0.4661E-04  0.2400E+00  0.2400E+00
     22.631  0.5299E-04  0.4388E-04  0.2400E+00  0.2400E+00
     22.647  0.4872E-04  0.4184E-04  0.2400E+00  0.2400E+00
     22.662  0.4545E-04  0.4029E-04  0.2400E+00  0.2400E+00
     22.678  0.4302E-04  0.3898E-04  0.2400E+00  0.2400E+00
     22.694  0.4121E-04  0.3771E-04  0.2400E+00  0.2400E+00
     22.709  0.3979E-04  0.3628E-04  0.2400E+00  0.2400E+00
     22.725  0.3852E-04  0.3456E-04  0.2400E+00  0.2400E+00
     22.741  0.3721E-04  0.3249E-04  0.2400E+00  0.2400E+00
     22.757  0.3570E-04  0.3003E-04  0.2400E+00  0.2400E+00
     22.772  0.3386E-04  0.2722E-04  0.2400E+00  0.2400E+00
     22.788  0.3165E-04  0.2412E-04  0.2400E+00  0.2400E+00
     22.804  0.2905E-04  0.2084E-04  0.2400E+00  0.2400E+00
     22.819  0.2613E-04  0.1748E-04  0.2400E+00  0.2400E+00
     22.835  0.2295E-04  0.1416E-04  0.2400E+00  0.2400E+00
     22.851  0.1962E-04  0.1100E-04  0.2400E+00  0.2400E+00
     22.867  0.1626E-04  0.8090E-05  0.2400E+00  0.2400E+00
     22.882  0.1299E-04  0.5500E-05  0.2400E+00  0.2400E+00
     22.898  0.9906E-05  0.3277E-05  0.2400E+00  0.2400E+00
     22.914  0.7104E-05  0.1442E-05  0.2400E+00  0.2400E+00
     22.929  0.4643E-05 -0.6651E-08  0.2400E+00  0.2400E+00
     22.945  0.2561E-05 -0.1091E-05  0.2400E+00  0.2400E+00
     22.961  0.8685E-06 -0.1849E-05  0.2400E+00  0.2400E+00
     22.976 -0.4435E-06 -0.2327E-05  0.2400E+00  0.2400E+00
     22.992 -0.1404E-05 -0.2576E-05  0.2400E+00  0.2400E+00
     23.008 -0.2053E-05 -0.2648E-05  0.2400E+00  0.2400E+00
     23.024 -0.2441E-05 -0.2591E-05  0.2400E+00  0.2400E+00
     23.039 -0.2619E-05 -0.2447E-05  0.2400E+00  0.2400E+00
     23.055 -0.2638E-05 -0.2250E-05  0.2400E+00  0.2400E+00
     23.071 -0.2545E-05 -0.2027E-05  0.2400E+00  0.2400E+00
     23.086 -0.2378E-05 -0.1794E-05  0.2400E+00  0.2400E+00
     23.102 -0.2169E-05 -0.1562E-05  0.2400E+00  0.2400E+00
     23.118 -0.1941E-05 -0.1332E-05  0.2400E+00  0.2400E+00
     23.134 -0.1708E-05 -0.1100E-05  0.2400E+00  0.2400E+00
     23.149 -0.1477E-05 -0.8602E-06  0.2400E+00  0.2400E+00
     23.165 -0.1248E-05 -0.6002E-06  0.2400E+00  0.2400E+00
     23.181 -0.1016E-05 -0.3086E-06  0.2400E+00  0.2400E+00
     23.196 -0.7708E-06  0.2613E-07  0.2400E+00  0.2400E+00
     23.212 -0.5022E-06  0.4140E-06  0.2400E+00  0.2400E+00
     23.228 -0.1979E-06  0.8618E-06  0.2400E+00  0.2400E+00
     23.244  0.1533E-06  0.1372E-05  0.2400E+00  0.2400E+00
     23.259  0.5604E-06  0.1943E-05  0.2400E+00  0.2400E+00
     23.275  0.1029E-05  0.2567E-05  0.2400E+00  0.2400E+00
     23.291  0.1560E-05  0.3230E-05  0.2400E+00  0.2400E+00
     23.306  0.2150E-05  0.3914E-05  0.2400E+00  0.2400E+00
     23.322  0.2789E-05  0.4597E-05  0.2400E+00  0.2400E+00
     23.338  0.3461E-05  0.5253E-05  0.2400E+00  0.2400E+00
     23.353  0.4148E-05  0.5854E-05  0.2400E+00  0.2400E+00
     23.369  0.4824E-05  0.6375E-05  0.2400E+00  0.2400E+00
     23.385  0.5464E-05  0.6790E-05  0.2400E+00  0.2400E+00
     23.401  0.6041E-05  0.7079E-05  0.2400E+00  0.2400E+00
     23.416  0.6528E-05  0.7229E-05  0.2400E+00  0.2400E+00
     23.432  0.6903E-05  0.7231E-05  0.2400E+00  0.2400E+00
     23.448  0.7146E-05  0.7086E-05  0.2400E+00  0.2400E+00
     23.463  0.7246E-05  0.6801E-05  0.2400E+00  0.2400E+00
     23.479  0.7198E-05  0.6391E-05  0.2400E+00  0.2400E+00
     23.495  0.7005E-05  0.5875E-05  0.2400E+00  0.2400E+00
     23.511  0.6675E-05  0.5278E-05  0.2400E+00  0.2400E+00
     23.526  0.6226E-05  0.4628E-05  0.2400E+00  0.2400E+00
     23.542  0.5680E-05  0.3952E-05  0.2400E+00  0.2400E+00
     23.558  0.5062E-05  0.3276E-05  0.2400E+00  0.2400E+00
     23.573  0.4400E-05  0.2626E-05  0.2400E+00  0.2400E+00
     23.589  0.3721E-05  0.2020E-05  0.2400E+00  0.2400E+00
     23.605  0.3052E-05  0.1474E-05  0.2400E+00  0.2400E+00
     23.620  0.2414E-05  0.9987E-06  0.2400E+00  0.2400E+00
     23.636  0.1827E-05  0.5990E-06  0.2400E+00  0.2400E+00
     23.652  0.1305E-05  0.2757E-06  0.2400E+00  0.2400E+00
     23.668  0.8544E-06  0.2569E-07  0.2400E+00  0.2400E+00
     23.683  0.4808E-06 -0.1572E-06  0.2400E+00  0.2400E+00
     23.699  0.1829E-06 -0.2811E-06  0.2400E+00  0.2400E+00
     23.715 -0.4351E-07 -0.3556E-06  0.2400E+00  0.2400E+00
     23.730 -0.2054E-06 -0.3903E-06  0.2400E+00  0.2400E+00
     23.746 -0.3115E-06 -0.3947E-06  0.2400E+00  0.2400E+00
     23.762 -0.3713E-06 -0.3774E-06  0.2400E+00  0.2400E+00
     23.778 -0.3947E-06 -0.3458E-06  0.2400E+00  0.2400E+00
     23.793 -0.3908E-06 -0.3062E-06  0.2400E+00  0.2400E+00
     23.809 -0.3679E-06 -0.2634E-06  0.2400E+00  0.2400E+00
     23.825 -0.3330E-06 -0.2207E-06  0.2400E+00  0.2400E+00
     23.840 -0.2919E-06 -0.1808E-06  0.2400E+00  0.2400E+00
     23.856 -0.2487E-06 -0.1449E-06  0.2400E+00  0.2400E+00
     23.872 -0.2068E-06 -0.1139E-06  0.2400E+00  0.2400E+00
     23.888 -0.1681E-06 -0.8778E-07  0.2400E+00  0.2400E+00
     23.903 -0.1338E-06 -0.6648E-07  0.2400E+00  0.2400E+00
     23.919 -0.1045E-06 -0.4948E-07  0.2400E+00  0.2400E+00
     23.935 -0.8004E-07 -0.3621E-07  0.2400E+00  0.2400E+00
     23.950 -0.6025E-07 -0.2608E-07  0.2400E+00  0.2400E+00
     23.966 -0.4459E-07 -0.1848E-07  0.2400E+00  0.2400E+00
     23.982 -0.3245E-07 -0.1290E-07  0.2400E+00  0.2400E+00
     23.997 -0.2324E-07 -0.8863E-08  0.2400E+00  0.2400E+00
     24.013 -0.1639E-07 -0.6001E-08  0.2400E+00  0.2400E+00
     24.029 -0.1137E-07 -0.4003E-08  0.2400E+00  0.2400E+00
     24.045 -0.7778E-08 -0.2632E-08  0.2400E+00  0.2400E+00
     24.060 -0.5239E-08 -0.1706E-08  0.2400E+00  0.2400E+00
     24.076 -0.3478E-08 -0.1090E-08  0.2400E+00  0.2400E+00
     24.092 -0.2275E-08 -0.6864E-09  0.2400E+00  0.2400E+00
     24.107 -0.1467E-08 -0.4264E-09  0.2400E+00  0.2400E+00
     24.123 -0.9330E-09 -0.2612E-09  0.2400E+00  0.2400E+00
     24.139 -0.5849E-09 -0.1578E-09  0.2400E+00  0.2400E+00
     24.155 -0.3616E-09 -0.9405E-10  0.2400E+00  0.2400E+00
     24.170 -0.2205E-09 -0.5529E-10  0.2400E+00  0.2400E+00
     24.186 -0.1326E-09 -0.3207E-10  0.2400E+00  0.2400E+00
     24.202 -0.7866E-10 -0.1835E-10  0.2400E+00  0.2400E+00
     24.217 -0.4603E-10 -0.1036E-10  0.2400E+00  0.2400E+00
     24.233 -0.2657E-10 -0.5771E-11  0.2400E+00  0.2400E+00
     24.249 -0.1514E-10 -0.3172E-11  0.2400E+00  0.2400E+00
     24.265 -0.8507E-11 -0.1721E-11  0.2400E+00  0.2400E+00
     24.280 -0.4717E-11 -0.9211E-12  0.2400E+00  0.2400E+00
     24.296 -0.2581E-11 -0.4866E-12  0.2400E+00  0.2400E+00
     24.312 -0.1394E-11 -0.2537E-12  0.2400E+00  0.2400E+00
     24.327 -0.7429E-12 -0.1306E-12  0.2400E+00  0.2400E+00
     24.343 -0.3907E-12 -0.6632E-13  0.2400E+00  0.2400E+00
     24.359 -0.2028E-12 -0.3325E-13  0.2400E+00  0.2400E+00
     24.374 -0.1039E-12 -0.1645E-13  0.2400E+00  0.2400E+00
     24.390 -0.5254E-13 -0.8036E-14  0.2400E+00  0.2400E+00
     24.406 -0.2622E-13 -0.3875E-14  0.2400E+00  0.2400E+00
     24.422 -0.1292E-13 -0.1844E-14  0.2400E+00  0.2400E+00
     24.437 -0.6283E-14 -0.8665E-15  0.2400E+00  0.2400E+00
     24.453 -0.3016E-14 -0.4019E-15  0.2400E+00  0.2400E+00
     24.469 -0.1429E-14 -0.1840E-15  0.2400E+00  0.2400E+00
     24.484 -0.6686E-15 -0.8319E-16  0.2400E+00  0.2400E+00
     24.500 -0.3088E-15 -0.3713E-16  0.2400E+00  0.2400E+00
     24.516 -0.1408E-15 -0.1636E-16  0.2400E+00  0.2400E+00
     24.532 -0.6336E-16 -0.7102E-17  0.2400E+00  0.2400E+00
     24.547 -0.2817E-16 -0.3078E-17  0.2400E+00  0.2400E+00
     24.563 -0.1234E-16 -0.1285E-17  0.2400E+00  0.2400E+00
     24.579 -0.5357E-17 -0.5332E-18  0.2400E+00  0.2400E+00
     24.594 -0.2278E-17 -0.2424E-18  0.2400E+00  0.2400E+00
     24.610 -0.9695E-18 -0.7272E-19  0.2400E+00  0.2400E+00
     24.626 -0.3878E-18 -0.4848E-19  0.2400E+00  0.2400E+00
     24.641 -0.1697E-18 -0.2424E-19  0.2400E+00  0.2400E+00
     24.657 -0.7272E-19  0.0000E+00  0.2400E+00  0.2400E+00
     24.673 -0.2424E-19  0.0000E+00  0.2400E+00  0.2400E+00
     24.689 -0.2424E-19  0.0000E+00  0.2400E+00  0.2400E+00
     24.704  0.0000E+00  0.0000E+00  0.2400E+00  0.2400E+00
     24.720  0.0000E+00  0.0000E+00  0.2400E+00  0.2400E+00
     24.736  0.0000E+00  0.0000E+00  0.2400E+00  0.2400E+00
     24.751  0.0000E+00  0.0000E+00  0.2400E+00  0.2400E+00
     24.767  0.0000E+00  0.0000E+00  0.2400E+00  0.2400E+00
     24.783  0.0000E+00  0.0000E+00  0.2400E+00  0.2400E+00
     24.799  0.0000E+00  0.0000E+00  0.2400E+00  0.2400E+00
     24.814  0.0000E+00  0.0000E+00  0.2400E+00  0.2400E+00
     24.830  0.0000E+00  0.0000E+00  0.2400E+00  0.2400E+00
     24.846  0.0000E+00  0.0000E+00  0.2400E+00  0.2400E+00
     24.861  0.0000E+00  0.0000E+00  0.2400E+00  0.2400E+00
     24.877  0.0000E+00  0.0000E+00  0.2400E+00  0.2400E+00
     24.893  0.0000E+00  0.0000E+00  0.2400E+00  0.2400E+00
     24.909  0.0000E+00  0.0000E+00  0.2400E+00  0.2400E+00
     24.924  0.0000E+00  0.0000E+00  0.2400E+00  0.2400E+00
     24.940  0.0000E+00  0.0000E+00  0.2400E+00  0.2400E+00
     24.956  0.0000E+00  0.0000E+00  0.2400E+00  0.2400E+00
     24.971  0.0000E+00  0.0000E+00  0.2400E+00  0.2400E+00
     24.987  0.0000E+00  0.0000E+00  0.2400E+00  0.2400E+00
     25.003  0.0000E+00  0.0000E+00  0.2400E+00  0.2400E+00
     25.018  0.0000E+00  0.0000E+00  0.2400E+00  0.2400E+00
     25.034  0.0000E+00  0.0000E+00  0.2400E+00  0.2400E+00
     25.050  0.0000E+00  0.0000E+00  0.2400E+00  0.2400E+00
     25.066  0.0000E+00  0.0000E+00  0.2400E+00  0.2400E+00
     25.081  0.0000E+00  0.0000E+00  0.2400E+00  0.2400E+00
     25.097  0.0000E+00  0.0000E+00  0.2400E+00  0.2400E+00
     25.113  0.0000E+00  0.0000E+00  0.2400E+00  0.2400E+00
     25.128  0.0000E+00  0.0000E+00  0.2400E+00  0.2400E+00
     25.144  0.0000E+00  0.0000E+00  0.2400E+00  0.2400E+00
     25.160  0.0000E+00  0.0000E+00  0.2400E+00  0.2400E+00
     25.176  0.0000E+00  0.0000E+00  0.2400E+00  0.2400E+00
     25.191  0.0000E+00  0.0000E+00  0.2400E+00  0.2400E+00
     25.207  0.0000E+00  0.0000E+00  0.2400E+00  0.2400E+00
     25.223  0.0000E+00  0.0000E+00  0.2400E+00  0.2400E+00
     25.238  0.0000E+00  0.0000E+00  0.2400E+00  0.2400E+00
     25.254  0.0000E+00  0.0000E+00  0.2400E+00  0.2400E+00
     25.270  0.0000E+00  0.0000E+00  0.2400E+00  0.2400E+00
     25.286  0.0000E+00  0.0000E+00  0.2400E+00  0.2400E+00
     25.301  0.0000E+00  0.0000E+00  0.2400E+00  0.2400E+00
     25.317  0.0000E+00  0.0000E+00  0.2400E+00  0.2400E+00
     25.333  0.0000E+00  0.0000E+00  0.2400E+00  0.2400E+00
     25.348  0.0000E+00  0.0000E+00  0.2400E+00  0.2400E+00
     25.364  0.0000E+00  0.0000E+00  0.2400E+00  0.2400E+00
     25.380  0.0000E+00  0.0000E+00  0.2400E+00  0.2400E+00
     25.395  0.0000E+00  0.0000E+00  0.2400E+00  0.2400E+00
     25.411  0.0000E+00  0.0000E+00  0.2400E+00  0.2400E+00
     25.427  0.0000E+00  0.0000E+00  0.2400E+00  0.2400E+00
     25.443  0.0000E+00  0.0000E+00  0.2400E+00  0.2400E+00
     25.458  0.0000E+00  0.0000E+00  0.2400E+00  0.2400E+00
