       N       E                     dE             d eps       ncg     rms          rms(c)
DAV:   1     0.157183215765E+03    0.15718E+03   -0.16514E+04 21156   0.193E+03
DAV:   2    -0.217305710846E+02   -0.17891E+03   -0.17276E+03 21120   0.292E+02
DAV:   3    -0.260792235341E+02   -0.43487E+01   -0.42979E+01 28428   0.644E+01
DAV:   4    -0.261189971555E+02   -0.39774E-01   -0.39766E-01 24408   0.488E+00
DAV:   5    -0.261200070549E+02   -0.10099E-02   -0.10099E-02 29292   0.781E-01    0.173E+01
DAV:   6    -0.277709320524E+02   -0.16509E+01   -0.53554E+01 23616   0.119E+02    0.183E+01
DAV:   7    -0.222276143838E+02    0.55433E+01   -0.24035E+01 24168   0.645E+01    0.194E+00
DAV:   8    -0.221890039200E+02    0.38610E-01   -0.24593E-01 22548   0.364E+00    0.116E+00
DAV:   9    -0.221729146218E+02    0.16089E-01   -0.33723E-02 28500   0.220E+00    0.695E-01
DAV:  10    -0.221741452008E+02   -0.12306E-02   -0.24329E-03 27948   0.611E-01    0.290E-01
DAV:  11    -0.221740130310E+02    0.13217E-03   -0.31427E-03 27300   0.711E-01    0.142E-01
DAV:  12    -0.221742793940E+02   -0.26636E-03   -0.34435E-04 26748   0.249E-01    0.237E-02
DAV:  13    -0.221742673481E+02    0.12046E-04   -0.45890E-05 30648   0.775E-02    0.354E-02
DAV:  14    -0.221742779926E+02   -0.10644E-04   -0.11486E-05 25320   0.433E-02    0.128E-02
DAV:  15    -0.221742785596E+02   -0.56698E-06   -0.23626E-06 13128   0.197E-02
   1 F= -.22174279E+02 E0= -.22175827E+02  d E =-.221743E+02  mag=     0.7646
