 vasp.6.3.0 20Jan22 (build Jun 30 2026 15:27:26) complex                        
  
 executed on             LinuxIFC date 2026.07.21  06:00:17
 running on   24 total cores
 distrk:  each k-point on   24 cores,    1 groups
 distr:  one band on NCORE=   4 cores,    6 groups


--------------------------------------------------------------------------------------------------------


 INCAR:
   SYSTEM = Ni3Al EOS
   PREC = Accurate
   NCORE = 4
   LREAL = .FALSE.
   LWAVE = .FALSE.
   LASPH = .TRUE.
   ADDGRID = .TRUE.
   SYMPREC = 1.0E-5
   ISYM = 2
   ISPIN = 2
   MAGMOM = 1*0.0 3*0.6
   ISMEAR = 1
   SIGMA = 0.2
   ISTART = 0
   ICHARG = 2
   ENCUT = 600
   NEDOS = 2000
   EDIFF = 1.0E-6
   IBRION = 2
   ISIF = 2
   NSW = 100
   EDIFFG = -0.01

 POTCAR:   PAW_PBE Al 04Jan2001                   
 POTCAR:   PAW_PBE Ni 06Sep2000                   
 POTCAR:   PAW_PBE Al 04Jan2001                   
   VRHFIN =Al: s2p1                                                                                 
   LEXCH  = PE                                                                                      
   EATOM  =    53.5387 eV,    3.9350 Ry                                                             
                                                                                                    
   TITEL  = PAW_PBE Al 04Jan2001                                                                    
   LULTRA =        F    use ultrasoft PP ?                                                          
   IUNSCR =        1    unscreen: 0-lin 1-nonlin 2-no                                               
   RPACOR =    1.500    partial core radius                                                         
   POMASS =   26.982; ZVAL   =    3.000    mass and valenz                                          
   RCORE  =    1.900    outmost cutoff radius                                                       
   RWIGS  =    2.650; RWIGS  =    1.402    wigner-seitz radius (au A)                               
   ENMAX  =  240.300; ENMIN  =  180.225 eV                                                          
   ICORE  =        2    local potential                                                             
   LCOR   =        T    correct aug charges                                                         
   LPAW   =        T    paw PP                                                                      
   EAUG   =  291.052                                                                                
   DEXC   =    -.041                                                                                
   RMAX   =    2.974    core radius for proj-oper                                                   
   RAUG   =    1.300    factor for augmentation sphere                                              
   RDEP   =    1.966    radius for radial grids                                                     
   QCUT   =   -4.203; QGAM   =    8.405    optimization parameters                                  
                                                                                                    
   Description                                                                                      
     l     E      TYP  RCUT    TYP  RCUT                                                            
     0   .000     23  1.900                                                                         
     0   .000     23  1.900                                                                         
     1   .000     23  1.900                                                                         
     1  1.000     23  1.900                                                                         
     2   .000      7  1.900                                                                         
  local pseudopotential read in
  partial core-charges read in
  atomic valenz-charges read in
  non local Contribution for L=           0  read in
    real space projection operators read in
  non local Contribution for L=           0  read in
    real space projection operators read in
  non local Contribution for L=           1  read in
    real space projection operators read in
  non local Contribution for L=           1  read in
    real space projection operators read in
    PAW grid and wavefunctions read in
 
   number of l-projection  operators is LMAX  =           4
   number of lm-projection operators is LMMAX =           8
 
 POTCAR:   PAW_PBE Ni 06Sep2000                   
   VRHFIN =Ni:                                                                                      
   LEXCH  = PE                                                                                      
   EATOM  =  1077.9025 eV,   79.2236 Ry                                                             
                                                                                                    
   TITEL  = PAW_PBE Ni 06Sep2000                                                                    
   LULTRA =        F    use ultrasoft PP ?                                                          
   IUNSCR =        1    unscreen: 0-lin 1-nonlin 2-no                                               
   RPACOR =    2.000    partial core radius                                                         
   POMASS =   58.690; ZVAL   =   10.000    mass and valenz                                          
   RCORE  =    2.300    outmost cutoff radius                                                       
   RWIGS  =    2.430; RWIGS  =    1.286    wigner-seitz radius (au A)                               
   ENMAX  =  269.533; ENMIN  =  202.150 eV                                                          
   RCLOC  =    1.681    cutoff for local pot                                                        
   LCOR   =        T    correct aug charges                                                         
   LPAW   =        T    paw PP                                                                      
   EAUG   =  544.565                                                                                
   DEXC   =    -.009                                                                                
   RMAX   =    2.808    core radius for proj-oper                                                   
   RAUG   =    1.300    factor for augmentation sphere                                              
   RDEP   =    2.390    radius for radial grids                                                     
   QCUT   =   -4.451; QGAM   =    8.902    optimization parameters                                  
                                                                                                    
   Description                                                                                      
     l     E      TYP  RCUT    TYP  RCUT                                                            
     2   .000     23  2.300                                                                         
     2   .000     23  2.300                                                                         
     0   .000     23  2.300                                                                         
     0   .000     23  2.300                                                                         
     1  -.200     23  2.300                                                                         
     1   .000     23  2.300                                                                         
     3   .000      7   .000                                                                         
  local pseudopotential read in
  partial core-charges read in
  atomic valenz-charges read in
  non local Contribution for L=           2  read in
    real space projection operators read in
  non local Contribution for L=           2  read in
    real space projection operators read in
  non local Contribution for L=           0  read in
    real space projection operators read in
  non local Contribution for L=           0  read in
    real space projection operators read in
  non local Contribution for L=           1  read in
    real space projection operators read in
  non local Contribution for L=           1  read in
    real space projection operators read in
    PAW grid and wavefunctions read in
 
   number of l-projection  operators is LMAX  =           6
   number of lm-projection operators is LMMAX =          18
 
 PAW_PBE Al 04Jan2001                   :
 energy of atom  1       EATOM=  -53.5387
 kinetic energy error for atom=    0.0002 (will be added to EATOM!!)
 PAW_PBE Ni 06Sep2000                   :
 energy of atom  2       EATOM=-1077.9025
 kinetic energy error for atom=    0.0019 (will be added to EATOM!!)
 
 
 POSCAR: Al1 Ni3
  positions in direct lattice
  No initial velocities read in
 exchange correlation table for  LEXCH =        8
   RHO(1)=    0.500       N(1)  =     2000
   RHO(2)=  100.500       N(2)  =     4000
 


--------------------------------------------------------------------------------------------------------


 ion  position               nearest neighbor table
   1  0.000  0.000  0.000-   2 2.45   3 2.45   4 2.45   2 2.45   4 2.45   3 2.45   4 2.45   4 2.45
                             2 2.45   3 2.45   2 2.45   3 2.45
   2  0.500  0.000  0.500-   1 2.45   3 2.45   4 2.45   1 2.45   3 2.45   3 2.45   4 2.45   3 2.45
                             1 2.45   4 2.45   1 2.45   4 2.45
   3  0.500  0.500  0.000-   1 2.45   2 2.45   4 2.45   2 2.45   4 2.45   1 2.45   2 2.45   2 2.45
                             1 2.45   4 2.45   4 2.45   1 2.45
   4  0.000  0.500  0.500-   1 2.45   2 2.45   3 2.45   1 2.45   3 2.45   1 2.45   2 2.45   1 2.45
                             2 2.45   3 2.45   3 2.45   2 2.45
 
  LATTYP: Found a simple cubic cell.
 ALAT       =     3.4700000000
  
  Lattice vectors:
  
 A1 = (   3.4700000000,   0.0000000000,   0.0000000000)
 A2 = (   0.0000000000,   3.4700000000,   0.0000000000)
 A3 = (   0.0000000000,   0.0000000000,   3.4700000000)


Analysis of symmetry for initial positions (statically):
=====================================================================
 Subroutine PRICEL returns:
 Original cell was already a primitive cell.
 

 Routine SETGRP: Setting up the symmetry group for a 
 simple cubic supercell.


 Subroutine GETGRP returns: Found 48 space group operations
 (whereof 48 operations were pure point group operations)
 out of a pool of 48 trial point group operations.


The static configuration has the point symmetry O_h .


Analysis of symmetry for dynamics (positions and initial velocities):
=====================================================================
 Subroutine PRICEL returns:
 Original cell was already a primitive cell.
 

 Routine SETGRP: Setting up the symmetry group for a 
 simple cubic supercell.


 Subroutine GETGRP returns: Found 48 space group operations
 (whereof 48 operations were pure point group operations)
 out of a pool of 48 trial point group operations.


The dynamic configuration has the point symmetry O_h .


Analysis of structural, dynamic, and magnetic symmetry:
=====================================================================
 Subroutine PRICEL returns:
 Original cell was already a primitive cell.
 

 Routine SETGRP: Setting up the symmetry group for a 
 simple cubic supercell.


 Subroutine GETGRP returns: Found 48 space group operations
 (whereof 48 operations were pure point group operations)
 out of a pool of 48 trial point group operations.


The overall configuration has the point symmetry O_h .


 Subroutine INISYM returns: Found 48 space group operations
 (whereof 48 operations are pure point group operations),
 and found     1 'primitive' translations


----------------------------------------------------------------------------------------

                                     Primitive cell                                     

  volume of cell :      41.7819

  direct lattice vectors                    reciprocal lattice vectors
     3.470000000  0.000000000  0.000000000     0.288184438  0.000000000  0.000000000
     0.000000000  3.470000000  0.000000000     0.000000000  0.288184438  0.000000000
     0.000000000  0.000000000  3.470000000     0.000000000  0.000000000  0.288184438

  length of vectors
     3.470000000  3.470000000  3.470000000     0.288184438  0.288184438  0.288184438

  position of ions in fractional coordinates (direct lattice)
     0.000000000  0.000000000  0.000000000
     0.500000000  0.000000000  0.500000000
     0.500000000  0.500000000  0.000000000
     0.000000000  0.500000000  0.500000000

  ion indices of the primitive-cell ions
   primitive index   ion index
                 1           1
                 2           2
                 3           3
                 4           4

----------------------------------------------------------------------------------------

 
 
 KPOINTS: Automatic mesh                          

Automatic generation of k-mesh.
 Grid dimensions read from file:
 generate k-points for:   18   18   18

 Generating k-lattice:

  Cartesian coordinates                     Fractional coordinates (reciprocal lattice)
     0.016010247  0.000000000  0.000000000     0.055555556  0.000000000  0.000000000
     0.000000000  0.016010247  0.000000000     0.000000000  0.055555556  0.000000000
     0.000000000  0.000000000  0.016010247     0.000000000  0.000000000  0.055555556

  Length of vectors
     0.016010247  0.016010247  0.016010247

  Shift w.r.t. Gamma in fractional coordinates (k-lattice)
     0.000000000  0.000000000  0.000000000

 
 Subroutine IBZKPT returns following result:
 ===========================================
 
 Found    220 irreducible k-points:
 
 Following reciprocal coordinates:
            Coordinates               Weight
  0.000000  0.000000  0.000000      1.000000
  0.055556  0.000000  0.000000      6.000000
  0.111111  0.000000  0.000000      6.000000
  0.166667  0.000000  0.000000      6.000000
  0.222222  0.000000  0.000000      6.000000
  0.277778  0.000000  0.000000      6.000000
  0.333333  0.000000  0.000000      6.000000
  0.388889  0.000000  0.000000      6.000000
  0.444444  0.000000  0.000000      6.000000
  0.500000  0.000000  0.000000      3.000000
  0.055556  0.055556  0.000000     12.000000
  0.111111  0.055556  0.000000     24.000000
  0.166667  0.055556  0.000000     24.000000
  0.222222  0.055556  0.000000     24.000000
  0.277778  0.055556  0.000000     24.000000
  0.333333  0.055556  0.000000     24.000000
  0.388889  0.055556  0.000000     24.000000
  0.444444  0.055556  0.000000     24.000000
  0.500000  0.055556  0.000000     12.000000
  0.111111  0.111111  0.000000     12.000000
  0.166667  0.111111  0.000000     24.000000
  0.222222  0.111111  0.000000     24.000000
  0.277778  0.111111  0.000000     24.000000
  0.333333  0.111111  0.000000     24.000000
  0.388889  0.111111  0.000000     24.000000
  0.444444  0.111111  0.000000     24.000000
  0.500000  0.111111  0.000000     12.000000
  0.166667  0.166667  0.000000     12.000000
  0.222222  0.166667  0.000000     24.000000
  0.277778  0.166667  0.000000     24.000000
  0.333333  0.166667  0.000000     24.000000
  0.388889  0.166667  0.000000     24.000000
  0.444444  0.166667  0.000000     24.000000
  0.500000  0.166667  0.000000     12.000000
  0.222222  0.222222  0.000000     12.000000
  0.277778  0.222222  0.000000     24.000000
  0.333333  0.222222  0.000000     24.000000
  0.388889  0.222222  0.000000     24.000000
  0.444444  0.222222  0.000000     24.000000
  0.500000  0.222222  0.000000     12.000000
  0.277778  0.277778  0.000000     12.000000
  0.333333  0.277778  0.000000     24.000000
  0.388889  0.277778  0.000000     24.000000
  0.444444  0.277778  0.000000     24.000000
  0.500000  0.277778  0.000000     12.000000
  0.333333  0.333333  0.000000     12.000000
  0.388889  0.333333  0.000000     24.000000
  0.444444  0.333333  0.000000     24.000000
  0.500000  0.333333  0.000000     12.000000
  0.388889  0.388889  0.000000     12.000000
  0.444444  0.388889  0.000000     24.000000
  0.500000  0.388889  0.000000     12.000000
  0.444444  0.444444  0.000000     12.000000
  0.500000  0.444444  0.000000     12.000000
  0.500000  0.500000  0.000000      3.000000
  0.055556  0.055556  0.055556      8.000000
  0.111111  0.055556  0.055556     24.000000
  0.166667  0.055556  0.055556     24.000000
  0.222222  0.055556  0.055556     24.000000
  0.277778  0.055556  0.055556     24.000000
  0.333333  0.055556  0.055556     24.000000
  0.388889  0.055556  0.055556     24.000000
  0.444444  0.055556  0.055556     24.000000
  0.500000  0.055556  0.055556     12.000000
  0.111111  0.111111  0.055556     24.000000
  0.166667  0.111111  0.055556     48.000000
  0.222222  0.111111  0.055556     48.000000
  0.277778  0.111111  0.055556     48.000000
  0.333333  0.111111  0.055556     48.000000
  0.388889  0.111111  0.055556     48.000000
  0.444444  0.111111  0.055556     48.000000
  0.500000  0.111111  0.055556     24.000000
  0.166667  0.166667  0.055556     24.000000
  0.222222  0.166667  0.055556     48.000000
  0.277778  0.166667  0.055556     48.000000
  0.333333  0.166667  0.055556     48.000000
  0.388889  0.166667  0.055556     48.000000
  0.444444  0.166667  0.055556     48.000000
  0.500000  0.166667  0.055556     24.000000
  0.222222  0.222222  0.055556     24.000000
  0.277778  0.222222  0.055556     48.000000
  0.333333  0.222222  0.055556     48.000000
  0.388889  0.222222  0.055556     48.000000
  0.444444  0.222222  0.055556     48.000000
  0.500000  0.222222  0.055556     24.000000
  0.277778  0.277778  0.055556     24.000000
  0.333333  0.277778  0.055556     48.000000
  0.388889  0.277778  0.055556     48.000000
  0.444444  0.277778  0.055556     48.000000
  0.500000  0.277778  0.055556     24.000000
  0.333333  0.333333  0.055556     24.000000
  0.388889  0.333333  0.055556     48.000000
  0.444444  0.333333  0.055556     48.000000
  0.500000  0.333333  0.055556     24.000000
  0.388889  0.388889  0.055556     24.000000
  0.444444  0.388889  0.055556     48.000000
  0.500000  0.388889  0.055556     24.000000
  0.444444  0.444444  0.055556     24.000000
  0.500000  0.444444  0.055556     24.000000
  0.500000  0.500000  0.055556      6.000000
  0.111111  0.111111  0.111111      8.000000
  0.166667  0.111111  0.111111     24.000000
  0.222222  0.111111  0.111111     24.000000
  0.277778  0.111111  0.111111     24.000000
  0.333333  0.111111  0.111111     24.000000
  0.388889  0.111111  0.111111     24.000000
  0.444444  0.111111  0.111111     24.000000
  0.500000  0.111111  0.111111     12.000000
  0.166667  0.166667  0.111111     24.000000
  0.222222  0.166667  0.111111     48.000000
  0.277778  0.166667  0.111111     48.000000
  0.333333  0.166667  0.111111     48.000000
  0.388889  0.166667  0.111111     48.000000
  0.444444  0.166667  0.111111     48.000000
  0.500000  0.166667  0.111111     24.000000
  0.222222  0.222222  0.111111     24.000000
  0.277778  0.222222  0.111111     48.000000
  0.333333  0.222222  0.111111     48.000000
  0.388889  0.222222  0.111111     48.000000
  0.444444  0.222222  0.111111     48.000000
  0.500000  0.222222  0.111111     24.000000
  0.277778  0.277778  0.111111     24.000000
  0.333333  0.277778  0.111111     48.000000
  0.388889  0.277778  0.111111     48.000000
  0.444444  0.277778  0.111111     48.000000
  0.500000  0.277778  0.111111     24.000000
  0.333333  0.333333  0.111111     24.000000
  0.388889  0.333333  0.111111     48.000000
  0.444444  0.333333  0.111111     48.000000
  0.500000  0.333333  0.111111     24.000000
  0.388889  0.388889  0.111111     24.000000
  0.444444  0.388889  0.111111     48.000000
  0.500000  0.388889  0.111111     24.000000
  0.444444  0.444444  0.111111     24.000000
  0.500000  0.444444  0.111111     24.000000
  0.500000  0.500000  0.111111      6.000000
  0.166667  0.166667  0.166667      8.000000
  0.222222  0.166667  0.166667     24.000000
  0.277778  0.166667  0.166667     24.000000
  0.333333  0.166667  0.166667     24.000000
  0.388889  0.166667  0.166667     24.000000
  0.444444  0.166667  0.166667     24.000000
  0.500000  0.166667  0.166667     12.000000
  0.222222  0.222222  0.166667     24.000000
  0.277778  0.222222  0.166667     48.000000
  0.333333  0.222222  0.166667     48.000000
  0.388889  0.222222  0.166667     48.000000
  0.444444  0.222222  0.166667     48.000000
  0.500000  0.222222  0.166667     24.000000
  0.277778  0.277778  0.166667     24.000000
  0.333333  0.277778  0.166667     48.000000
  0.388889  0.277778  0.166667     48.000000
  0.444444  0.277778  0.166667     48.000000
  0.500000  0.277778  0.166667     24.000000
  0.333333  0.333333  0.166667     24.000000
  0.388889  0.333333  0.166667     48.000000
  0.444444  0.333333  0.166667     48.000000
  0.500000  0.333333  0.166667     24.000000
  0.388889  0.388889  0.166667     24.000000
  0.444444  0.388889  0.166667     48.000000
  0.500000  0.388889  0.166667     24.000000
  0.444444  0.444444  0.166667     24.000000
  0.500000  0.444444  0.166667     24.000000
  0.500000  0.500000  0.166667      6.000000
  0.222222  0.222222  0.222222      8.000000
  0.277778  0.222222  0.222222     24.000000
  0.333333  0.222222  0.222222     24.000000
  0.388889  0.222222  0.222222     24.000000
  0.444444  0.222222  0.222222     24.000000
  0.500000  0.222222  0.222222     12.000000
  0.277778  0.277778  0.222222     24.000000
  0.333333  0.277778  0.222222     48.000000
  0.388889  0.277778  0.222222     48.000000
  0.444444  0.277778  0.222222     48.000000
  0.500000  0.277778  0.222222     24.000000
  0.333333  0.333333  0.222222     24.000000
  0.388889  0.333333  0.222222     48.000000
  0.444444  0.333333  0.222222     48.000000
  0.500000  0.333333  0.222222     24.000000
  0.388889  0.388889  0.222222     24.000000
  0.444444  0.388889  0.222222     48.000000
  0.500000  0.388889  0.222222     24.000000
  0.444444  0.444444  0.222222     24.000000
  0.500000  0.444444  0.222222     24.000000
  0.500000  0.500000  0.222222      6.000000
  0.277778  0.277778  0.277778      8.000000
  0.333333  0.277778  0.277778     24.000000
  0.388889  0.277778  0.277778     24.000000
  0.444444  0.277778  0.277778     24.000000
  0.500000  0.277778  0.277778     12.000000
  0.333333  0.333333  0.277778     24.000000
  0.388889  0.333333  0.277778     48.000000
  0.444444  0.333333  0.277778     48.000000
  0.500000  0.333333  0.277778     24.000000
  0.388889  0.388889  0.277778     24.000000
  0.444444  0.388889  0.277778     48.000000
  0.500000  0.388889  0.277778     24.000000
  0.444444  0.444444  0.277778     24.000000
  0.500000  0.444444  0.277778     24.000000
  0.500000  0.500000  0.277778      6.000000
  0.333333  0.333333  0.333333      8.000000
  0.388889  0.333333  0.333333     24.000000
  0.444444  0.333333  0.333333     24.000000
  0.500000  0.333333  0.333333     12.000000
  0.388889  0.388889  0.333333     24.000000
  0.444444  0.388889  0.333333     48.000000
  0.500000  0.388889  0.333333     24.000000
  0.444444  0.444444  0.333333     24.000000
  0.500000  0.444444  0.333333     24.000000
  0.500000  0.500000  0.333333      6.000000
  0.388889  0.388889  0.388889      8.000000
  0.444444  0.388889  0.388889     24.000000
  0.500000  0.388889  0.388889     12.000000
  0.444444  0.444444  0.388889     24.000000
  0.500000  0.444444  0.388889     24.000000
  0.500000  0.500000  0.388889      6.000000
  0.444444  0.444444  0.444444      8.000000
  0.500000  0.444444  0.444444     12.000000
  0.500000  0.500000  0.444444      6.000000
  0.500000  0.500000  0.500000      1.000000
 
 Following cartesian coordinates:
            Coordinates               Weight
  0.000000  0.000000  0.000000      1.000000
  0.055556  0.000000  0.000000      6.000000
  0.111111  0.000000  0.000000      6.000000
  0.166667  0.000000  0.000000      6.000000
  0.222222  0.000000  0.000000      6.000000
  0.277778  0.000000  0.000000      6.000000
  0.333333  0.000000  0.000000      6.000000
  0.388889  0.000000  0.000000      6.000000
  0.444444  0.000000  0.000000      6.000000
  0.500000  0.000000  0.000000      3.000000
  0.055556  0.055556  0.000000     12.000000
  0.111111  0.055556  0.000000     24.000000
  0.166667  0.055556  0.000000     24.000000
  0.222222  0.055556  0.000000     24.000000
  0.277778  0.055556  0.000000     24.000000
  0.333333  0.055556  0.000000     24.000000
  0.388889  0.055556  0.000000     24.000000
  0.444444  0.055556  0.000000     24.000000
  0.500000  0.055556  0.000000     12.000000
  0.111111  0.111111  0.000000     12.000000
  0.166667  0.111111  0.000000     24.000000
  0.222222  0.111111  0.000000     24.000000
  0.277778  0.111111  0.000000     24.000000
  0.333333  0.111111  0.000000     24.000000
  0.388889  0.111111  0.000000     24.000000
  0.444444  0.111111  0.000000     24.000000
  0.500000  0.111111  0.000000     12.000000
  0.166667  0.166667  0.000000     12.000000
  0.222222  0.166667  0.000000     24.000000
  0.277778  0.166667  0.000000     24.000000
  0.333333  0.166667  0.000000     24.000000
  0.388889  0.166667  0.000000     24.000000
  0.444444  0.166667  0.000000     24.000000
  0.500000  0.166667  0.000000     12.000000
  0.222222  0.222222  0.000000     12.000000
  0.277778  0.222222  0.000000     24.000000
  0.333333  0.222222  0.000000     24.000000
  0.388889  0.222222  0.000000     24.000000
  0.444444  0.222222  0.000000     24.000000
  0.500000  0.222222  0.000000     12.000000
  0.277778  0.277778  0.000000     12.000000
  0.333333  0.277778  0.000000     24.000000
  0.388889  0.277778  0.000000     24.000000
  0.444444  0.277778  0.000000     24.000000
  0.500000  0.277778  0.000000     12.000000
  0.333333  0.333333  0.000000     12.000000
  0.388889  0.333333  0.000000     24.000000
  0.444444  0.333333  0.000000     24.000000
  0.500000  0.333333  0.000000     12.000000
  0.388889  0.388889  0.000000     12.000000
  0.444444  0.388889  0.000000     24.000000
  0.500000  0.388889  0.000000     12.000000
  0.444444  0.444444  0.000000     12.000000
  0.500000  0.444444  0.000000     12.000000
  0.500000  0.500000  0.000000      3.000000
  0.055556  0.055556  0.055556      8.000000
  0.111111  0.055556  0.055556     24.000000
  0.166667  0.055556  0.055556     24.000000
  0.222222  0.055556  0.055556     24.000000
  0.277778  0.055556  0.055556     24.000000
  0.333333  0.055556  0.055556     24.000000
  0.388889  0.055556  0.055556     24.000000
  0.444444  0.055556  0.055556     24.000000
  0.500000  0.055556  0.055556     12.000000
  0.111111  0.111111  0.055556     24.000000
  0.166667  0.111111  0.055556     48.000000
  0.222222  0.111111  0.055556     48.000000
  0.277778  0.111111  0.055556     48.000000
  0.333333  0.111111  0.055556     48.000000
  0.388889  0.111111  0.055556     48.000000
  0.444444  0.111111  0.055556     48.000000
  0.500000  0.111111  0.055556     24.000000
  0.166667  0.166667  0.055556     24.000000
  0.222222  0.166667  0.055556     48.000000
  0.277778  0.166667  0.055556     48.000000
  0.333333  0.166667  0.055556     48.000000
  0.388889  0.166667  0.055556     48.000000
  0.444444  0.166667  0.055556     48.000000
  0.500000  0.166667  0.055556     24.000000
  0.222222  0.222222  0.055556     24.000000
  0.277778  0.222222  0.055556     48.000000
  0.333333  0.222222  0.055556     48.000000
  0.388889  0.222222  0.055556     48.000000
  0.444444  0.222222  0.055556     48.000000
  0.500000  0.222222  0.055556     24.000000
  0.277778  0.277778  0.055556     24.000000
  0.333333  0.277778  0.055556     48.000000
  0.388889  0.277778  0.055556     48.000000
  0.444444  0.277778  0.055556     48.000000
  0.500000  0.277778  0.055556     24.000000
  0.333333  0.333333  0.055556     24.000000
  0.388889  0.333333  0.055556     48.000000
  0.444444  0.333333  0.055556     48.000000
  0.500000  0.333333  0.055556     24.000000
  0.388889  0.388889  0.055556     24.000000
  0.444444  0.388889  0.055556     48.000000
  0.500000  0.388889  0.055556     24.000000
  0.444444  0.444444  0.055556     24.000000
  0.500000  0.444444  0.055556     24.000000
  0.500000  0.500000  0.055556      6.000000
  0.111111  0.111111  0.111111      8.000000
  0.166667  0.111111  0.111111     24.000000
  0.222222  0.111111  0.111111     24.000000
  0.277778  0.111111  0.111111     24.000000
  0.333333  0.111111  0.111111     24.000000
  0.388889  0.111111  0.111111     24.000000
  0.444444  0.111111  0.111111     24.000000
  0.500000  0.111111  0.111111     12.000000
  0.166667  0.166667  0.111111     24.000000
  0.222222  0.166667  0.111111     48.000000
  0.277778  0.166667  0.111111     48.000000
  0.333333  0.166667  0.111111     48.000000
  0.388889  0.166667  0.111111     48.000000
  0.444444  0.166667  0.111111     48.000000
  0.500000  0.166667  0.111111     24.000000
  0.222222  0.222222  0.111111     24.000000
  0.277778  0.222222  0.111111     48.000000
  0.333333  0.222222  0.111111     48.000000
  0.388889  0.222222  0.111111     48.000000
  0.444444  0.222222  0.111111     48.000000
  0.500000  0.222222  0.111111     24.000000
  0.277778  0.277778  0.111111     24.000000
  0.333333  0.277778  0.111111     48.000000
  0.388889  0.277778  0.111111     48.000000
  0.444444  0.277778  0.111111     48.000000
  0.500000  0.277778  0.111111     24.000000
  0.333333  0.333333  0.111111     24.000000
  0.388889  0.333333  0.111111     48.000000
  0.444444  0.333333  0.111111     48.000000
  0.500000  0.333333  0.111111     24.000000
  0.388889  0.388889  0.111111     24.000000
  0.444444  0.388889  0.111111     48.000000
  0.500000  0.388889  0.111111     24.000000
  0.444444  0.444444  0.111111     24.000000
  0.500000  0.444444  0.111111     24.000000
  0.500000  0.500000  0.111111      6.000000
  0.166667  0.166667  0.166667      8.000000
  0.222222  0.166667  0.166667     24.000000
  0.277778  0.166667  0.166667     24.000000
  0.333333  0.166667  0.166667     24.000000
  0.388889  0.166667  0.166667     24.000000
  0.444444  0.166667  0.166667     24.000000
  0.500000  0.166667  0.166667     12.000000
  0.222222  0.222222  0.166667     24.000000
  0.277778  0.222222  0.166667     48.000000
  0.333333  0.222222  0.166667     48.000000
  0.388889  0.222222  0.166667     48.000000
  0.444444  0.222222  0.166667     48.000000
  0.500000  0.222222  0.166667     24.000000
  0.277778  0.277778  0.166667     24.000000
  0.333333  0.277778  0.166667     48.000000
  0.388889  0.277778  0.166667     48.000000
  0.444444  0.277778  0.166667     48.000000
  0.500000  0.277778  0.166667     24.000000
  0.333333  0.333333  0.166667     24.000000
  0.388889  0.333333  0.166667     48.000000
  0.444444  0.333333  0.166667     48.000000
  0.500000  0.333333  0.166667     24.000000
  0.388889  0.388889  0.166667     24.000000
  0.444444  0.388889  0.166667     48.000000
  0.500000  0.388889  0.166667     24.000000
  0.444444  0.444444  0.166667     24.000000
  0.500000  0.444444  0.166667     24.000000
  0.500000  0.500000  0.166667      6.000000
  0.222222  0.222222  0.222222      8.000000
  0.277778  0.222222  0.222222     24.000000
  0.333333  0.222222  0.222222     24.000000
  0.388889  0.222222  0.222222     24.000000
  0.444444  0.222222  0.222222     24.000000
  0.500000  0.222222  0.222222     12.000000
  0.277778  0.277778  0.222222     24.000000
  0.333333  0.277778  0.222222     48.000000
  0.388889  0.277778  0.222222     48.000000
  0.444444  0.277778  0.222222     48.000000
  0.500000  0.277778  0.222222     24.000000
  0.333333  0.333333  0.222222     24.000000
  0.388889  0.333333  0.222222     48.000000
  0.444444  0.333333  0.222222     48.000000
  0.500000  0.333333  0.222222     24.000000
  0.388889  0.388889  0.222222     24.000000
  0.444444  0.388889  0.222222     48.000000
  0.500000  0.388889  0.222222     24.000000
  0.444444  0.444444  0.222222     24.000000
  0.500000  0.444444  0.222222     24.000000
  0.500000  0.500000  0.222222      6.000000
  0.277778  0.277778  0.277778      8.000000
  0.333333  0.277778  0.277778     24.000000
  0.388889  0.277778  0.277778     24.000000
  0.444444  0.277778  0.277778     24.000000
  0.500000  0.277778  0.277778     12.000000
  0.333333  0.333333  0.277778     24.000000
  0.388889  0.333333  0.277778     48.000000
  0.444444  0.333333  0.277778     48.000000
  0.500000  0.333333  0.277778     24.000000
  0.388889  0.388889  0.277778     24.000000
  0.444444  0.388889  0.277778     48.000000
  0.500000  0.388889  0.277778     24.000000
  0.444444  0.444444  0.277778     24.000000
  0.500000  0.444444  0.277778     24.000000
  0.500000  0.500000  0.277778      6.000000
  0.333333  0.333333  0.333333      8.000000
  0.388889  0.333333  0.333333     24.000000
  0.444444  0.333333  0.333333     24.000000
  0.500000  0.333333  0.333333     12.000000
  0.388889  0.388889  0.333333     24.000000
  0.444444  0.388889  0.333333     48.000000
  0.500000  0.388889  0.333333     24.000000
  0.444444  0.444444  0.333333     24.000000
  0.500000  0.444444  0.333333     24.000000
  0.500000  0.500000  0.333333      6.000000
  0.388889  0.388889  0.388889      8.000000
  0.444444  0.388889  0.388889     24.000000
  0.500000  0.388889  0.388889     12.000000
  0.444444  0.444444  0.388889     24.000000
  0.500000  0.444444  0.388889     24.000000
  0.500000  0.500000  0.388889      6.000000
  0.444444  0.444444  0.444444      8.000000
  0.500000  0.444444  0.444444     12.000000
  0.500000  0.500000  0.444444      6.000000
  0.500000  0.500000  0.500000      1.000000
 


--------------------------------------------------------------------------------------------------------




 Dimension of arrays:
   k-points           NKPTS =    220   k-points in BZ     NKDIM =    220   number of bands    NBANDS=     24
   number of dos      NEDOS =   2000   number of ions     NIONS =      4
   non local maximal  LDIM  =      6   non local SUM 2l+1 LMDIM =     18
   total plane-waves  NPLWV =  21952
   max r-space proj   IRMAX =      1   max aug-charges    IRDMAX= 163766
   dimension x,y,z NGX =    28 NGY =   28 NGZ =   28
   dimension x,y,z NGXF=    56 NGYF=   56 NGZF=   56
   support grid    NGXF=   112 NGYF=  112 NGZF=  112
   ions per type =               1   3
   NGX,Y,Z   is equivalent  to a cutoff of  13.41, 13.41, 13.41 a.u.
   NGXF,Y,Z  is equivalent  to a cutoff of  26.83, 26.83, 26.83 a.u.

 SYSTEM =  Ni3Al EOS                               
 POSCAR =  Al1 Ni3                                 

 Startparameter for this run:
   NWRITE =      2    write-flag & timer
   PREC   = accura    normal or accurate (medium, high low for compatibility)
   ISTART =      0    job   : 0-new  1-cont  2-samecut
   ICHARG =      2    charge: 1-file 2-atom 10-const
   ISPIN  =      2    spin polarized calculation?
   LNONCOLLINEAR =      F non collinear calculations
   LSORBIT =      F    spin-orbit coupling
   INIWAV =      1    electr: 0-lowe 1-rand  2-diag
   LASPH  =      T    aspherical Exc in radial PAW
 Electronic Relaxation 1
   ENCUT  =  600.0 eV  44.10 Ry    6.64 a.u.   6.93  6.93  6.93*2*pi/ulx,y,z
   ENINI  =  600.0     initial cutoff
   ENAUG  =  544.6 eV  augmentation charge cutoff
   NELM   =     60;   NELMIN=  2; NELMDL= -5     # of ELM steps 
   EDIFF  = 0.1E-05   stopping-criterion for ELM
   LREAL  =      F    real-space projection
   NLSPLINE    = F    spline interpolate recip. space projectors
   LCOMPAT=      F    compatible to vasp.4.4
   GGA_COMPAT  = T    GGA compatible to vasp.4.4-vasp.4.6
   LMAXPAW     = -100 max onsite density
   LMAXMIX     =    2 max onsite mixed and CHGCAR
   VOSKOWN=      0    Vosko Wilk Nusair interpolation
   ROPT   =    0.00000   0.00000
 Ionic relaxation
   EDIFFG = -.1E-01   stopping-criterion for IOM
   NSW    =    100    number of steps for IOM
   NBLOCK =      1;   KBLOCK =    100    inner block; outer block 
   IBRION =      2    ionic relax: 0-MD 1-quasi-New 2-CG
   NFREE  =      1    steps in history (QN), initial steepest desc. (CG)
   ISIF   =      2    stress and relaxation
   IWAVPR =     11    prediction:  0-non 1-charg 2-wave 3-comb
   ISYM   =      2    0-nonsym 1-usesym 2-fastsym
   LCORR  =      T    Harris-Foulkes like correction to forces

   POTIM  = 0.5000    time-step for ionic-motion
   TEIN   =    0.0    initial temperature
   TEBEG  =    0.0;   TEEND  =   0.0 temperature during run
   SMASS  =  -3.00    Nose mass-parameter (am)
   estimated Nose-frequenzy (Omega)   =  0.10E-29 period in steps = 0.13E+47 mass=  -0.275E-27a.u.
   SCALEE = 1.0000    scale energy and forces
   NPACO  =    256;   APACO  = 10.0  distance and # of slots for P.C.
   PSTRESS=    0.0 pullay stress

  Mass of Ions in am
   POMASS =  26.98 58.69
  Ionic Valenz
   ZVAL   =   3.00 10.00
  Atomic Wigner-Seitz radii
   RWIGS  =  -1.00 -1.00
  virtual crystal weights 
   VCA    =   1.00  1.00
   NELECT =      33.0000    total number of electrons
   NUPDOWN=      -1.0000    fix difference up-down

 DOS related values:
   EMIN   =  10.00;   EMAX   =-10.00  energy-range for DOS
   EFERMI =   0.00
   ISMEAR =     1;   SIGMA  =   0.20  broadening in eV -4-tet -1-fermi 0-gaus

 Electronic relaxation 2 (details)
   IALGO  =     38    algorithm
   LDIAG  =      T    sub-space diagonalisation (order eigenvalues)
   LSUBROT=      F    optimize rotation matrix (better conditioning)
   TURBO    =      0    0=normal 1=particle mesh
   IRESTART =      0    0=no restart 2=restart with 2 vectors
   NREBOOT  =      0    no. of reboots
   NMIN     =      0    reboot dimension
   EREF     =   0.00    reference energy to select bands
   IMIX   =      4    mixing-type and parameters
     AMIX     =   0.40;   BMIX     =  1.00
     AMIX_MAG =   1.60;   BMIX_MAG =  1.00
     AMIN     =   0.10
     WC   =   100.;   INIMIX=   1;  MIXPRE=   1;  MAXMIX= -45

 Intra band minimization:
   WEIMIN = 0.0010     energy-eigenvalue tresh-hold
   EBREAK =  0.10E-07  absolut break condition
   DEPER  =   0.30     relativ break condition  

   TIME   =   0.40     timestep for ELM

  volume/ion in A,a.u.               =      10.45        70.49
  Fermi-wavevector in a.u.,A,eV,Ry     =   1.513271  2.859667 31.157188  2.289989
  Thomas-Fermi vector in A             =   2.623084
 
 Write flags
   LWAVE        =      F    write WAVECAR
   LDOWNSAMPLE  =      F    k-point downsampling of WAVECAR
   LCHARG       =      T    write CHGCAR
   LVTOT        =      F    write LOCPOT, total local potential
   LVHAR        =      F    write LOCPOT, Hartree potential only
   LELF         =      F    write electronic localiz. function (ELF)
   LORBIT       =      0    0 simple, 1 ext, 2 COOP (PROOUT), +10 PAW based schemes


 Dipole corrections
   LMONO  =      F    monopole corrections only (constant potential shift)
   LDIPOL =      F    correct potential (dipole corrections)
   IDIPOL =      0    1-x, 2-y, 3-z, 4-all directions 
   EPSILON=  1.0000000 bulk dielectric constant

 Exchange correlation treatment:
   GGA     =    --    GGA type
   LEXCH   =     8    internal setting for exchange type
   LIBXC   =     F    Libxc                    
   VOSKOWN =     0    Vosko Wilk Nusair interpolation
   LHFCALC =     F    Hartree Fock is set to
   LHFONE  =     F    Hartree Fock one center treatment
   AEXX    =    0.0000 exact exchange contribution

 Linear response parameters
   LEPSILON=     F    determine dielectric tensor
   LRPA    =     F    only Hartree local field effects (RPA)
   LNABLA  =     F    use nabla operator in PAW spheres
   LVEL    =     F    velocity operator in full k-point grid
   CSHIFT  =0.1000    complex shift for real part using Kramers Kronig
   OMEGAMAX=  -1.0    maximum frequency
   DEG_THRESHOLD= 0.2000000E-02 threshold for treating states as degnerate
   RTIME   =   -0.100 relaxation time in fs
  (WPLASMAI=    0.000 imaginary part of plasma frequency in eV, 0.658/RTIME)
   DFIELD  = 0.0000000 0.0000000 0.0000000 field for delta impulse in time
 
  Optional k-point grid parameters
   LKPOINTS_OPT  =     F    use optional k-point grid
   KPOINTS_OPT_MODE=     1    mode for optional k-point grid
 
 Orbital magnetization related:
   ORBITALMAG=     F  switch on orbital magnetization
   LCHIMAG   =     F  perturbation theory with respect to B field
   DQ        =  0.001000  dq finite difference perturbation B field
   LLRAUG    =     F  two centre corrections for induced B field



--------------------------------------------------------------------------------------------------------


 conjugate gradient relaxation of ions
 charge density and potential will be updated during run
 spin polarized calculation
 Variant of blocked Davidson
 Davidson routine will perform the subspace rotation
 perform sub-space diagonalisation
    after iterative eigenvector-optimisation
 modified Broyden-mixing scheme, WC =      100.0
 initial mixing is a Kerker type mixing with AMIX =  0.4000 and BMIX =      1.0000
 Hartree-type preconditioning will be used
 using additional bands            7
 reciprocal scheme for non local part
 use partial core corrections
 calculate Harris-corrections to forces 
   (improved forces if not selfconsistent)
 use gradient corrections 
 use of overlap-Matrix (Vanderbilt PP)
 Methfessel and Paxton  Order N= 1 SIGMA  =   0.20


--------------------------------------------------------------------------------------------------------


  energy-cutoff  :      600.00
  volume of cell :       41.78
      direct lattice vectors                 reciprocal lattice vectors
     3.470000000  0.000000000  0.000000000     0.288184438  0.000000000  0.000000000
     0.000000000  3.470000000  0.000000000     0.000000000  0.288184438  0.000000000
     0.000000000  0.000000000  3.470000000     0.000000000  0.000000000  0.288184438

  length of vectors
     3.470000000  3.470000000  3.470000000     0.288184438  0.288184438  0.288184438


 
 k-points in units of 2pi/SCALE and weight: Automatic mesh                          
   0.00000000  0.00000000  0.00000000       0.000
   0.05555556  0.00000000  0.00000000       0.001
   0.11111111  0.00000000  0.00000000       0.001
   0.16666667  0.00000000  0.00000000       0.001
   0.22222222  0.00000000  0.00000000       0.001
   0.27777778  0.00000000  0.00000000       0.001
   0.33333333  0.00000000  0.00000000       0.001
   0.38888889  0.00000000  0.00000000       0.001
   0.44444444  0.00000000  0.00000000       0.001
   0.50000000  0.00000000  0.00000000       0.001
   0.05555556  0.05555556  0.00000000       0.002
   0.11111111  0.05555556  0.00000000       0.004
   0.16666667  0.05555556  0.00000000       0.004
   0.22222222  0.05555556  0.00000000       0.004
   0.27777778  0.05555556  0.00000000       0.004
   0.33333333  0.05555556  0.00000000       0.004
   0.38888889  0.05555556  0.00000000       0.004
   0.44444444  0.05555556  0.00000000       0.004
   0.50000000  0.05555556  0.00000000       0.002
   0.11111111  0.11111111  0.00000000       0.002
   0.16666667  0.11111111  0.00000000       0.004
   0.22222222  0.11111111  0.00000000       0.004
   0.27777778  0.11111111  0.00000000       0.004
   0.33333333  0.11111111  0.00000000       0.004
   0.38888889  0.11111111  0.00000000       0.004
   0.44444444  0.11111111  0.00000000       0.004
   0.50000000  0.11111111  0.00000000       0.002
   0.16666667  0.16666667  0.00000000       0.002
   0.22222222  0.16666667  0.00000000       0.004
   0.27777778  0.16666667  0.00000000       0.004
   0.33333333  0.16666667  0.00000000       0.004
   0.38888889  0.16666667  0.00000000       0.004
   0.44444444  0.16666667  0.00000000       0.004
   0.50000000  0.16666667  0.00000000       0.002
   0.22222222  0.22222222  0.00000000       0.002
   0.27777778  0.22222222  0.00000000       0.004
   0.33333333  0.22222222  0.00000000       0.004
   0.38888889  0.22222222  0.00000000       0.004
   0.44444444  0.22222222  0.00000000       0.004
   0.50000000  0.22222222  0.00000000       0.002
   0.27777778  0.27777778  0.00000000       0.002
   0.33333333  0.27777778  0.00000000       0.004
   0.38888889  0.27777778  0.00000000       0.004
   0.44444444  0.27777778  0.00000000       0.004
   0.50000000  0.27777778  0.00000000       0.002
   0.33333333  0.33333333  0.00000000       0.002
   0.38888889  0.33333333  0.00000000       0.004
   0.44444444  0.33333333  0.00000000       0.004
   0.50000000  0.33333333  0.00000000       0.002
   0.38888889  0.38888889  0.00000000       0.002
   0.44444444  0.38888889  0.00000000       0.004
   0.50000000  0.38888889  0.00000000       0.002
   0.44444444  0.44444444  0.00000000       0.002
   0.50000000  0.44444444  0.00000000       0.002
   0.50000000  0.50000000  0.00000000       0.001
   0.05555556  0.05555556  0.05555556       0.001
   0.11111111  0.05555556  0.05555556       0.004
   0.16666667  0.05555556  0.05555556       0.004
   0.22222222  0.05555556  0.05555556       0.004
   0.27777778  0.05555556  0.05555556       0.004
   0.33333333  0.05555556  0.05555556       0.004
   0.38888889  0.05555556  0.05555556       0.004
   0.44444444  0.05555556  0.05555556       0.004
   0.50000000  0.05555556  0.05555556       0.002
   0.11111111  0.11111111  0.05555556       0.004
   0.16666667  0.11111111  0.05555556       0.008
   0.22222222  0.11111111  0.05555556       0.008
   0.27777778  0.11111111  0.05555556       0.008
   0.33333333  0.11111111  0.05555556       0.008
   0.38888889  0.11111111  0.05555556       0.008
   0.44444444  0.11111111  0.05555556       0.008
   0.50000000  0.11111111  0.05555556       0.004
   0.16666667  0.16666667  0.05555556       0.004
   0.22222222  0.16666667  0.05555556       0.008
   0.27777778  0.16666667  0.05555556       0.008
   0.33333333  0.16666667  0.05555556       0.008
   0.38888889  0.16666667  0.05555556       0.008
   0.44444444  0.16666667  0.05555556       0.008
   0.50000000  0.16666667  0.05555556       0.004
   0.22222222  0.22222222  0.05555556       0.004
   0.27777778  0.22222222  0.05555556       0.008
   0.33333333  0.22222222  0.05555556       0.008
   0.38888889  0.22222222  0.05555556       0.008
   0.44444444  0.22222222  0.05555556       0.008
   0.50000000  0.22222222  0.05555556       0.004
   0.27777778  0.27777778  0.05555556       0.004
   0.33333333  0.27777778  0.05555556       0.008
   0.38888889  0.27777778  0.05555556       0.008
   0.44444444  0.27777778  0.05555556       0.008
   0.50000000  0.27777778  0.05555556       0.004
   0.33333333  0.33333333  0.05555556       0.004
   0.38888889  0.33333333  0.05555556       0.008
   0.44444444  0.33333333  0.05555556       0.008
   0.50000000  0.33333333  0.05555556       0.004
   0.38888889  0.38888889  0.05555556       0.004
   0.44444444  0.38888889  0.05555556       0.008
   0.50000000  0.38888889  0.05555556       0.004
   0.44444444  0.44444444  0.05555556       0.004
   0.50000000  0.44444444  0.05555556       0.004
   0.50000000  0.50000000  0.05555556       0.001
   0.11111111  0.11111111  0.11111111       0.001
   0.16666667  0.11111111  0.11111111       0.004
   0.22222222  0.11111111  0.11111111       0.004
   0.27777778  0.11111111  0.11111111       0.004
   0.33333333  0.11111111  0.11111111       0.004
   0.38888889  0.11111111  0.11111111       0.004
   0.44444444  0.11111111  0.11111111       0.004
   0.50000000  0.11111111  0.11111111       0.002
   0.16666667  0.16666667  0.11111111       0.004
   0.22222222  0.16666667  0.11111111       0.008
   0.27777778  0.16666667  0.11111111       0.008
   0.33333333  0.16666667  0.11111111       0.008
   0.38888889  0.16666667  0.11111111       0.008
   0.44444444  0.16666667  0.11111111       0.008
   0.50000000  0.16666667  0.11111111       0.004
   0.22222222  0.22222222  0.11111111       0.004
   0.27777778  0.22222222  0.11111111       0.008
   0.33333333  0.22222222  0.11111111       0.008
   0.38888889  0.22222222  0.11111111       0.008
   0.44444444  0.22222222  0.11111111       0.008
   0.50000000  0.22222222  0.11111111       0.004
   0.27777778  0.27777778  0.11111111       0.004
   0.33333333  0.27777778  0.11111111       0.008
   0.38888889  0.27777778  0.11111111       0.008
   0.44444444  0.27777778  0.11111111       0.008
   0.50000000  0.27777778  0.11111111       0.004
   0.33333333  0.33333333  0.11111111       0.004
   0.38888889  0.33333333  0.11111111       0.008
   0.44444444  0.33333333  0.11111111       0.008
   0.50000000  0.33333333  0.11111111       0.004
   0.38888889  0.38888889  0.11111111       0.004
   0.44444444  0.38888889  0.11111111       0.008
   0.50000000  0.38888889  0.11111111       0.004
   0.44444444  0.44444444  0.11111111       0.004
   0.50000000  0.44444444  0.11111111       0.004
   0.50000000  0.50000000  0.11111111       0.001
   0.16666667  0.16666667  0.16666667       0.001
   0.22222222  0.16666667  0.16666667       0.004
   0.27777778  0.16666667  0.16666667       0.004
   0.33333333  0.16666667  0.16666667       0.004
   0.38888889  0.16666667  0.16666667       0.004
   0.44444444  0.16666667  0.16666667       0.004
   0.50000000  0.16666667  0.16666667       0.002
   0.22222222  0.22222222  0.16666667       0.004
   0.27777778  0.22222222  0.16666667       0.008
   0.33333333  0.22222222  0.16666667       0.008
   0.38888889  0.22222222  0.16666667       0.008
   0.44444444  0.22222222  0.16666667       0.008
   0.50000000  0.22222222  0.16666667       0.004
   0.27777778  0.27777778  0.16666667       0.004
   0.33333333  0.27777778  0.16666667       0.008
   0.38888889  0.27777778  0.16666667       0.008
   0.44444444  0.27777778  0.16666667       0.008
   0.50000000  0.27777778  0.16666667       0.004
   0.33333333  0.33333333  0.16666667       0.004
   0.38888889  0.33333333  0.16666667       0.008
   0.44444444  0.33333333  0.16666667       0.008
   0.50000000  0.33333333  0.16666667       0.004
   0.38888889  0.38888889  0.16666667       0.004
   0.44444444  0.38888889  0.16666667       0.008
   0.50000000  0.38888889  0.16666667       0.004
   0.44444444  0.44444444  0.16666667       0.004
   0.50000000  0.44444444  0.16666667       0.004
   0.50000000  0.50000000  0.16666667       0.001
   0.22222222  0.22222222  0.22222222       0.001
   0.27777778  0.22222222  0.22222222       0.004
   0.33333333  0.22222222  0.22222222       0.004
   0.38888889  0.22222222  0.22222222       0.004
   0.44444444  0.22222222  0.22222222       0.004
   0.50000000  0.22222222  0.22222222       0.002
   0.27777778  0.27777778  0.22222222       0.004
   0.33333333  0.27777778  0.22222222       0.008
   0.38888889  0.27777778  0.22222222       0.008
   0.44444444  0.27777778  0.22222222       0.008
   0.50000000  0.27777778  0.22222222       0.004
   0.33333333  0.33333333  0.22222222       0.004
   0.38888889  0.33333333  0.22222222       0.008
   0.44444444  0.33333333  0.22222222       0.008
   0.50000000  0.33333333  0.22222222       0.004
   0.38888889  0.38888889  0.22222222       0.004
   0.44444444  0.38888889  0.22222222       0.008
   0.50000000  0.38888889  0.22222222       0.004
   0.44444444  0.44444444  0.22222222       0.004
   0.50000000  0.44444444  0.22222222       0.004
   0.50000000  0.50000000  0.22222222       0.001
   0.27777778  0.27777778  0.27777778       0.001
   0.33333333  0.27777778  0.27777778       0.004
   0.38888889  0.27777778  0.27777778       0.004
   0.44444444  0.27777778  0.27777778       0.004
   0.50000000  0.27777778  0.27777778       0.002
   0.33333333  0.33333333  0.27777778       0.004
   0.38888889  0.33333333  0.27777778       0.008
   0.44444444  0.33333333  0.27777778       0.008
   0.50000000  0.33333333  0.27777778       0.004
   0.38888889  0.38888889  0.27777778       0.004
   0.44444444  0.38888889  0.27777778       0.008
   0.50000000  0.38888889  0.27777778       0.004
   0.44444444  0.44444444  0.27777778       0.004
   0.50000000  0.44444444  0.27777778       0.004
   0.50000000  0.50000000  0.27777778       0.001
   0.33333333  0.33333333  0.33333333       0.001
   0.38888889  0.33333333  0.33333333       0.004
   0.44444444  0.33333333  0.33333333       0.004
   0.50000000  0.33333333  0.33333333       0.002
   0.38888889  0.38888889  0.33333333       0.004
   0.44444444  0.38888889  0.33333333       0.008
   0.50000000  0.38888889  0.33333333       0.004
   0.44444444  0.44444444  0.33333333       0.004
   0.50000000  0.44444444  0.33333333       0.004
   0.50000000  0.50000000  0.33333333       0.001
   0.38888889  0.38888889  0.38888889       0.001
   0.44444444  0.38888889  0.38888889       0.004
   0.50000000  0.38888889  0.38888889       0.002
   0.44444444  0.44444444  0.38888889       0.004
   0.50000000  0.44444444  0.38888889       0.004
   0.50000000  0.50000000  0.38888889       0.001
   0.44444444  0.44444444  0.44444444       0.001
   0.50000000  0.44444444  0.44444444       0.002
   0.50000000  0.50000000  0.44444444       0.001
   0.50000000  0.50000000  0.50000000       0.000
 
 k-points in reciprocal lattice and weights: Automatic mesh                          
   0.00000000  0.00000000  0.00000000       0.000
   0.05555556  0.00000000  0.00000000       0.001
   0.11111111  0.00000000  0.00000000       0.001
   0.16666667  0.00000000  0.00000000       0.001
   0.22222222  0.00000000  0.00000000       0.001
   0.27777778  0.00000000  0.00000000       0.001
   0.33333333  0.00000000  0.00000000       0.001
   0.38888889  0.00000000  0.00000000       0.001
   0.44444444  0.00000000  0.00000000       0.001
   0.50000000  0.00000000  0.00000000       0.001
   0.05555556  0.05555556  0.00000000       0.002
   0.11111111  0.05555556  0.00000000       0.004
   0.16666667  0.05555556  0.00000000       0.004
   0.22222222  0.05555556  0.00000000       0.004
   0.27777778  0.05555556  0.00000000       0.004
   0.33333333  0.05555556  0.00000000       0.004
   0.38888889  0.05555556  0.00000000       0.004
   0.44444444  0.05555556  0.00000000       0.004
   0.50000000  0.05555556  0.00000000       0.002
   0.11111111  0.11111111  0.00000000       0.002
   0.16666667  0.11111111  0.00000000       0.004
   0.22222222  0.11111111  0.00000000       0.004
   0.27777778  0.11111111  0.00000000       0.004
   0.33333333  0.11111111  0.00000000       0.004
   0.38888889  0.11111111  0.00000000       0.004
   0.44444444  0.11111111  0.00000000       0.004
   0.50000000  0.11111111  0.00000000       0.002
   0.16666667  0.16666667  0.00000000       0.002
   0.22222222  0.16666667  0.00000000       0.004
   0.27777778  0.16666667  0.00000000       0.004
   0.33333333  0.16666667  0.00000000       0.004
   0.38888889  0.16666667  0.00000000       0.004
   0.44444444  0.16666667  0.00000000       0.004
   0.50000000  0.16666667  0.00000000       0.002
   0.22222222  0.22222222  0.00000000       0.002
   0.27777778  0.22222222  0.00000000       0.004
   0.33333333  0.22222222  0.00000000       0.004
   0.38888889  0.22222222  0.00000000       0.004
   0.44444444  0.22222222  0.00000000       0.004
   0.50000000  0.22222222  0.00000000       0.002
   0.27777778  0.27777778  0.00000000       0.002
   0.33333333  0.27777778  0.00000000       0.004
   0.38888889  0.27777778  0.00000000       0.004
   0.44444444  0.27777778  0.00000000       0.004
   0.50000000  0.27777778  0.00000000       0.002
   0.33333333  0.33333333  0.00000000       0.002
   0.38888889  0.33333333  0.00000000       0.004
   0.44444444  0.33333333  0.00000000       0.004
   0.50000000  0.33333333  0.00000000       0.002
   0.38888889  0.38888889  0.00000000       0.002
   0.44444444  0.38888889  0.00000000       0.004
   0.50000000  0.38888889  0.00000000       0.002
   0.44444444  0.44444444  0.00000000       0.002
   0.50000000  0.44444444  0.00000000       0.002
   0.50000000  0.50000000  0.00000000       0.001
   0.05555556  0.05555556  0.05555556       0.001
   0.11111111  0.05555556  0.05555556       0.004
   0.16666667  0.05555556  0.05555556       0.004
   0.22222222  0.05555556  0.05555556       0.004
   0.27777778  0.05555556  0.05555556       0.004
   0.33333333  0.05555556  0.05555556       0.004
   0.38888889  0.05555556  0.05555556       0.004
   0.44444444  0.05555556  0.05555556       0.004
   0.50000000  0.05555556  0.05555556       0.002
   0.11111111  0.11111111  0.05555556       0.004
   0.16666667  0.11111111  0.05555556       0.008
   0.22222222  0.11111111  0.05555556       0.008
   0.27777778  0.11111111  0.05555556       0.008
   0.33333333  0.11111111  0.05555556       0.008
   0.38888889  0.11111111  0.05555556       0.008
   0.44444444  0.11111111  0.05555556       0.008
   0.50000000  0.11111111  0.05555556       0.004
   0.16666667  0.16666667  0.05555556       0.004
   0.22222222  0.16666667  0.05555556       0.008
   0.27777778  0.16666667  0.05555556       0.008
   0.33333333  0.16666667  0.05555556       0.008
   0.38888889  0.16666667  0.05555556       0.008
   0.44444444  0.16666667  0.05555556       0.008
   0.50000000  0.16666667  0.05555556       0.004
   0.22222222  0.22222222  0.05555556       0.004
   0.27777778  0.22222222  0.05555556       0.008
   0.33333333  0.22222222  0.05555556       0.008
   0.38888889  0.22222222  0.05555556       0.008
   0.44444444  0.22222222  0.05555556       0.008
   0.50000000  0.22222222  0.05555556       0.004
   0.27777778  0.27777778  0.05555556       0.004
   0.33333333  0.27777778  0.05555556       0.008
   0.38888889  0.27777778  0.05555556       0.008
   0.44444444  0.27777778  0.05555556       0.008
   0.50000000  0.27777778  0.05555556       0.004
   0.33333333  0.33333333  0.05555556       0.004
   0.38888889  0.33333333  0.05555556       0.008
   0.44444444  0.33333333  0.05555556       0.008
   0.50000000  0.33333333  0.05555556       0.004
   0.38888889  0.38888889  0.05555556       0.004
   0.44444444  0.38888889  0.05555556       0.008
   0.50000000  0.38888889  0.05555556       0.004
   0.44444444  0.44444444  0.05555556       0.004
   0.50000000  0.44444444  0.05555556       0.004
   0.50000000  0.50000000  0.05555556       0.001
   0.11111111  0.11111111  0.11111111       0.001
   0.16666667  0.11111111  0.11111111       0.004
   0.22222222  0.11111111  0.11111111       0.004
   0.27777778  0.11111111  0.11111111       0.004
   0.33333333  0.11111111  0.11111111       0.004
   0.38888889  0.11111111  0.11111111       0.004
   0.44444444  0.11111111  0.11111111       0.004
   0.50000000  0.11111111  0.11111111       0.002
   0.16666667  0.16666667  0.11111111       0.004
   0.22222222  0.16666667  0.11111111       0.008
   0.27777778  0.16666667  0.11111111       0.008
   0.33333333  0.16666667  0.11111111       0.008
   0.38888889  0.16666667  0.11111111       0.008
   0.44444444  0.16666667  0.11111111       0.008
   0.50000000  0.16666667  0.11111111       0.004
   0.22222222  0.22222222  0.11111111       0.004
   0.27777778  0.22222222  0.11111111       0.008
   0.33333333  0.22222222  0.11111111       0.008
   0.38888889  0.22222222  0.11111111       0.008
   0.44444444  0.22222222  0.11111111       0.008
   0.50000000  0.22222222  0.11111111       0.004
   0.27777778  0.27777778  0.11111111       0.004
   0.33333333  0.27777778  0.11111111       0.008
   0.38888889  0.27777778  0.11111111       0.008
   0.44444444  0.27777778  0.11111111       0.008
   0.50000000  0.27777778  0.11111111       0.004
   0.33333333  0.33333333  0.11111111       0.004
   0.38888889  0.33333333  0.11111111       0.008
   0.44444444  0.33333333  0.11111111       0.008
   0.50000000  0.33333333  0.11111111       0.004
   0.38888889  0.38888889  0.11111111       0.004
   0.44444444  0.38888889  0.11111111       0.008
   0.50000000  0.38888889  0.11111111       0.004
   0.44444444  0.44444444  0.11111111       0.004
   0.50000000  0.44444444  0.11111111       0.004
   0.50000000  0.50000000  0.11111111       0.001
   0.16666667  0.16666667  0.16666667       0.001
   0.22222222  0.16666667  0.16666667       0.004
   0.27777778  0.16666667  0.16666667       0.004
   0.33333333  0.16666667  0.16666667       0.004
   0.38888889  0.16666667  0.16666667       0.004
   0.44444444  0.16666667  0.16666667       0.004
   0.50000000  0.16666667  0.16666667       0.002
   0.22222222  0.22222222  0.16666667       0.004
   0.27777778  0.22222222  0.16666667       0.008
   0.33333333  0.22222222  0.16666667       0.008
   0.38888889  0.22222222  0.16666667       0.008
   0.44444444  0.22222222  0.16666667       0.008
   0.50000000  0.22222222  0.16666667       0.004
   0.27777778  0.27777778  0.16666667       0.004
   0.33333333  0.27777778  0.16666667       0.008
   0.38888889  0.27777778  0.16666667       0.008
   0.44444444  0.27777778  0.16666667       0.008
   0.50000000  0.27777778  0.16666667       0.004
   0.33333333  0.33333333  0.16666667       0.004
   0.38888889  0.33333333  0.16666667       0.008
   0.44444444  0.33333333  0.16666667       0.008
   0.50000000  0.33333333  0.16666667       0.004
   0.38888889  0.38888889  0.16666667       0.004
   0.44444444  0.38888889  0.16666667       0.008
   0.50000000  0.38888889  0.16666667       0.004
   0.44444444  0.44444444  0.16666667       0.004
   0.50000000  0.44444444  0.16666667       0.004
   0.50000000  0.50000000  0.16666667       0.001
   0.22222222  0.22222222  0.22222222       0.001
   0.27777778  0.22222222  0.22222222       0.004
   0.33333333  0.22222222  0.22222222       0.004
   0.38888889  0.22222222  0.22222222       0.004
   0.44444444  0.22222222  0.22222222       0.004
   0.50000000  0.22222222  0.22222222       0.002
   0.27777778  0.27777778  0.22222222       0.004
   0.33333333  0.27777778  0.22222222       0.008
   0.38888889  0.27777778  0.22222222       0.008
   0.44444444  0.27777778  0.22222222       0.008
   0.50000000  0.27777778  0.22222222       0.004
   0.33333333  0.33333333  0.22222222       0.004
   0.38888889  0.33333333  0.22222222       0.008
   0.44444444  0.33333333  0.22222222       0.008
   0.50000000  0.33333333  0.22222222       0.004
   0.38888889  0.38888889  0.22222222       0.004
   0.44444444  0.38888889  0.22222222       0.008
   0.50000000  0.38888889  0.22222222       0.004
   0.44444444  0.44444444  0.22222222       0.004
   0.50000000  0.44444444  0.22222222       0.004
   0.50000000  0.50000000  0.22222222       0.001
   0.27777778  0.27777778  0.27777778       0.001
   0.33333333  0.27777778  0.27777778       0.004
   0.38888889  0.27777778  0.27777778       0.004
   0.44444444  0.27777778  0.27777778       0.004
   0.50000000  0.27777778  0.27777778       0.002
   0.33333333  0.33333333  0.27777778       0.004
   0.38888889  0.33333333  0.27777778       0.008
   0.44444444  0.33333333  0.27777778       0.008
   0.50000000  0.33333333  0.27777778       0.004
   0.38888889  0.38888889  0.27777778       0.004
   0.44444444  0.38888889  0.27777778       0.008
   0.50000000  0.38888889  0.27777778       0.004
   0.44444444  0.44444444  0.27777778       0.004
   0.50000000  0.44444444  0.27777778       0.004
   0.50000000  0.50000000  0.27777778       0.001
   0.33333333  0.33333333  0.33333333       0.001
   0.38888889  0.33333333  0.33333333       0.004
   0.44444444  0.33333333  0.33333333       0.004
   0.50000000  0.33333333  0.33333333       0.002
   0.38888889  0.38888889  0.33333333       0.004
   0.44444444  0.38888889  0.33333333       0.008
   0.50000000  0.38888889  0.33333333       0.004
   0.44444444  0.44444444  0.33333333       0.004
   0.50000000  0.44444444  0.33333333       0.004
   0.50000000  0.50000000  0.33333333       0.001
   0.38888889  0.38888889  0.38888889       0.001
   0.44444444  0.38888889  0.38888889       0.004
   0.50000000  0.38888889  0.38888889       0.002
   0.44444444  0.44444444  0.38888889       0.004
   0.50000000  0.44444444  0.38888889       0.004
   0.50000000  0.50000000  0.38888889       0.001
   0.44444444  0.44444444  0.44444444       0.001
   0.50000000  0.44444444  0.44444444       0.002
   0.50000000  0.50000000  0.44444444       0.001
   0.50000000  0.50000000  0.50000000       0.000
 
 position of ions in fractional coordinates (direct lattice) 
   0.00000000  0.00000000  0.00000000
   0.50000000  0.00000000  0.50000000
   0.50000000  0.50000000  0.00000000
   0.00000000  0.50000000  0.50000000
 
 position of ions in cartesian coordinates  (Angst):
   0.00000000  0.00000000  0.00000000
   1.73500000  0.00000000  1.73500000
   1.73500000  1.73500000  0.00000000
   0.00000000  1.73500000  1.73500000
 


--------------------------------------------------------------------------------------------------------


 k-point   1 :   0.0000 0.0000 0.0000  plane waves:    1365
 k-point   2 :   0.0556 0.0000 0.0000  plane waves:    1361
 k-point   3 :   0.1111 0.0000 0.0000  plane waves:    1370
 k-point   4 :   0.1667 0.0000 0.0000  plane waves:    1382
 k-point   5 :   0.2222 0.0000 0.0000  plane waves:    1390
 k-point   6 :   0.2778 0.0000 0.0000  plane waves:    1402
 k-point   7 :   0.3333 0.0000 0.0000  plane waves:    1390
 k-point   8 :   0.3889 0.0000 0.0000  plane waves:    1398
 k-point   9 :   0.4444 0.0000 0.0000  plane waves:    1414
 k-point  10 :   0.5000 0.0000 0.0000  plane waves:    1406
 k-point  11 :   0.0556 0.0556 0.0000  plane waves:    1367
 k-point  12 :   0.1111 0.0556 0.0000  plane waves:    1374
 k-point  13 :   0.1667 0.0556 0.0000  plane waves:    1383
 k-point  14 :   0.2222 0.0556 0.0000  plane waves:    1386
 k-point  15 :   0.2778 0.0556 0.0000  plane waves:    1392
 k-point  16 :   0.3333 0.0556 0.0000  plane waves:    1395
 k-point  17 :   0.3889 0.0556 0.0000  plane waves:    1395
 k-point  18 :   0.4444 0.0556 0.0000  plane waves:    1404
 k-point  19 :   0.5000 0.0556 0.0000  plane waves:    1412
 k-point  20 :   0.1111 0.1111 0.0000  plane waves:    1382
 k-point  21 :   0.1667 0.1111 0.0000  plane waves:    1386
 k-point  22 :   0.2222 0.1111 0.0000  plane waves:    1389
 k-point  23 :   0.2778 0.1111 0.0000  plane waves:    1390
 k-point  24 :   0.3333 0.1111 0.0000  plane waves:    1389
 k-point  25 :   0.3889 0.1111 0.0000  plane waves:    1390
 k-point  26 :   0.4444 0.1111 0.0000  plane waves:    1398
 k-point  27 :   0.5000 0.1111 0.0000  plane waves:    1402
 k-point  28 :   0.1667 0.1667 0.0000  plane waves:    1384
 k-point  29 :   0.2222 0.1667 0.0000  plane waves:    1391
 k-point  30 :   0.2778 0.1667 0.0000  plane waves:    1385
 k-point  31 :   0.3333 0.1667 0.0000  plane waves:    1387
 k-point  32 :   0.3889 0.1667 0.0000  plane waves:    1386
 k-point  33 :   0.4444 0.1667 0.0000  plane waves:    1395
 k-point  34 :   0.5000 0.1667 0.0000  plane waves:    1402
 k-point  35 :   0.2222 0.2222 0.0000  plane waves:    1392
 k-point  36 :   0.2778 0.2222 0.0000  plane waves:    1388
 k-point  37 :   0.3333 0.2222 0.0000  plane waves:    1385
 k-point  38 :   0.3889 0.2222 0.0000  plane waves:    1388
 k-point  39 :   0.4444 0.2222 0.0000  plane waves:    1398
 k-point  40 :   0.5000 0.2222 0.0000  plane waves:    1388
 k-point  41 :   0.2778 0.2778 0.0000  plane waves:    1388
 k-point  42 :   0.3333 0.2778 0.0000  plane waves:    1388
 k-point  43 :   0.3889 0.2778 0.0000  plane waves:    1395
 k-point  44 :   0.4444 0.2778 0.0000  plane waves:    1391
 k-point  45 :   0.5000 0.2778 0.0000  plane waves:    1392
 k-point  46 :   0.3333 0.3333 0.0000  plane waves:    1380
 k-point  47 :   0.3889 0.3333 0.0000  plane waves:    1396
 k-point  48 :   0.4444 0.3333 0.0000  plane waves:    1397
 k-point  49 :   0.5000 0.3333 0.0000  plane waves:    1400
 k-point  50 :   0.3889 0.3889 0.0000  plane waves:    1398
 k-point  51 :   0.4444 0.3889 0.0000  plane waves:    1397
 k-point  52 :   0.5000 0.3889 0.0000  plane waves:    1396
 k-point  53 :   0.4444 0.4444 0.0000  plane waves:    1388
 k-point  54 :   0.5000 0.4444 0.0000  plane waves:    1386
 k-point  55 :   0.5000 0.5000 0.0000  plane waves:    1372
 k-point  56 :   0.0556 0.0556 0.0556  plane waves:    1367
 k-point  57 :   0.1111 0.0556 0.0556  plane waves:    1375
 k-point  58 :   0.1667 0.0556 0.0556  plane waves:    1382
 k-point  59 :   0.2222 0.0556 0.0556  plane waves:    1385
 k-point  60 :   0.2778 0.0556 0.0556  plane waves:    1386
 k-point  61 :   0.3333 0.0556 0.0556  plane waves:    1389
 k-point  62 :   0.3889 0.0556 0.0556  plane waves:    1402
 k-point  63 :   0.4444 0.0556 0.0556  plane waves:    1401
 k-point  64 :   0.5000 0.0556 0.0556  plane waves:    1404
 k-point  65 :   0.1111 0.1111 0.0556  plane waves:    1380
 k-point  66 :   0.1667 0.1111 0.0556  plane waves:    1384
 k-point  67 :   0.2222 0.1111 0.0556  plane waves:    1382
 k-point  68 :   0.2778 0.1111 0.0556  plane waves:    1388
 k-point  69 :   0.3333 0.1111 0.0556  plane waves:    1389
 k-point  70 :   0.3889 0.1111 0.0556  plane waves:    1389
 k-point  71 :   0.4444 0.1111 0.0556  plane waves:    1402
 k-point  72 :   0.5000 0.1111 0.0556  plane waves:    1406
 k-point  73 :   0.1667 0.1667 0.0556  plane waves:    1382
 k-point  74 :   0.2222 0.1667 0.0556  plane waves:    1385
 k-point  75 :   0.2778 0.1667 0.0556  plane waves:    1385
 k-point  76 :   0.3333 0.1667 0.0556  plane waves:    1390
 k-point  77 :   0.3889 0.1667 0.0556  plane waves:    1394
 k-point  78 :   0.4444 0.1667 0.0556  plane waves:    1399
 k-point  79 :   0.5000 0.1667 0.0556  plane waves:    1396
 k-point  80 :   0.2222 0.2222 0.0556  plane waves:    1394
 k-point  81 :   0.2778 0.2222 0.0556  plane waves:    1388
 k-point  82 :   0.3333 0.2222 0.0556  plane waves:    1389
 k-point  83 :   0.3889 0.2222 0.0556  plane waves:    1392
 k-point  84 :   0.4444 0.2222 0.0556  plane waves:    1396
 k-point  85 :   0.5000 0.2222 0.0556  plane waves:    1390
 k-point  86 :   0.2778 0.2778 0.0556  plane waves:    1394
 k-point  87 :   0.3333 0.2778 0.0556  plane waves:    1388
 k-point  88 :   0.3889 0.2778 0.0556  plane waves:    1392
 k-point  89 :   0.4444 0.2778 0.0556  plane waves:    1388
 k-point  90 :   0.5000 0.2778 0.0556  plane waves:    1386
 k-point  91 :   0.3333 0.3333 0.0556  plane waves:    1388
 k-point  92 :   0.3889 0.3333 0.0556  plane waves:    1391
 k-point  93 :   0.4444 0.3333 0.0556  plane waves:    1392
 k-point  94 :   0.5000 0.3333 0.0556  plane waves:    1398
 k-point  95 :   0.3889 0.3889 0.0556  plane waves:    1392
 k-point  96 :   0.4444 0.3889 0.0556  plane waves:    1394
 k-point  97 :   0.5000 0.3889 0.0556  plane waves:    1396
 k-point  98 :   0.4444 0.4444 0.0556  plane waves:    1391
 k-point  99 :   0.5000 0.4444 0.0556  plane waves:    1390
 k-point 100 :   0.5000 0.5000 0.0556  plane waves:    1376
 k-point 101 :   0.1111 0.1111 0.1111  plane waves:    1385
 k-point 102 :   0.1667 0.1111 0.1111  plane waves:    1381
 k-point 103 :   0.2222 0.1111 0.1111  plane waves:    1387
 k-point 104 :   0.2778 0.1111 0.1111  plane waves:    1384
 k-point 105 :   0.3333 0.1111 0.1111  plane waves:    1390
 k-point 106 :   0.3889 0.1111 0.1111  plane waves:    1393
 k-point 107 :   0.4444 0.1111 0.1111  plane waves:    1401
 k-point 108 :   0.5000 0.1111 0.1111  plane waves:    1404
 k-point 109 :   0.1667 0.1667 0.1111  plane waves:    1381
 k-point 110 :   0.2222 0.1667 0.1111  plane waves:    1387
 k-point 111 :   0.2778 0.1667 0.1111  plane waves:    1390
 k-point 112 :   0.3333 0.1667 0.1111  plane waves:    1388
 k-point 113 :   0.3889 0.1667 0.1111  plane waves:    1394
 k-point 114 :   0.4444 0.1667 0.1111  plane waves:    1404
 k-point 115 :   0.5000 0.1667 0.1111  plane waves:    1400
 k-point 116 :   0.2222 0.2222 0.1111  plane waves:    1385
 k-point 117 :   0.2778 0.2222 0.1111  plane waves:    1395
 k-point 118 :   0.3333 0.2222 0.1111  plane waves:    1391
 k-point 119 :   0.3889 0.2222 0.1111  plane waves:    1394
 k-point 120 :   0.4444 0.2222 0.1111  plane waves:    1390
 k-point 121 :   0.5000 0.2222 0.1111  plane waves:    1398
 k-point 122 :   0.2778 0.2778 0.1111  plane waves:    1389
 k-point 123 :   0.3333 0.2778 0.1111  plane waves:    1395
 k-point 124 :   0.3889 0.2778 0.1111  plane waves:    1393
 k-point 125 :   0.4444 0.2778 0.1111  plane waves:    1391
 k-point 126 :   0.5000 0.2778 0.1111  plane waves:    1390
 k-point 127 :   0.3333 0.3333 0.1111  plane waves:    1397
 k-point 128 :   0.3889 0.3333 0.1111  plane waves:    1393
 k-point 129 :   0.4444 0.3333 0.1111  plane waves:    1395
 k-point 130 :   0.5000 0.3333 0.1111  plane waves:    1392
 k-point 131 :   0.3889 0.3889 0.1111  plane waves:    1400
 k-point 132 :   0.4444 0.3889 0.1111  plane waves:    1403
 k-point 133 :   0.5000 0.3889 0.1111  plane waves:    1400
 k-point 134 :   0.4444 0.4444 0.1111  plane waves:    1397
 k-point 135 :   0.5000 0.4444 0.1111  plane waves:    1400
 k-point 136 :   0.5000 0.5000 0.1111  plane waves:    1396
 k-point 137 :   0.1667 0.1667 0.1667  plane waves:    1376
 k-point 138 :   0.2222 0.1667 0.1667  plane waves:    1386
 k-point 139 :   0.2778 0.1667 0.1667  plane waves:    1387
 k-point 140 :   0.3333 0.1667 0.1667  plane waves:    1385
 k-point 141 :   0.3889 0.1667 0.1667  plane waves:    1395
 k-point 142 :   0.4444 0.1667 0.1667  plane waves:    1400
 k-point 143 :   0.5000 0.1667 0.1667  plane waves:    1394
 k-point 144 :   0.2222 0.2222 0.1667  plane waves:    1392
 k-point 145 :   0.2778 0.2222 0.1667  plane waves:    1390
 k-point 146 :   0.3333 0.2222 0.1667  plane waves:    1393
 k-point 147 :   0.3889 0.2222 0.1667  plane waves:    1397
 k-point 148 :   0.4444 0.2222 0.1667  plane waves:    1395
 k-point 149 :   0.5000 0.2222 0.1667  plane waves:    1398
 k-point 150 :   0.2778 0.2778 0.1667  plane waves:    1401
 k-point 151 :   0.3333 0.2778 0.1667  plane waves:    1399
 k-point 152 :   0.3889 0.2778 0.1667  plane waves:    1398
 k-point 153 :   0.4444 0.2778 0.1667  plane waves:    1398
 k-point 154 :   0.5000 0.2778 0.1667  plane waves:    1398
 k-point 155 :   0.3333 0.3333 0.1667  plane waves:    1407
 k-point 156 :   0.3889 0.3333 0.1667  plane waves:    1401
 k-point 157 :   0.4444 0.3333 0.1667  plane waves:    1399
 k-point 158 :   0.5000 0.3333 0.1667  plane waves:    1394
 k-point 159 :   0.3889 0.3889 0.1667  plane waves:    1396
 k-point 160 :   0.4444 0.3889 0.1667  plane waves:    1395
 k-point 161 :   0.5000 0.3889 0.1667  plane waves:    1402
 k-point 162 :   0.4444 0.4444 0.1667  plane waves:    1400
 k-point 163 :   0.5000 0.4444 0.1667  plane waves:    1406
 k-point 164 :   0.5000 0.5000 0.1667  plane waves:    1408
 k-point 165 :   0.2222 0.2222 0.2222  plane waves:    1388
 k-point 166 :   0.2778 0.2222 0.2222  plane waves:    1394
 k-point 167 :   0.3333 0.2222 0.2222  plane waves:    1402
 k-point 168 :   0.3889 0.2222 0.2222  plane waves:    1406
 k-point 169 :   0.4444 0.2222 0.2222  plane waves:    1401
 k-point 170 :   0.5000 0.2222 0.2222  plane waves:    1400
 k-point 171 :   0.2778 0.2778 0.2222  plane waves:    1399
 k-point 172 :   0.3333 0.2778 0.2222  plane waves:    1410
 k-point 173 :   0.3889 0.2778 0.2222  plane waves:    1404
 k-point 174 :   0.4444 0.2778 0.2222  plane waves:    1400
 k-point 175 :   0.5000 0.2778 0.2222  plane waves:    1394
 k-point 176 :   0.3333 0.3333 0.2222  plane waves:    1406
 k-point 177 :   0.3889 0.3333 0.2222  plane waves:    1403
 k-point 178 :   0.4444 0.3333 0.2222  plane waves:    1402
 k-point 179 :   0.5000 0.3333 0.2222  plane waves:    1398
 k-point 180 :   0.3889 0.3889 0.2222  plane waves:    1400
 k-point 181 :   0.4444 0.3889 0.2222  plane waves:    1397
 k-point 182 :   0.5000 0.3889 0.2222  plane waves:    1402
 k-point 183 :   0.4444 0.4444 0.2222  plane waves:    1396
 k-point 184 :   0.5000 0.4444 0.2222  plane waves:    1402
 k-point 185 :   0.5000 0.5000 0.2222  plane waves:    1408
 k-point 186 :   0.2778 0.2778 0.2778  plane waves:    1406
 k-point 187 :   0.3333 0.2778 0.2778  plane waves:    1405
 k-point 188 :   0.3889 0.2778 0.2778  plane waves:    1400
 k-point 189 :   0.4444 0.2778 0.2778  plane waves:    1400
 k-point 190 :   0.5000 0.2778 0.2778  plane waves:    1404
 k-point 191 :   0.3333 0.3333 0.2778  plane waves:    1407
 k-point 192 :   0.3889 0.3333 0.2778  plane waves:    1407
 k-point 193 :   0.4444 0.3333 0.2778  plane waves:    1399
 k-point 194 :   0.5000 0.3333 0.2778  plane waves:    1406
 k-point 195 :   0.3889 0.3889 0.2778  plane waves:    1406
 k-point 196 :   0.4444 0.3889 0.2778  plane waves:    1406
 k-point 197 :   0.5000 0.3889 0.2778  plane waves:    1402
 k-point 198 :   0.4444 0.4444 0.2778  plane waves:    1409
 k-point 199 :   0.5000 0.4444 0.2778  plane waves:    1402
 k-point 200 :   0.5000 0.5000 0.2778  plane waves:    1412
 k-point 201 :   0.3333 0.3333 0.3333  plane waves:    1412
 k-point 202 :   0.3889 0.3333 0.3333  plane waves:    1402
 k-point 203 :   0.4444 0.3333 0.3333  plane waves:    1409
 k-point 204 :   0.5000 0.3333 0.3333  plane waves:    1406
 k-point 205 :   0.3889 0.3889 0.3333  plane waves:    1401
 k-point 206 :   0.4444 0.3889 0.3333  plane waves:    1403
 k-point 207 :   0.5000 0.3889 0.3333  plane waves:    1398
 k-point 208 :   0.4444 0.4444 0.3333  plane waves:    1397
 k-point 209 :   0.5000 0.4444 0.3333  plane waves:    1400
 k-point 210 :   0.5000 0.5000 0.3333  plane waves:    1404
 k-point 211 :   0.3889 0.3889 0.3889  plane waves:    1403
 k-point 212 :   0.4444 0.3889 0.3889  plane waves:    1399
 k-point 213 :   0.5000 0.3889 0.3889  plane waves:    1394
 k-point 214 :   0.4444 0.4444 0.3889  plane waves:    1400
 k-point 215 :   0.5000 0.4444 0.3889  plane waves:    1396
 k-point 216 :   0.5000 0.5000 0.3889  plane waves:    1396
 k-point 217 :   0.4444 0.4444 0.4444  plane waves:    1391
 k-point 218 :   0.5000 0.4444 0.4444  plane waves:    1392
 k-point 219 :   0.5000 0.5000 0.4444  plane waves:    1384
 k-point 220 :   0.5000 0.5000 0.5000  plane waves:    1376

 maximum and minimum number of plane-waves per node :       362      333

 maximum number of plane-waves:      1414
 maximum index in each direction: 
   IXMAX=    6   IYMAX=    6   IZMAX=    6
   IXMIN=   -7   IYMIN=   -7   IZMIN=   -7


 parallel 3D FFT for wavefunctions:
    minimum data exchange during FFTs selected (reduces bandwidth)
 parallel 3D FFT for charge:
    minimum data exchange during FFTs selected (reduces bandwidth)


 total amount of memory used by VASP MPI-rank0    66608. kBytes
=======================================================================

   base      :      30000. kBytes
   nonl-proj :      23213. kBytes
   fftplans  :       1332. kBytes
   grid      :       1219. kBytes
   one-center:         31. kBytes
   wavefun   :      10813. kBytes
 
     INWAV:  cpu time      0.0000: real time      0.0000
 Broyden mixing: mesh for mixing (old mesh)
   NGX = 13   NGY = 13   NGZ = 13
  (NGX  = 56   NGY  = 56   NGZ  = 56)
  gives a total of   2197 points

 initial charge density was supplied:
 charge density of overlapping atoms calculated
 number of electron      33.0000000 magnetization       1.8000000
 keeping initial charge density in first step


--------------------------------------------------------------------------------------------------------


 Maximum index for augmentation-charges         8027 (set IRDMAX)


--------------------------------------------------------------------------------------------------------


 First call to EWALD:  gamma=   0.511
 Maximum number of real-space cells 3x 3x 3
 Maximum number of reciprocal cells 3x 3x 3

    FEWALD:  cpu time      0.0030: real time      0.0023


--------------------------------------- Iteration      1(   1)  ---------------------------------------


    POTLOK:  cpu time      0.0170: real time      0.0182
    SETDIJ:  cpu time      0.5559: real time      0.5549
     EDDAV:  cpu time      3.4885: real time      3.5907
       DOS:  cpu time      0.0250: real time      0.0247
    --------------------------------------------
      LOOP:  cpu time      4.0864: real time      4.1886

 eigenvalue-minimisations  : 21348
 total energy-change (2. order) : 0.1593615E+03  (-0.1670761E+04)
 number of electron      33.0000000 magnetization       1.8000000
 augmentation part       33.0000000 magnetization       1.8000000

 Free energy of the ion-electron system (eV)
  ---------------------------------------------------
  alpha Z        PSCENC =       237.99577674
  Ewald energy   TEWEN  =     -2761.87861634
  -Hartree energ DENC   =      -889.03990500
  -exchange      EXHF   =         0.00000000
  -V(xc)+E(xc)   XCENC  =        70.28714730
  PAW double counting   =      2647.30747865    -2815.80221064
  entropy T*S    EENTRO =        -0.00176838
  eigenvalues    EBANDS =       383.25318890
  atomic energy  EATOM  =      3287.24036057
  Solvation  Ediel_sol  =         0.00000000
  ---------------------------------------------------
  free energy    TOTEN  =       159.36145181 eV

  energy without entropy =      159.36322019  energy(sigma->0) =      159.36204127


--------------------------------------------------------------------------------------------------------




--------------------------------------- Iteration      1(   2)  ---------------------------------------


     EDDAV:  cpu time      3.4605: real time      3.5353
       DOS:  cpu time      0.0270: real time      0.0276
    --------------------------------------------
      LOOP:  cpu time      3.4875: real time      3.5628

 eigenvalue-minimisations  : 21156
 total energy-change (2. order) :-0.1809003E+03  (-0.1747769E+03)
 number of electron      33.0000000 magnetization       1.8000000
 augmentation part       33.0000000 magnetization       1.8000000

 Free energy of the ion-electron system (eV)
  ---------------------------------------------------
  alpha Z        PSCENC =       237.99577674
  Ewald energy   TEWEN  =     -2761.87861634
  -Hartree energ DENC   =      -889.03990500
  -exchange      EXHF   =         0.00000000
  -V(xc)+E(xc)   XCENC  =        70.28714730
  PAW double counting   =      2647.30747865    -2815.80221064
  entropy T*S    EENTRO =         0.00591599
  eigenvalues    EBANDS =       202.34519589
  atomic energy  EATOM  =      3287.24036057
  Solvation  Ediel_sol  =         0.00000000
  ---------------------------------------------------
  free energy    TOTEN  =       -21.53885683 eV

  energy without entropy =      -21.54477282  energy(sigma->0) =      -21.54082883


--------------------------------------------------------------------------------------------------------




--------------------------------------- Iteration      1(   3)  ---------------------------------------


     EDDAV:  cpu time      4.2903: real time      4.4136
       DOS:  cpu time      0.0310: real time      0.0303
    --------------------------------------------
      LOOP:  cpu time      4.3213: real time      4.4439

 eigenvalue-minimisations  : 27936
 total energy-change (2. order) :-0.4599646E+01  (-0.4550635E+01)
 number of electron      33.0000000 magnetization       1.8000000
 augmentation part       33.0000000 magnetization       1.8000000

 Free energy of the ion-electron system (eV)
  ---------------------------------------------------
  alpha Z        PSCENC =       237.99577674
  Ewald energy   TEWEN  =     -2761.87861634
  -Hartree energ DENC   =      -889.03990500
  -exchange      EXHF   =         0.00000000
  -V(xc)+E(xc)   XCENC  =        70.28714730
  PAW double counting   =      2647.30747865    -2815.80221064
  entropy T*S    EENTRO =         0.00509450
  eigenvalues    EBANDS =       197.74637147
  atomic energy  EATOM  =      3287.24036057
  Solvation  Ediel_sol  =         0.00000000
  ---------------------------------------------------
  free energy    TOTEN  =       -26.13850274 eV

  energy without entropy =      -26.14359724  energy(sigma->0) =      -26.14020091


--------------------------------------------------------------------------------------------------------




--------------------------------------- Iteration      1(   4)  ---------------------------------------


     EDDAV:  cpu time      3.8604: real time      3.9454
       DOS:  cpu time      0.0310: real time      0.0307
    --------------------------------------------
      LOOP:  cpu time      3.8914: real time      3.9761

 eigenvalue-minimisations  : 24408
 total energy-change (2. order) :-0.4140898E-01  (-0.4140120E-01)
 number of electron      33.0000000 magnetization       1.8000000
 augmentation part       33.0000000 magnetization       1.8000000

 Free energy of the ion-electron system (eV)
  ---------------------------------------------------
  alpha Z        PSCENC =       237.99577674
  Ewald energy   TEWEN  =     -2761.87861634
  -Hartree energ DENC   =      -889.03990500
  -exchange      EXHF   =         0.00000000
  -V(xc)+E(xc)   XCENC  =        70.28714730
  PAW double counting   =      2647.30747865    -2815.80221064
  entropy T*S    EENTRO =         0.00507244
  eigenvalues    EBANDS =       197.70498455
  atomic energy  EATOM  =      3287.24036057
  Solvation  Ediel_sol  =         0.00000000
  ---------------------------------------------------
  free energy    TOTEN  =       -26.17991172 eV

  energy without entropy =      -26.18498416  energy(sigma->0) =      -26.18160253


--------------------------------------------------------------------------------------------------------




--------------------------------------- Iteration      1(   5)  ---------------------------------------


     EDDAV:  cpu time      4.4233: real time      4.4979
       DOS:  cpu time      0.0310: real time      0.0306
    CHARGE:  cpu time      0.1670: real time      0.1670
    MIXING:  cpu time      0.0030: real time      0.0028
    --------------------------------------------
      LOOP:  cpu time      4.6243: real time      4.6983

 eigenvalue-minimisations  : 28500
 total energy-change (2. order) :-0.1040714E-02  (-0.1040703E-02)
 number of electron      33.0000000 magnetization       0.5273561
 augmentation part       16.2740049 magnetization       0.4977758

 Broyden mixing:
  rms(total) = 0.17625E+01    rms(broyden)= 0.17624E+01
  rms(prec ) = 0.43607E+01
  weight for this iteration     100.00

 Free energy of the ion-electron system (eV)
  ---------------------------------------------------
  alpha Z        PSCENC =       237.99577674
  Ewald energy   TEWEN  =     -2761.87861634
  -Hartree energ DENC   =      -889.03990500
  -exchange      EXHF   =         0.00000000
  -V(xc)+E(xc)   XCENC  =        70.28714730
  PAW double counting   =      2647.30747865    -2815.80221064
  entropy T*S    EENTRO =         0.00507245
  eigenvalues    EBANDS =       197.70394382
  atomic energy  EATOM  =      3287.24036057
  Solvation  Ediel_sol  =         0.00000000
  ---------------------------------------------------
  free energy    TOTEN  =       -26.18095243 eV

  energy without entropy =      -26.18602489  energy(sigma->0) =      -26.18264325


--------------------------------------------------------------------------------------------------------




--------------------------------------- Iteration      1(   6)  ---------------------------------------


    POTLOK:  cpu time      0.0110: real time      0.0139
    SETDIJ:  cpu time      0.5429: real time      0.5419
     EDDAV:  cpu time      3.7574: real time      3.8299
       DOS:  cpu time      0.0290: real time      0.0295
    CHARGE:  cpu time      0.1600: real time      0.1593
    MIXING:  cpu time      0.0010: real time      0.0012
    --------------------------------------------
      LOOP:  cpu time      4.5013: real time      4.5756

 eigenvalue-minimisations  : 23784
 total energy-change (2. order) :-0.2679701E+00  (-0.4897836E+01)
 number of electron      33.0000000 magnetization       0.2195527
 augmentation part       20.7946918 magnetization       0.2980095

 Broyden mixing:
  rms(total) = 0.15887E+01    rms(broyden)= 0.15886E+01
  rms(prec ) = 0.40053E+01
  weight for this iteration     100.00

 eigenvalues of (default mixing * dielectric matrix)
  average eigenvalue GAMMA=   0.5276
  0.5276

 Free energy of the ion-electron system (eV)
  ---------------------------------------------------
  alpha Z        PSCENC =       237.99577674
  Ewald energy   TEWEN  =     -2761.87861634
  -Hartree energ DENC   =      -790.78152884
  -exchange      EXHF   =         0.00000000
  -V(xc)+E(xc)   XCENC  =        65.69007901
  PAW double counting   =      2606.76790836    -2757.37448820
  entropy T*S    EENTRO =         0.00354308
  eigenvalues    EBANDS =        85.88804306
  atomic energy  EATOM  =      3287.24036057
  Solvation  Ediel_sol  =         0.00000000
  ---------------------------------------------------
  free energy    TOTEN  =       -26.44892256 eV

  energy without entropy =      -26.45246563  energy(sigma->0) =      -26.45010358


--------------------------------------------------------------------------------------------------------




--------------------------------------- Iteration      1(   7)  ---------------------------------------


    POTLOK:  cpu time      0.0140: real time      0.0141
    SETDIJ:  cpu time      0.5419: real time      0.5413
     EDDAV:  cpu time      3.8304: real time      3.9035
       DOS:  cpu time      0.0310: real time      0.0310
    CHARGE:  cpu time      0.1570: real time      0.1568
    MIXING:  cpu time      0.0010: real time      0.0006
    --------------------------------------------
      LOOP:  cpu time      4.5753: real time      4.6472

 eigenvalue-minimisations  : 24432
 total energy-change (2. order) : 0.4346796E+01  (-0.2022710E+01)
 number of electron      33.0000000 magnetization       0.2753849
 augmentation part       18.2849103 magnetization       0.2715708

 Broyden mixing:
  rms(total) = 0.22916E+00    rms(broyden)= 0.22900E+00
  rms(prec ) = 0.53877E+00
  weight for this iteration     100.00

 eigenvalues of (default mixing * dielectric matrix)
  average eigenvalue GAMMA=   0.7363
  1.0113  0.4613

 Free energy of the ion-electron system (eV)
  ---------------------------------------------------
  alpha Z        PSCENC =       237.99577674
  Ewald energy   TEWEN  =     -2761.87861634
  -Hartree energ DENC   =      -837.31152188
  -exchange      EXHF   =         0.00000000
  -V(xc)+E(xc)   XCENC  =        67.80940563
  PAW double counting   =      2729.91220889    -2896.99639581
  entropy T*S    EENTRO =        -0.00999179
  eigenvalues    EBANDS =       151.13664731
  atomic energy  EATOM  =      3287.24036057
  Solvation  Ediel_sol  =         0.00000000
  ---------------------------------------------------
  free energy    TOTEN  =       -22.10212668 eV

  energy without entropy =      -22.09213489  energy(sigma->0) =      -22.09879608


--------------------------------------------------------------------------------------------------------




--------------------------------------- Iteration      1(   8)  ---------------------------------------


    POTLOK:  cpu time      0.0120: real time      0.0140
    SETDIJ:  cpu time      0.5419: real time      0.5420
     EDDAV:  cpu time      3.8284: real time      3.9009
       DOS:  cpu time      0.0310: real time      0.0307
    CHARGE:  cpu time      0.1560: real time      0.1559
    MIXING:  cpu time      0.0000: real time      0.0005
    --------------------------------------------
      LOOP:  cpu time      4.5693: real time      4.6440

 eigenvalue-minimisations  : 24276
 total energy-change (2. order) : 0.7019032E-01  (-0.1956003E-01)
 number of electron      33.0000000 magnetization       0.3202527
 augmentation part       18.3722896 magnetization       0.3093461

 Broyden mixing:
  rms(total) = 0.11458E+00    rms(broyden)= 0.11457E+00
  rms(prec ) = 0.27352E+00
  weight for this iteration     100.00

 eigenvalues of (default mixing * dielectric matrix)
  average eigenvalue GAMMA=   0.9810
  0.4927  0.9152  1.5350

 Free energy of the ion-electron system (eV)
  ---------------------------------------------------
  alpha Z        PSCENC =       237.99577674
  Ewald energy   TEWEN  =     -2761.87861634
  -Hartree energ DENC   =      -831.43964304
  -exchange      EXHF   =         0.00000000
  -V(xc)+E(xc)   XCENC  =        67.52628208
  PAW double counting   =      2798.19116422    -2968.70427076
  entropy T*S    EENTRO =        -0.00932481
  eigenvalues    EBANDS =       149.04633497
  atomic energy  EATOM  =      3287.24036057
  Solvation  Ediel_sol  =         0.00000000
  ---------------------------------------------------
  free energy    TOTEN  =       -22.03193635 eV

  energy without entropy =      -22.02261154  energy(sigma->0) =      -22.02882808


--------------------------------------------------------------------------------------------------------




--------------------------------------- Iteration      1(   9)  ---------------------------------------


    POTLOK:  cpu time      0.0120: real time      0.0141
    SETDIJ:  cpu time      0.5419: real time      0.5415
     EDDAV:  cpu time      4.4983: real time      4.5709
       DOS:  cpu time      0.0310: real time      0.0308
    CHARGE:  cpu time      0.1610: real time      0.1611
    MIXING:  cpu time      0.0010: real time      0.0006
    --------------------------------------------
      LOOP:  cpu time      5.2452: real time      5.3189

 eigenvalue-minimisations  : 29496
 total energy-change (2. order) : 0.2458269E-01  (-0.2792211E-02)
 number of electron      33.0000000 magnetization       0.3808010
 augmentation part       18.4666018 magnetization       0.3648139

 Broyden mixing:
  rms(total) = 0.57446E-01    rms(broyden)= 0.57435E-01
  rms(prec ) = 0.61340E-01
  weight for this iteration     100.00

 eigenvalues of (default mixing * dielectric matrix)
  average eigenvalue GAMMA=   1.0599
  1.8381  1.3270  0.4856  0.5890

 Free energy of the ion-electron system (eV)
  ---------------------------------------------------
  alpha Z        PSCENC =       237.99577674
  Ewald energy   TEWEN  =     -2761.87861634
  -Hartree energ DENC   =      -825.94855217
  -exchange      EXHF   =         0.00000000
  -V(xc)+E(xc)   XCENC  =        67.27784860
  PAW double counting   =      2861.32416840    -3034.88418742
  entropy T*S    EENTRO =        -0.00706435
  eigenvalues    EBANDS =       146.87291230
  atomic energy  EATOM  =      3287.24036057
  Solvation  Ediel_sol  =         0.00000000
  ---------------------------------------------------
  free energy    TOTEN  =       -22.00735366 eV

  energy without entropy =      -22.00028932  energy(sigma->0) =      -22.00499888


--------------------------------------------------------------------------------------------------------




--------------------------------------- Iteration      1(  10)  ---------------------------------------


    POTLOK:  cpu time      0.0120: real time      0.0139
    SETDIJ:  cpu time      0.5409: real time      0.5412
     EDDAV:  cpu time      3.8564: real time      4.0064
       DOS:  cpu time      0.0310: real time      0.0307
    CHARGE:  cpu time      0.1600: real time      0.1605
    MIXING:  cpu time      0.0010: real time      0.0006
    --------------------------------------------
      LOOP:  cpu time      4.6013: real time      4.7533

 eigenvalue-minimisations  : 25068
 total energy-change (2. order) :-0.8017329E-03  (-0.1420123E-03)
 number of electron      33.0000000 magnetization       0.5849733
 augmentation part       18.4628367 magnetization       0.5710702

 Broyden mixing:
  rms(total) = 0.39278E-01    rms(broyden)= 0.39271E-01
  rms(prec ) = 0.46596E-01
  weight for this iteration     100.00

 eigenvalues of (default mixing * dielectric matrix)
  average eigenvalue GAMMA=   1.2502
  2.1648  2.1648  0.4881  0.7167  0.7167

 Free energy of the ion-electron system (eV)
  ---------------------------------------------------
  alpha Z        PSCENC =       237.99577674
  Ewald energy   TEWEN  =     -2761.87861634
  -Hartree energ DENC   =      -825.99099628
  -exchange      EXHF   =         0.00000000
  -V(xc)+E(xc)   XCENC  =        67.28823235
  PAW double counting   =      2862.29610255    -3035.88694318
  entropy T*S    EENTRO =        -0.00582947
  eigenvalues    EBANDS =       146.93375766
  atomic energy  EATOM  =      3287.24036057
  Solvation  Ediel_sol  =         0.00000000
  ---------------------------------------------------
  free energy    TOTEN  =       -22.00815540 eV

  energy without entropy =      -22.00232593  energy(sigma->0) =      -22.00621224


--------------------------------------------------------------------------------------------------------




--------------------------------------- Iteration      1(  11)  ---------------------------------------


    POTLOK:  cpu time      0.0120: real time      0.0139
    SETDIJ:  cpu time      0.5409: real time      0.5415
     EDDAV:  cpu time      4.0114: real time      4.1258
       DOS:  cpu time      0.0310: real time      0.0310
    CHARGE:  cpu time      0.1580: real time      0.1584
    MIXING:  cpu time      0.0010: real time      0.0006
    --------------------------------------------
      LOOP:  cpu time      4.7543: real time      4.8712

 eigenvalue-minimisations  : 26184
 total energy-change (2. order) :-0.2556026E-02  (-0.6121387E-03)
 number of electron      33.0000000 magnetization       0.6610736
 augmentation part       18.4657087 magnetization       0.6521677

 Broyden mixing:
  rms(total) = 0.22591E-01    rms(broyden)= 0.22529E-01
  rms(prec ) = 0.24603E-01
  weight for this iteration     100.00

 eigenvalues of (default mixing * dielectric matrix)
  average eigenvalue GAMMA=   1.4515
  3.3691  2.4172  0.9115  0.9115  0.4877  0.6122

 Free energy of the ion-electron system (eV)
  ---------------------------------------------------
  alpha Z        PSCENC =       237.99577674
  Ewald energy   TEWEN  =     -2761.87861634
  -Hartree energ DENC   =      -825.44913627
  -exchange      EXHF   =         0.00000000
  -V(xc)+E(xc)   XCENC  =        67.28982166
  PAW double counting   =      2871.63442411    -3045.58840672
  entropy T*S    EENTRO =        -0.00061173
  eigenvalues    EBANDS =       146.74567655
  atomic energy  EATOM  =      3287.24036057
  Solvation  Ediel_sol  =         0.00000000
  ---------------------------------------------------
  free energy    TOTEN  =       -22.01071142 eV

  energy without entropy =      -22.01009969  energy(sigma->0) =      -22.01050751


--------------------------------------------------------------------------------------------------------




--------------------------------------- Iteration      1(  12)  ---------------------------------------


    POTLOK:  cpu time      0.0120: real time      0.0138
    SETDIJ:  cpu time      0.5419: real time      0.5416
     EDDAV:  cpu time      4.4423: real time      4.5923
       DOS:  cpu time      0.0310: real time      0.0310
    CHARGE:  cpu time      0.1580: real time      0.1585
    MIXING:  cpu time      0.0010: real time      0.0006
    --------------------------------------------
      LOOP:  cpu time      5.1862: real time      5.3378

 eigenvalue-minimisations  : 30024
 total energy-change (2. order) :-0.1081298E-02  (-0.1324831E-03)
 number of electron      33.0000000 magnetization       0.6708409
 augmentation part       18.4682048 magnetization       0.6661576

 Broyden mixing:
  rms(total) = 0.68123E-02    rms(broyden)= 0.67477E-02
  rms(prec ) = 0.82042E-02
  weight for this iteration     100.00

 eigenvalues of (default mixing * dielectric matrix)
  average eigenvalue GAMMA=   1.3780
  3.5573  2.3862  0.9989  0.9989  0.4878  0.6467  0.5704

 Free energy of the ion-electron system (eV)
  ---------------------------------------------------
  alpha Z        PSCENC =       237.99577674
  Ewald energy   TEWEN  =     -2761.87861634
  -Hartree energ DENC   =      -825.30625569
  -exchange      EXHF   =         0.00000000
  -V(xc)+E(xc)   XCENC  =        67.29229287
  PAW double counting   =      2872.64522308    -3046.61362752
  entropy T*S    EENTRO =         0.00099790
  eigenvalues    EBANDS =       146.61205567
  atomic energy  EATOM  =      3287.24036057
  Solvation  Ediel_sol  =         0.00000000
  ---------------------------------------------------
  free energy    TOTEN  =       -22.01179272 eV

  energy without entropy =      -22.01279062  energy(sigma->0) =      -22.01212535


--------------------------------------------------------------------------------------------------------




--------------------------------------- Iteration      1(  13)  ---------------------------------------


    POTLOK:  cpu time      0.0140: real time      0.0140
    SETDIJ:  cpu time      0.5419: real time      0.5414
     EDDAV:  cpu time      4.4513: real time      4.6144
       DOS:  cpu time      0.0310: real time      0.0309
    CHARGE:  cpu time      0.1580: real time      0.1583
    MIXING:  cpu time      0.0010: real time      0.0007
    --------------------------------------------
      LOOP:  cpu time      5.1972: real time      5.3597

 eigenvalue-minimisations  : 30120
 total energy-change (2. order) :-0.1677587E-03  (-0.2010433E-04)
 number of electron      33.0000000 magnetization       0.6972970
 augmentation part       18.4694481 magnetization       0.6945423

 Broyden mixing:
  rms(total) = 0.52638E-02    rms(broyden)= 0.52498E-02
  rms(prec ) = 0.54096E-02
  weight for this iteration     100.00

 eigenvalues of (default mixing * dielectric matrix)
  average eigenvalue GAMMA=   1.4702
  3.8295  2.1884  2.1884  0.4877  0.8842  0.8842  0.6086  0.6908

 Free energy of the ion-electron system (eV)
  ---------------------------------------------------
  alpha Z        PSCENC =       237.99577674
  Ewald energy   TEWEN  =     -2761.87861634
  -Hartree energ DENC   =      -825.23728415
  -exchange      EXHF   =         0.00000000
  -V(xc)+E(xc)   XCENC  =        67.28939548
  PAW double counting   =      2872.69757804    -3046.68226126
  entropy T*S    EENTRO =         0.00138696
  eigenvalues    EBANDS =       146.56170348
  atomic energy  EATOM  =      3287.24036057
  Solvation  Ediel_sol  =         0.00000000
  ---------------------------------------------------
  free energy    TOTEN  =       -22.01196048 eV

  energy without entropy =      -22.01334744  energy(sigma->0) =      -22.01242280


--------------------------------------------------------------------------------------------------------




--------------------------------------- Iteration      1(  14)  ---------------------------------------


    POTLOK:  cpu time      0.0120: real time      0.0138
    SETDIJ:  cpu time      0.5419: real time      0.5415
     EDDAV:  cpu time      3.9514: real time      4.1118
       DOS:  cpu time      0.0310: real time      0.0309
    CHARGE:  cpu time      0.1580: real time      0.1580
    MIXING:  cpu time      0.0000: real time      0.0006
    --------------------------------------------
      LOOP:  cpu time      4.6943: real time      4.8567

 eigenvalue-minimisations  : 26088
 total energy-change (2. order) :-0.3891358E-04  (-0.1278602E-04)
 number of electron      33.0000000 magnetization       0.6808110
 augmentation part       18.4690423 magnetization       0.6806203

 Broyden mixing:
  rms(total) = 0.20189E-02    rms(broyden)= 0.20061E-02
  rms(prec ) = 0.22844E-02
  weight for this iteration     100.00

 eigenvalues of (default mixing * dielectric matrix)
  average eigenvalue GAMMA=   1.3578
  2.8504  2.4936  2.4936  0.9515  0.9515  0.4877  0.6181  0.6868  0.6868

 Free energy of the ion-electron system (eV)
  ---------------------------------------------------
  alpha Z        PSCENC =       237.99577674
  Ewald energy   TEWEN  =     -2761.87861634
  -Hartree energ DENC   =      -825.20882911
  -exchange      EXHF   =         0.00000000
  -V(xc)+E(xc)   XCENC  =        67.29128112
  PAW double counting   =      2872.68874756    -3046.68451800
  entropy T*S    EENTRO =         0.00181660
  eigenvalues    EBANDS =       146.54198146
  atomic energy  EATOM  =      3287.24036057
  Solvation  Ediel_sol  =         0.00000000
  ---------------------------------------------------
  free energy    TOTEN  =       -22.01199939 eV

  energy without entropy =      -22.01381600  energy(sigma->0) =      -22.01260493


--------------------------------------------------------------------------------------------------------




--------------------------------------- Iteration      1(  15)  ---------------------------------------


    POTLOK:  cpu time      0.0140: real time      0.0140
    SETDIJ:  cpu time      0.5419: real time      0.5416
     EDDAV:  cpu time      3.8554: real time      4.0182
       DOS:  cpu time      0.0310: real time      0.0306
    CHARGE:  cpu time      0.1580: real time      0.1584
    MIXING:  cpu time      0.0010: real time      0.0007
    --------------------------------------------
      LOOP:  cpu time      4.6013: real time      4.7634

 eigenvalue-minimisations  : 25332
 total energy-change (2. order) : 0.9408368E-06  (-0.4285742E-05)
 number of electron      33.0000000 magnetization       0.6996527
 augmentation part       18.4694063 magnetization       0.6980040

 Broyden mixing:
  rms(total) = 0.35375E-02    rms(broyden)= 0.35375E-02
  rms(prec ) = 0.35718E-02
  weight for this iteration     100.00

 eigenvalues of (default mixing * dielectric matrix)
  average eigenvalue GAMMA=   1.3547
  3.1410  2.5335  2.5335  1.2728  0.9025  0.9025  0.4878  0.6249  0.5744  0.5744

 Free energy of the ion-electron system (eV)
  ---------------------------------------------------
  alpha Z        PSCENC =       237.99577674
  Ewald energy   TEWEN  =     -2761.87861634
  -Hartree energ DENC   =      -825.20115961
  -exchange      EXHF   =         0.00000000
  -V(xc)+E(xc)   XCENC  =        67.28865857
  PAW double counting   =      2872.76164979    -3046.77013848
  entropy T*S    EENTRO =         0.00160345
  eigenvalues    EBANDS =       146.54986686
  atomic energy  EATOM  =      3287.24036057
  Solvation  Ediel_sol  =         0.00000000
  ---------------------------------------------------
  free energy    TOTEN  =       -22.01199845 eV

  energy without entropy =      -22.01360190  energy(sigma->0) =      -22.01253293


--------------------------------------------------------------------------------------------------------




--------------------------------------- Iteration      1(  16)  ---------------------------------------


    POTLOK:  cpu time      0.0120: real time      0.0140
    SETDIJ:  cpu time      0.5419: real time      0.5416
     EDDAV:  cpu time      3.7454: real time      3.9099
       DOS:  cpu time      0.0310: real time      0.0308
    CHARGE:  cpu time      0.1570: real time      0.1576
    MIXING:  cpu time      0.0010: real time      0.0010
    --------------------------------------------
      LOOP:  cpu time      4.4883: real time      4.6549

 eigenvalue-minimisations  : 24324
 total energy-change (2. order) :-0.8173887E-05  (-0.4701608E-05)
 number of electron      33.0000000 magnetization       0.6931728
 augmentation part       18.4690964 magnetization       0.6931736

 Broyden mixing:
  rms(total) = 0.23102E-02    rms(broyden)= 0.23090E-02
  rms(prec ) = 0.23267E-02
  weight for this iteration     100.00

 eigenvalues of (default mixing * dielectric matrix)
  average eigenvalue GAMMA=   1.3467
  2.8893  2.8893  2.5898  1.4796  1.0569  0.9104  0.7126  0.7126  0.6168  0.4877
  0.4690

 Free energy of the ion-electron system (eV)
  ---------------------------------------------------
  alpha Z        PSCENC =       237.99577674
  Ewald energy   TEWEN  =     -2761.87861634
  -Hartree energ DENC   =      -825.18145289
  -exchange      EXHF   =         0.00000000
  -V(xc)+E(xc)   XCENC  =        67.29037959
  PAW double counting   =      2872.73659333    -3046.75446375
  entropy T*S    EENTRO =         0.00185933
  eigenvalues    EBANDS =       146.53755678
  atomic energy  EATOM  =      3287.24036057
  Solvation  Ediel_sol  =         0.00000000
  ---------------------------------------------------
  free energy    TOTEN  =       -22.01200663 eV

  energy without entropy =      -22.01386596  energy(sigma->0) =      -22.01262640


--------------------------------------------------------------------------------------------------------




--------------------------------------- Iteration      1(  17)  ---------------------------------------


    POTLOK:  cpu time      0.0120: real time      0.0140
    SETDIJ:  cpu time      0.5419: real time      0.5418
     EDDAV:  cpu time      3.4635: real time      3.6249
       DOS:  cpu time      0.0310: real time      0.0309
    CHARGE:  cpu time      0.1570: real time      0.1574
    MIXING:  cpu time      0.0010: real time      0.0016
    --------------------------------------------
      LOOP:  cpu time      4.2064: real time      4.3707

 eigenvalue-minimisations  : 21948
 total energy-change (2. order) :-0.4663962E-05  (-0.4941389E-06)
 number of electron      33.0000000 magnetization       0.6932331
 augmentation part       18.4692774 magnetization       0.6927804

 Broyden mixing:
  rms(total) = 0.93338E-04    rms(broyden)= 0.93238E-04
  rms(prec ) = 0.10094E-03
  weight for this iteration     100.00

 eigenvalues of (default mixing * dielectric matrix)
  average eigenvalue GAMMA=   1.3153
  3.1557  2.6779  2.6012  1.6137  1.1294  0.8426  0.7950  0.7950  0.4877  0.6368
  0.5904  0.4582

 Free energy of the ion-electron system (eV)
  ---------------------------------------------------
  alpha Z        PSCENC =       237.99577674
  Ewald energy   TEWEN  =     -2761.87861634
  -Hartree energ DENC   =      -825.18018070
  -exchange      EXHF   =         0.00000000
  -V(xc)+E(xc)   XCENC  =        67.28945004
  PAW double counting   =      2872.74377752    -3046.76342580
  entropy T*S    EENTRO =         0.00179186
  eigenvalues    EBANDS =       146.53905481
  atomic energy  EATOM  =      3287.24036057
  Solvation  Ediel_sol  =         0.00000000
  ---------------------------------------------------
  free energy    TOTEN  =       -22.01201129 eV

  energy without entropy =      -22.01380315  energy(sigma->0) =      -22.01260858


--------------------------------------------------------------------------------------------------------




--------------------------------------- Iteration      1(  18)  ---------------------------------------


    POTLOK:  cpu time      0.0120: real time      0.0138
    SETDIJ:  cpu time      0.5419: real time      0.5413
     EDDAV:  cpu time      2.4526: real time      2.6133
       DOS:  cpu time      0.0300: real time      0.0309
    --------------------------------------------
      LOOP:  cpu time      3.0365: real time      3.1993

 eigenvalue-minimisations  : 11184
 total energy-change (2. order) :-0.7055587E-07  (-0.8189048E-08)
 number of electron      33.0000000 magnetization       0.6932331
 augmentation part       18.4692774 magnetization       0.6927804

 Free energy of the ion-electron system (eV)
  ---------------------------------------------------
  alpha Z        PSCENC =       237.99577674
  Ewald energy   TEWEN  =     -2761.87861634
  -Hartree energ DENC   =      -825.17979042
  -exchange      EXHF   =         0.00000000
  -V(xc)+E(xc)   XCENC  =        67.28946668
  PAW double counting   =      2872.74244696    -3046.76235574
  entropy T*S    EENTRO =         0.00179270
  eigenvalues    EBANDS =       146.53890747
  atomic energy  EATOM  =      3287.24036057
  Solvation  Ediel_sol  =         0.00000000
  ---------------------------------------------------
  free energy    TOTEN  =       -22.01201136 eV

  energy without entropy =      -22.01380406  energy(sigma->0) =      -22.01260893


--------------------------------------------------------------------------------------------------------




 average (electrostatic) potential at core
  the test charge radii are     1.0406  0.9791
  (the norm of the test charge is              1.0000)
       1 -72.4946       2 -40.1205       3 -40.1205       4 -40.1205
 
 
 
 E-fermi :   6.9983     XC(G=0): -13.1013     alpha+bet :-15.1675

 Fermi energy:         6.9983314193

 spin component 1

 k-point     1 :       0.0000    0.0000    0.0000
  band No.  band energies     occupation 
      1      -3.4719      1.00000
      2       2.2442      1.00000
      3       2.9662      1.00000
      4       2.9662      1.00000
      5       3.3528      1.00000
      6       3.3528      1.00000
      7       3.3528      1.00000
      8       5.4870      1.00000
      9       5.4870      1.00000
     10       5.4870      1.00000
     11       6.4014      1.00010
     12       6.4014      1.00010
     13       6.7405      1.03487
     14       6.9509      0.69454
     15       6.9509      0.69454
     16       6.9509      0.69453
     17       7.9037     -0.00000
     18       7.9037     -0.00000
     19       7.9037     -0.00000
     20      13.9979      0.00000
     21      13.9979      0.00000
     22      15.0372      0.00000
     23      19.9687      0.00000
     24      19.9687      0.00000

 k-point     2 :       0.0556    0.0000    0.0000
  band No.  band energies     occupation 
      1      -3.4320      1.00000
      2       2.2589      1.00000
      3       2.9446      1.00000
      4       2.9923      1.00000
      5       3.3602      1.00000
      6       3.3602      1.00000
      7       3.3627      1.00000
      8       5.4642      1.00000
      9       5.4642      1.00000
     10       5.4761      1.00000
     11       6.3777      1.00005
     12       6.4021      1.00010
     13       6.7250      1.03293
     14       6.8306      0.99923
     15       6.8307      0.99923
     16       6.9509      0.69441
     17       7.7336     -0.00000
     18       8.0744     -0.00000
     19       8.0744     -0.00000
     20      13.9914      0.00000
     21      14.1541      0.00000
     22      15.1464      0.00000
     23      19.7849      0.00000
     24      19.7865      0.00000

 k-point     3 :       0.1111    0.0000    0.0000
  band No.  band energies     occupation 
      1      -3.3126      1.00000
      2       2.2962      1.00000
      3       2.8784      1.00000
      4       3.0693      1.00000
      5       3.3819      1.00000
      6       3.3819      1.00000
      7       3.3918      1.00000
      8       5.3983      1.00000
      9       5.3983      1.00000
     10       5.4439      1.00000
     11       6.3031      1.00001
     12       6.4033      1.00011
     13       6.5986      1.00802
     14       6.5986      1.00802
     15       6.6794      1.02331
     16       6.9511      0.69398
     17       7.3119     -0.02456
     18       8.4569     -0.00000
     19       8.4569     -0.00000
     20      13.9720      0.00000
     21      14.4330      0.00000
     22      15.5814      0.00000
     23      19.1356      0.00000
     24      19.1356      0.00000

 k-point     4 :       0.1667    0.0000    0.0000
  band No.  band energies     occupation 
      1      -3.1150      1.00000
      2       2.3214      1.00000
      3       2.7794      1.00000
      4       3.1934      1.00000
      5       3.4169      1.00000
      6       3.4169      1.00000
      7       3.4381      1.00000
      8       5.2968      1.00000
      9       5.2968      1.00000
     10       5.3928      1.00000
     11       6.1601      1.00000
     12       6.3663      1.00004
     13       6.3663      1.00004
     14       6.4023      1.00010
     15       6.6066      1.00911
     16       6.8209      1.00914
     17       6.9512      0.69332
     18       8.9365     -0.00000
     19       8.9365     -0.00000
     20      13.9403      0.00000
     21      14.6190      0.00000
     22      16.3897      0.00000
     23      18.2264      0.00000
     24      18.2264      0.00000

 k-point     5 :       0.2222    0.0000    0.0000
  band No.  band energies     occupation 
      1      -2.8415      1.00000
      2       2.2149      1.00000
      3       2.7344      1.00000
      4       3.3575      1.00000
      5       3.4632      1.00000
      6       3.4632      1.00000
      7       3.4986      1.00000
      8       5.1722      1.00000
      9       5.1722      1.00000
     10       5.3265      1.00000
     11       5.9136      1.00000
     12       6.1629      1.00000
     13       6.1629      1.00000
     14       6.3858      1.00007
     15       6.4348      1.00025
     16       6.5209      1.00189
     17       6.9514      0.69252
     18       9.4784     -0.00000
     19       9.4784     -0.00000
     20      13.8980      0.00000
     21      14.7536      0.00000
     22      17.2682      0.00000
     23      17.2682      0.00000
     24      17.2815      0.00000

 k-point     6 :       0.2778    0.0000    0.0000
  band No.  band energies     occupation 
      1      -2.4959      1.00000
      2       1.8879      1.00000
      3       2.8052      1.00000
      4       3.5174      1.00000
      5       3.5174      1.00000
      6       3.5508      1.00000
      7       3.5682      1.00000
      8       5.0398      1.00000
      9       5.0398      1.00000
     10       5.2506      1.00000
     11       5.6130      1.00000
     12       5.9933      1.00000
     13       5.9934      1.00000
     14       6.1922      1.00000
     15       6.3085      1.00001
     16       6.4712      1.00062
     17       6.9516      0.69169
     18      10.0711     -0.00000
     19      10.0711     -0.00000
     20      13.8483      0.00000
     21      14.8885      0.00000
     22      16.3220      0.00000
     23      16.3220      0.00000
     24      17.5084      0.00000

 k-point     7 :       0.3333    0.0000    0.0000
  band No.  band energies     occupation 
      1      -2.0839      1.00000
      2       1.4088      1.00000
      3       2.9218      1.00000
      4       3.5745      1.00000
      5       3.5745      1.00000
      6       3.6400      1.00000
      7       3.7571      1.00000
      8       4.9152      1.00000
      9       4.9152      1.00000
     10       5.1729      1.00000
     11       5.3748      1.00000
     12       5.8582      1.00000
     13       5.8582      1.00000
     14       6.0126      1.00000
     15       6.1739      1.00000
     16       6.4622      1.00050
     17       6.9519      0.69091
     18      10.7095     -0.00000
     19      10.7095     -0.00000
     20      13.7967      0.00000
     21      15.0428      0.00000
     22      15.4053      0.00000
     23      15.4053      0.00000
     24      17.1556      0.00000

 k-point     8 :       0.3889    0.0000    0.0000
  band No.  band energies     occupation 
      1      -1.6165      1.00000
      2       0.8498      1.00000
      3       3.0359      1.00000
      4       3.6270      1.00000
      5       3.6270      1.00000
      6       3.7044      1.00000
      7       3.9516      1.00000
      8       4.8121      1.00000
      9       4.8121      1.00000
     10       5.1037      1.00000
     11       5.2289      1.00000
     12       5.7586      1.00000
     13       5.7586      1.00000
     14       5.8673      1.00000
     15       6.0300      1.00000
     16       6.4629      1.00051
     17       6.9520      0.69023
     18      11.3909     -0.00000
     19      11.3909     -0.00000
     20      13.7507      0.00000
     21      14.5243      0.00000
     22      14.5243      0.00000
     23      15.2208      0.00000
     24      16.7472      0.00000

 k-point     9 :       0.4444    0.0000    0.0000
  band No.  band energies     occupation 
      1      -1.1239      1.00000
      2       0.2846      1.00000
      3       3.1185      1.00000
      4       3.6652      1.00000
      5       3.6652      1.00000
      6       3.7501      1.00000
      7       4.0981      1.00000
      8       4.7431      1.00000
      9       4.7431      1.00000
     10       5.0548      1.00000
     11       5.1571      1.00000
     12       5.6972      1.00000
     13       5.6972      1.00000
     14       5.7662      1.00000
     15       5.9151      1.00000
     16       6.4648      1.00053
     17       6.9521      0.68978
     18      12.1138     -0.00000
     19      12.1138     -0.00000
     20      13.6816      0.00000
     21      13.6816      0.00000
     22      13.7186      0.00000
     23      15.4047      0.00000
     24      16.4076      0.00000

 k-point    10 :       0.5000    0.0000    0.0000
  band No.  band energies     occupation 
      1      -0.8038      1.00000
      2      -0.0627      1.00000
      3       3.1487      1.00000
      4       3.6794      1.00000
      5       3.6794      1.00000
      6       3.7668      1.00000
      7       4.1542      1.00000
      8       4.7186      1.00000
      9       4.7186      1.00000
     10       5.0369      1.00000
     11       5.1365      1.00000
     12       5.6764      1.00000
     13       5.6764      1.00000
     14       5.7291      1.00000
     15       5.8699      1.00000
     16       6.4655      1.00054
     17       6.9522      0.68964
     18      12.8545      0.00000
     19      12.8545      0.00000
     20      12.9009      0.00000
     21      12.9009      0.00000
     22      13.7071      0.00000
     23      15.5041      0.00000
     24      16.2541      0.00000

 k-point    11 :       0.0556    0.0556    0.0000
  band No.  band energies     occupation 
      1      -3.3921      1.00000
      2       2.2738      1.00000
      3       2.9470      1.00000
      4       2.9944      1.00000
      5       3.3563      1.00000
      6       3.3671      1.00000
      7       3.3839      1.00000
      8       5.4084      1.00000
      9       5.4423      1.00000
     10       5.4995      1.00000
     11       6.3652      1.00004
     12       6.3908      1.00008
     13       6.6892      1.02559
     14       6.7271      1.03325
     15       6.7534      1.03546
     16       6.9325      0.76269
     17       7.8172     -0.00000
     18       7.9906     -0.00000
     19       8.2191     -0.00000
     20      14.0617      0.00000
     21      14.2530      0.00000
     22      15.2405      0.00000
     23      19.3070      0.00000
     24      19.6947      0.00000

 k-point    12 :       0.1111    0.0556    0.0000
  band No.  band energies     occupation 
      1      -3.2729      1.00000
      2       2.3121      1.00000
      3       2.8902      1.00000
      4       3.0615      1.00000
      5       3.3682      1.00000
      6       3.3878      1.00000
      7       3.4231      1.00000
      8       5.3173      1.00000
      9       5.3790      1.00000
     10       5.4965      1.00000
     11       6.2861      1.00000
     12       6.3862      1.00007
     13       6.4676      1.00057
     14       6.5598      1.00409
     15       6.6699      1.02112
     16       6.9224      0.79706
     17       7.4616     -0.00253
     18       8.3051     -0.00000
     19       8.5688     -0.00000
     20      14.0708      0.00000
     21      14.5554      0.00000
     22      15.6343      0.00000
     23      18.5294      0.00000
     24      19.1642      0.00000

 k-point    13 :       0.1667    0.0556    0.0000
  band No.  band energies     occupation 
      1      -3.0757      1.00000
      2       2.3402      1.00000
      3       2.7914      1.00000
      4       3.1831      1.00000
      5       3.3958      1.00000
      6       3.4214      1.00000
      7       3.4775      1.00000
      8       5.2031      1.00000
      9       5.2822      1.00000
     10       5.4642      1.00000
     11       6.0918      1.00000
     12       6.2679      1.00000
     13       6.3440      1.00002
     14       6.3897      1.00007
     15       6.5962      1.00773
     16       6.9199      0.80513
     17       6.9882      0.54299
     18       8.7627     -0.00000
     19       9.0272     -0.00000
     20      14.0471      0.00000
     21      14.7703      0.00000
     22      16.4182      0.00000
     23      17.6478      0.00000
     24      18.2686      0.00000

 k-point    14 :       0.2222    0.0556    0.0000
  band No.  band energies     occupation 
      1      -2.8029      1.00000
      2       2.2380      1.00000
      3       2.7445      1.00000
      4       3.3427      1.00000
      5       3.4371      1.00000
      6       3.4684      1.00000
      7       3.5434      1.00000
      8       5.0773      1.00000
      9       5.1634      1.00000
     10       5.4058      1.00000
     11       5.8107      1.00000
     12       6.1100      1.00000
     13       6.1469      1.00000
     14       6.3741      1.00005
     15       6.5034      1.00130
     16       6.5985      1.00801
     17       6.9194      0.80682
     18       9.2789     -0.00000
     19       9.5555     -0.00000
     20      14.0062      0.00000
     21      14.9198      0.00000
     22      16.7160      0.00000
     23      17.3099      0.00000
     24      17.3843      0.00000

 k-point    15 :       0.2778    0.0556    0.0000
  band No.  band energies     occupation 
      1      -2.4579      1.00000
      2       1.9134      1.00000
      3       2.8159      1.00000
      4       3.4894      1.00000
      5       3.4901      1.00000
      6       3.5644      1.00000
      7       3.6150      1.00000
      8       4.9538      1.00000
      9       5.0338      1.00000
     10       5.3253      1.00000
     11       5.5377      1.00000
     12       5.9493      1.00000
     13       5.9816      1.00000
     14       6.2756      1.00000
     15       6.3391      1.00002
     16       6.4599      1.00047
     17       6.9195      0.80657
     18       9.8394     -0.00000
     19      10.1388     -0.00000
     20      13.9440      0.00000
     21      15.0670      0.00000
     22      15.8709      0.00000
     23      16.3634      0.00000
     24      17.7464      0.00000

 k-point    16 :       0.3333    0.0556    0.0000
  band No.  band energies     occupation 
      1      -2.0469      1.00000
      2       1.4367      1.00000
      3       2.9339      1.00000
      4       3.5483      1.00000
      5       3.5544      1.00000
      6       3.6834      1.00000
      7       3.7586      1.00000
      8       4.8473      1.00000
      9       4.9035      1.00000
     10       5.2300      1.00000
     11       5.3398      1.00000
     12       5.8010      1.00000
     13       5.8529      1.00000
     14       6.0988      1.00000
     15       6.1893      1.00000
     16       6.4488      1.00036
     17       6.9198      0.80571
     18      10.4374     -0.00000
     19      10.7704     -0.00000
     20      13.8372      0.00000
     21      15.0871      0.00000
     22      15.2392      0.00000
     23      15.4473      0.00000
     24      17.4236      0.00000

 k-point    17 :       0.3889    0.0556    0.0000
  band No.  band energies     occupation 
      1      -1.5808      1.00000
      2       0.8801      1.00000
      3       3.0502      1.00000
      4       3.6015      1.00000
      5       3.6076      1.00000
      6       3.7371      1.00000
      7       3.9544      1.00000
      8       4.7710      1.00000
      9       4.7880      1.00000
     10       5.1330      1.00000
     11       5.2297      1.00000
     12       5.6799      1.00000
     13       5.7619      1.00000
     14       5.9578      1.00000
     15       6.0439      1.00000
     16       6.4497      1.00037
     17       6.9200      0.80485
     18      11.0676     -0.00000
     19      11.4466     -0.00000
     20      13.5897      0.00000
     21      14.4952      0.00000
     22      14.5677      0.00000
     23      15.4309      0.00000
     24      17.0058      0.00000

 k-point    18 :       0.4444    0.0556    0.0000
  band No.  band energies     occupation 
      1      -1.0902      1.00000
      2       0.3177      1.00000
      3       3.1353      1.00000
      4       3.6328      1.00000
      5       3.6564      1.00000
      6       3.7664      1.00000
      7       4.1063      1.00000
      8       4.7062      1.00000
      9       4.7309      1.00000
     10       5.0554      1.00000
     11       5.1821      1.00000
     12       5.5976      1.00000
     13       5.7079      1.00000
     14       5.8710      1.00000
     15       5.9248      1.00000
     16       6.4518      1.00038
     17       6.9202      0.80425
     18      11.7225     -0.00000
     19      12.1655     -0.00000
     20      13.0741      0.00000
     21      13.7269      0.00000
     22      14.2264      0.00000
     23      15.6337      0.00000
     24      16.6489      0.00000

 k-point    19 :       0.5000    0.0556    0.0000
  band No.  band energies     occupation 
      1      -0.7723      1.00000
      2      -0.0271      1.00000
      3       3.1668      1.00000
      4       3.6438      1.00000
      5       3.6769      1.00000
      6       3.7737      1.00000
      7       4.1664      1.00000
      8       4.6752      1.00000
      9       4.7202      1.00000
     10       5.0245      1.00000
     11       5.1699      1.00000
     12       5.5678      1.00000
     13       5.6900      1.00000
     14       5.8473      1.00000
     15       5.8718      1.00000
     16       6.4527      1.00039
     17       6.9203      0.80405
     18      12.2989     -0.00000
     19      12.5148      0.00000
     20      12.9160      0.00000
     21      12.9357      0.00000
     22      14.1656      0.00000
     23      15.7461      0.00000
     24      16.4828      0.00000

 k-point    20 :       0.1111    0.1111    0.0000
  band No.  band energies     occupation 
      1      -3.1545      1.00000
      2       2.3543      1.00000
      3       2.8870      1.00000
      4       3.0729      1.00000
      5       3.3679      1.00000
      6       3.4054      1.00000
      7       3.4755      1.00000
      8       5.1955      1.00000
      9       5.3243      1.00000
     10       5.5359      1.00000
     11       6.1291      1.00000
     12       6.3221      1.00001
     13       6.3594      1.00003
     14       6.4422      1.00030
     15       6.6279      1.01252
     16       6.8775      0.92193
     17       7.6092     -0.00007
     18       8.0915     -0.00000
     19       8.8635     -0.00000
     20      14.1517      0.00000
     21      14.9638      0.00000
     22      15.8734      0.00000
     23      17.6388      0.00000
     24      19.1340      0.00000

 k-point    21 :       0.1667    0.1111    0.0000
  band No.  band energies     occupation 
      1      -2.9585      1.00000
      2       2.3925      1.00000
      3       2.8102      1.00000
      4       3.1630      1.00000
      5       3.3845      1.00000
      6       3.4356      1.00000
      7       3.5425      1.00000
      8       5.0601      1.00000
      9       5.2428      1.00000
     10       5.5429      1.00000
     11       5.8517      1.00000
     12       6.2206      1.00000
     13       6.2728      1.00000
     14       6.3500      1.00002
     15       6.5565      1.00384
     16       6.8513      0.97157
     17       7.2631     -0.03414
     18       8.3714     -0.00000
     19       9.2781     -0.00000
     20      14.1497      0.00000
     21      15.3106      0.00000
     22      16.5168      0.00000
     23      16.7460      0.00000
     24      18.3925      0.00000

 k-point    22 :       0.2222    0.1111    0.0000
  band No.  band energies     occupation 
      1      -2.6873      1.00000
      2       2.3055      1.00000
      3       2.7631      1.00000
      4       3.3031      1.00000
      5       3.4166      1.00000
      6       3.4840      1.00000
      7       3.6194      1.00000
      8       4.9245      1.00000
      9       5.1420      1.00000
     10       5.5138      1.00000
     11       5.5778      1.00000
     12       6.0855      1.00000
     13       6.0958      1.00000
     14       6.3379      1.00002
     15       6.4650      1.00053
     16       6.8392      0.98890
     17       6.8576      0.96120
     18       8.8151     -0.00000
     19       9.7744     -0.00000
     20      14.0864      0.00000
     21      15.4977      0.00000
     22      15.9005      0.00000
     23      17.4327      0.00000
     24      17.4555      0.00000

 k-point    23 :       0.2778    0.1111    0.0000
  band No.  band energies     occupation 
      1      -2.3447      1.00000
      2       1.9884      1.00000
      3       2.8387      1.00000
      4       3.4313      1.00000
      5       3.4623      1.00000
      6       3.5841      1.00000
      7       3.6979      1.00000
      8       4.8040      1.00000
      9       5.0159      1.00000
     10       5.3659      1.00000
     11       5.4423      1.00000
     12       5.9244      1.00000
     13       5.9443      1.00000
     14       6.2626      1.00000
     15       6.4056      1.00011
     16       6.5526      1.00357
     17       6.8338      0.99564
     18       9.3070     -0.00000
     19      10.3339     -0.00000
     20      13.9016      0.00000
     21      15.1958      0.00000
     22      15.6983      0.00000
     23      16.4852      0.00000
     24      18.0018      0.00000

 k-point    24 :       0.3333    0.1111    0.0000
  band No.  band energies     occupation 
      1      -1.9367      1.00000
      2       1.5186      1.00000
      3       2.9626      1.00000
      4       3.4966      1.00000
      5       3.5188      1.00000
      6       3.7629      1.00000
      7       3.7646      1.00000
      8       4.7169      1.00000
      9       4.8636      1.00000
     10       5.2576      1.00000
     11       5.3276      1.00000
     12       5.7579      1.00000
     13       5.8370      1.00000
     14       6.1232      1.00000
     15       6.3196      1.00001
     16       6.4130      1.00014
     17       6.8313      0.99846
     18       9.8315     -0.00000
     19      10.9472     -0.00000
     20      13.4844      0.00000
     21      14.8093      0.00000
     22      15.5713      0.00000
     23      15.8819      0.00000
     24      17.7889      0.00000

 k-point    25 :       0.3889    0.1111    0.0000
  band No.  band energies     occupation 
      1      -1.4746      1.00000
      2       0.9698      1.00000
      3       3.0869      1.00000
      4       3.5293      1.00000
      5       3.5813      1.00000
      6       3.8023      1.00000
      7       3.9596      1.00000
      8       4.6812      1.00000
      9       4.7229      1.00000
     10       5.1876      1.00000
     11       5.2264      1.00000
     12       5.6088      1.00000
     13       5.7715      1.00000
     14       5.9917      1.00000
     15       6.1572      1.00000
     16       6.4109      1.00013
     17       6.8303      0.99962
     18      10.3835     -0.00000
     19      11.6090     -0.00000
     20      12.8862      0.00000
     21      14.6556      0.00000
     22      14.6960      0.00000
     23      16.0972      0.00000
     24      17.4151      0.00000

 k-point    26 :       0.4444    0.1111    0.0000
  band No.  band energies     occupation 
      1      -0.9897      1.00000
      2       0.4156      1.00000
      3       3.1822      1.00000
      4       3.5413      1.00000
      5       3.6402      1.00000
      6       3.8041      1.00000
      7       4.1243      1.00000
      8       4.6194      1.00000
      9       4.6993      1.00000
     10       5.0560      1.00000
     11       5.2320      1.00000
     12       5.4989      1.00000
     13       5.7368      1.00000
     14       5.9043      1.00000
     15       6.0366      1.00000
     16       6.4134      1.00014
     17       6.8299      1.00007
     18      10.9570     -0.00000
     19      12.2482     -0.00000
     20      12.3161     -0.00000
     21      13.8614      0.00000
     22      14.6012      0.00000
     23      16.3321      0.00000
     24      17.0699      0.00000

 k-point    27 :       0.5000    0.1111    0.0000
  band No.  band energies     occupation 
      1      -0.6786      1.00000
      2       0.0787      1.00000
      3       3.2193      1.00000
      4       3.5424      1.00000
      5       3.6697      1.00000
      6       3.7939      1.00000
      7       4.1961      1.00000
      8       4.5752      1.00000
      9       4.7251      1.00000
     10       4.9921      1.00000
     11       5.2405      1.00000
     12       5.4557      1.00000
     13       5.7258      1.00000
     14       5.8755      1.00000
     15       5.9889      1.00000
     16       6.4146      1.00015
     17       6.8298      1.00018
     18      11.4271     -0.00000
     19      11.7525     -0.00000
     20      13.0399      0.00000
     21      13.0952      0.00000
     22      14.5874      0.00000
     23      16.4906      0.00000
     24      16.8740      0.00000

 k-point    28 :       0.1667    0.1667    0.0000
  band No.  band energies     occupation 
      1      -2.7645      1.00000
      2       2.4571      1.00000
      3       2.7794      1.00000
      4       3.1800      1.00000
      5       3.3905      1.00000
      6       3.4628      1.00000
      7       3.6228      1.00000
      8       4.9092      1.00000
      9       5.1889      1.00000
     10       5.5717      1.00000
     11       5.5931      1.00000
     12       6.1520      1.00000
     13       6.1718      1.00000
     14       6.3089      1.00001
     15       6.4882      1.00092
     16       6.7873      1.02995
     17       7.3662     -0.01296
     18       8.1207     -0.00000
     19       9.6488     -0.00000
     20      14.1209      0.00000
     21      15.8693      0.00000
     22      16.0150      0.00000
     23      16.8312      0.00000
     24      18.5462      0.00000

 k-point    29 :       0.2222    0.1667    0.0000
  band No.  band energies     occupation 
      1      -2.4962      1.00000
      2       2.4111      1.00000
      3       2.7415      1.00000
      4       3.2647      1.00000
      5       3.4133      1.00000
      6       3.5123      1.00000
      7       3.7125      1.00000
      8       4.7649      1.00000
      9       5.1201      1.00000
     10       5.3187      1.00000
     11       5.6040      1.00000
     12       6.0034      1.00000
     13       6.0672      1.00000
     14       6.2866      1.00000
     15       6.3979      1.00009
     16       6.7449      1.03520
     17       7.0876      0.16087
     18       8.3312     -0.00000
     19      10.1083     -0.00000
     20      13.8987      0.00000
     21      15.2120      0.00000
     22      16.4112      0.00000
     23      17.5679      0.00000
     24      17.6277      0.00000

 k-point    30 :       0.2778    0.1667    0.0000
  band No.  band energies     occupation 
      1      -2.1575      1.00000
      2       2.1074      1.00000
      3       2.8348      1.00000
      4       3.3627      1.00000
      5       3.4514      1.00000
      6       3.6097      1.00000
      7       3.8006      1.00000
      8       4.6445      1.00000
      9       4.9707      1.00000
     10       5.1969      1.00000
     11       5.5498      1.00000
     12       5.8768      1.00000
     13       5.9192      1.00000
     14       6.2214      1.00000
     15       6.3384      1.00002
     16       6.7203      1.03213
     17       6.7620      1.03516
     18       8.7189     -0.00000
     19      10.6375     -0.00000
     20      13.3778      0.00000
     21      14.9069      0.00000
     22      16.6284      0.00000
     23      16.6793      0.00000
     24      18.1834      0.00000

 k-point    31 :       0.3333    0.1667    0.0000
  band No.  band energies     occupation 
      1      -1.7547      1.00000
      2       1.6498      1.00000
      3       2.9725      1.00000
      4       3.4205      1.00000
      5       3.5028      1.00000
      6       3.7711      1.00000
      7       3.8654      1.00000
      8       4.5737      1.00000
      9       4.7832      1.00000
     10       5.1886      1.00000
     11       5.4118      1.00000
     12       5.7509      1.00000
     13       5.8127      1.00000
     14       6.0940      1.00000
     15       6.3328      1.00001
     16       6.5083      1.00144
     17       6.7066      1.02944
     18       9.1620     -0.00000
     19      11.2258     -0.00000
     20      12.6968      0.00000
     21      14.8280      0.00000
     22      15.7703      0.00000
     23      16.8184      0.00000
     24      18.1035      0.00000

 k-point    32 :       0.3889    0.1667    0.0000
  band No.  band energies     occupation 
      1      -1.2995      1.00000
      2       1.1147      1.00000
      3       3.1118      1.00000
      4       3.4368      1.00000
      5       3.5638      1.00000
      6       3.8813      1.00000
      7       3.9621      1.00000
      8       4.5804      1.00000
      9       4.6319      1.00000
     10       5.2194      1.00000
     11       5.2316      1.00000
     12       5.5866      1.00000
     13       5.7876      1.00000
     14       5.9745      1.00000
     15       6.2978      1.00000
     16       6.3566      1.00003
     17       6.6991      1.02782
     18       9.6414     -0.00000
     19      11.8664     -0.00000
     20      12.0059     -0.00000
     21      14.8252      0.00000
     22      14.9033      0.00000
     23      16.9934      0.00000
     24      17.8336      0.00000

 k-point    33 :       0.4444    0.1667    0.0000
  band No.  band energies     occupation 
      1      -0.8244      1.00000
      2       0.5751      1.00000
      3       3.2333      1.00000
      4       3.4164      1.00000
      5       3.6253      1.00000
      6       3.8518      1.00000
      7       4.1386      1.00000
      8       4.5175      1.00000
      9       4.6599      1.00000
     10       5.0537      1.00000
     11       5.2683      1.00000
     12       5.4495      1.00000
     13       5.7767      1.00000
     14       5.8982      1.00000
     15       6.1744      1.00000
     16       6.3512      1.00002
     17       6.6954      1.02700
     18      10.1527     -0.00000
     19      11.3577     -0.00000
     20      12.5543      0.00000
     21      14.0807      0.00000
     22      14.8401      0.00000
     23      17.1272      0.00000
     24      17.6304      0.00000

 k-point    34 :       0.5000    0.1667    0.0000
  band No.  band energies     occupation 
      1      -0.5247      1.00000
      2       0.2511      1.00000
      3       3.3016      1.00000
      4       3.3832      1.00000
      5       3.6580      1.00000
      6       3.8263      1.00000
      7       4.2299      1.00000
      8       4.4559      1.00000
      9       4.7331      1.00000
     10       4.9502      1.00000
     11       5.3131      1.00000
     12       5.3726      1.00000
     13       5.7735      1.00000
     14       5.8749      1.00000
     15       6.1233      1.00000
     16       6.3523      1.00002
     17       6.6943      1.02674
     18      10.5888     -0.00000
     19      10.8746     -0.00000
     20      13.2130      0.00000
     21      13.3773      0.00000
     22      14.8478      0.00000
     23      17.1795      0.00000
     24      17.5567      0.00000

 k-point    35 :       0.2222    0.2222    0.0000
  band No.  band energies     occupation 
      1      -2.2322      1.00000
      2       2.5210      1.00000
      3       2.6160      1.00000
      4       3.2793      1.00000
      5       3.4272      1.00000
      6       3.5622      1.00000
      7       3.8172      1.00000
      8       4.6133      1.00000
      9       5.0643      1.00000
     10       5.1170      1.00000
     11       5.6657      1.00000
     12       5.8730      1.00000
     13       6.0145      1.00000
     14       6.2414      1.00000
     15       6.3054      1.00001
     16       6.6643      1.01986
     17       7.1301      0.05538
     18       8.1005     -0.00000
     19      10.5326     -0.00000
     20      13.3350      0.00000
     21      14.9312      0.00000
     22      17.2986      0.00000
     23      17.7673      0.00000
     24      17.7951      0.00000

 k-point    36 :       0.2778    0.2222    0.0000
  band No.  band energies     occupation 
      1      -1.8993      1.00000
      2       2.2604      1.00000
      3       2.7166      1.00000
      4       3.3399      1.00000
      5       3.4571      1.00000
      6       3.6499      1.00000
      7       3.9198      1.00000
      8       4.4888      1.00000
      9       4.8452      1.00000
     10       5.1316      1.00000
     11       5.6330      1.00000
     12       5.7795      1.00000
     13       5.9054      1.00000
     14       6.1694      1.00000
     15       6.2436      1.00000
     16       6.6070      1.00917
     17       6.9135      0.82558
     18       8.2509     -0.00000
     19      11.0304     -0.00000
     20      12.5880      0.00000
     21      14.8926      0.00000
     22      16.9221      0.00000
     23      17.6516      0.00000
     24      18.2410      0.00000

 k-point    37 :       0.3333    0.2222    0.0000
  band No.  band energies     occupation 
      1      -1.5041      1.00000
      2       1.8212      1.00000
      3       2.8726      1.00000
      4       3.3938      1.00000
      5       3.5014      1.00000
      6       3.7880      1.00000
      7       3.9832      1.00000
      8       4.4324      1.00000
      9       4.6670      1.00000
     10       5.1723      1.00000
     11       5.4550      1.00000
     12       5.7561      1.00000
     13       5.7912      1.00000
     14       6.0446      1.00000
     15       6.2437      1.00000
     16       6.5699      1.00492
     17       6.6564      1.01812
     18       8.5744     -0.00000
     19      11.5905     -0.00000
     20      11.8362     -0.00000
     21      14.9343      0.00000
     22      16.0298      0.00000
     23      17.7125      0.00000
     24      18.5633      0.00000

 k-point    38 :       0.3889    0.2222    0.0000
  band No.  band energies     occupation 
      1      -1.0590      1.00000
      2       1.3073      1.00000
      3       3.0159      1.00000
      4       3.4176      1.00000
      5       3.5565      1.00000
      6       3.9611      1.00000
      7       3.9649      1.00000
      8       4.4897      1.00000
      9       4.5325      1.00000
     10       5.2267      1.00000
     11       5.2488      1.00000
     12       5.5957      1.00000
     13       5.8092      1.00000
     14       5.9368      1.00000
     15       6.2516      1.00000
     16       6.4478      1.00035
     17       6.5474      1.00323
     18       8.9686     -0.00000
     19      11.1356     -0.00000
     20      12.2053     -0.00000
     21      14.9985      0.00000
     22      15.1789      0.00000
     23      17.6206      0.00000
     24      18.6259      0.00000

 k-point    39 :       0.4444    0.2222    0.0000
  band No.  band energies     occupation 
      1      -0.5982      1.00000
      2       0.7897      1.00000
      3       3.1256      1.00000
      4       3.4132      1.00000
      5       3.6133      1.00000
      6       3.9032      1.00000
      7       4.1366      1.00000
      8       4.4240      1.00000
      9       4.6262      1.00000
     10       5.0455      1.00000
     11       5.2825      1.00000
     12       5.4558      1.00000
     13       5.8199      1.00000
     14       5.8755      1.00000
     15       6.2568      1.00000
     16       6.3044      1.00001
     17       6.5355      1.00255
     18       9.4136     -0.00000
     19      10.5040     -0.00000
     20      12.8671      0.00000
     21      14.3764      0.00000
     22      15.0541      0.00000
     23      17.4867      0.00000
     24      18.7143      0.00000

 k-point    40 :       0.5000    0.2222    0.0000
  band No.  band energies     occupation 
      1      -0.3139      1.00000
      2       0.4839      1.00000
      3       3.1709      1.00000
      4       3.4036      1.00000
      5       3.6429      1.00000
      6       3.8683      1.00000
      7       4.2564      1.00000
      8       4.3369      1.00000
      9       4.7443      1.00000
     10       4.9082      1.00000
     11       5.3300      1.00000
     12       5.3740      1.00000
     13       5.8232      1.00000
     14       5.8602      1.00000
     15       6.2411      1.00000
     16       6.2668      1.00000
     17       6.5317      1.00236
     18       9.8316     -0.00000
     19      10.0233     -0.00000
     20      13.4543      0.00000
     21      13.7425      0.00000
     22      15.0763      0.00000
     23      17.4290      0.00000
     24      18.7580      0.00000

 k-point    41 :       0.2778    0.2778    0.0000
  band No.  band energies     occupation 
      1      -1.5743      1.00000
      2       2.3986      1.00000
      3       2.4686      1.00000
      4       3.3839      1.00000
      5       3.4783      1.00000
      6       3.7172      1.00000
      7       4.0468      1.00000
      8       4.3511      1.00000
      9       4.6837      1.00000
     10       5.1511      1.00000
     11       5.5952      1.00000
     12       5.7462      1.00000
     13       5.8538      1.00000
     14       6.0977      1.00000
     15       6.1582      1.00000
     16       6.5126      1.00158
     17       6.9034      0.85586
     18       8.0611     -0.00000
     19      11.4974     -0.00000
     20      11.7761     -0.00000
     21      14.9677      0.00000
     22      17.0022      0.00000
     23      17.5605      0.00000
     24      18.2681      0.00000

 k-point    42 :       0.3333    0.2778    0.0000
  band No.  band energies     occupation 
      1      -1.1896      1.00000
      2       2.0168      1.00000
      3       2.6147      1.00000
      4       3.4435      1.00000
      5       3.5133      1.00000
      6       3.8235      1.00000
      7       4.1123      1.00000
      8       4.3046      1.00000
      9       4.5452      1.00000
     10       5.2035      1.00000
     11       5.4265      1.00000
     12       5.7494      1.00000
     13       5.7948      1.00000
     14       5.9783      1.00000
     15       6.1399      1.00000
     16       6.4432      1.00031
     17       6.7325      1.03401
     18       8.1691     -0.00000
     19      11.0169     -0.00000
     20      12.0279     -0.00000
     21      15.0754      0.00000
     22      16.3112      0.00000
     23      17.7331      0.00000
     24      18.1851      0.00000

 k-point    43 :       0.3889    0.2778    0.0000
  band No.  band energies     occupation 
      1      -0.7584      1.00000
      2       1.5347      1.00000
      3       2.7660      1.00000
      4       3.4844      1.00000
      5       3.5583      1.00000
      6       3.9646      1.00000
      7       4.0355      1.00000
      8       4.4341      1.00000
      9       4.4404      1.00000
     10       5.2305      1.00000
     11       5.2629      1.00000
     12       5.6116      1.00000
     13       5.8351      1.00000
     14       5.8780      1.00000
     15       6.1441      1.00000
     16       6.3965      1.00009
     17       6.5375      1.00265
     18       8.4367     -0.00000
     19      10.3351     -0.00000
     20      12.6137      0.00000
     21      15.1886      0.00000
     22      15.5026      0.00000
     23      17.9570      0.00000
     24      18.0741      0.00000

 k-point    44 :       0.4444    0.2778    0.0000
  band No.  band energies     occupation 
      1      -0.3168      1.00000
      2       1.0482      1.00000
      3       2.8709      1.00000
      4       3.5023      1.00000
      5       3.6037      1.00000
      6       3.9522      1.00000
      7       4.1161      1.00000
      8       4.3537      1.00000
      9       4.6104      1.00000
     10       5.0280      1.00000
     11       5.3096      1.00000
     12       5.4830      1.00000
     13       5.8294      1.00000
     14       5.8602      1.00000
     15       6.1524      1.00000
     16       6.3696      1.00004
     17       6.3905      1.00007
     18       8.7921     -0.00000
     19       9.7399     -0.00000
     20      13.2435      0.00000
     21      14.7331      0.00000
     22      15.2789      0.00000
     23      17.7558      0.00000
     24      18.3684      0.00000

 k-point    45 :       0.5000    0.2778    0.0000
  band No.  band energies     occupation 
      1      -0.0517      1.00000
      2       0.7658      1.00000
      3       2.9086      1.00000
      4       3.5063      1.00000
      5       3.6258      1.00000
      6       3.9164      1.00000
      7       4.2337      1.00000
      8       4.2684      1.00000
      9       4.7583      1.00000
     10       4.8717      1.00000
     11       5.3348      1.00000
     12       5.4200      1.00000
     13       5.8209      1.00000
     14       5.8687      1.00000
     15       6.1569      1.00000
     16       6.3327      1.00001
     17       6.3607      1.00003
     18       9.1797     -0.00000
     19       9.2728     -0.00000
     20      13.7626      0.00000
     21      14.1671      0.00000
     22      15.3143      0.00000
     23      17.6779      0.00000
     24      18.4919      0.00000

 k-point    46 :       0.3333    0.3333    0.0000
  band No.  band energies     occupation 
      1      -0.8188      1.00000
      2       2.1554      1.00000
      3       2.3047      1.00000
      4       3.5095      1.00000
      5       3.5366      1.00000
      6       3.8904      1.00000
      7       4.1524      1.00000
      8       4.2947      1.00000
      9       4.4422      1.00000
     10       5.2630      1.00000
     11       5.3235      1.00000
     12       5.7053      1.00000
     13       5.8255      1.00000
     14       5.8915      1.00000
     15       6.0575      1.00000
     16       6.3399      1.00002
     17       6.6881      1.02532
     18       8.0209     -0.00000
     19      10.2771     -0.00000
     20      12.5280      0.00000
     21      15.2342      0.00000
     22      16.3846      0.00000
     23      17.1724      0.00000
     24      18.3301      0.00000

 k-point    47 :       0.3889    0.3333    0.0000
  band No.  band energies     occupation 
      1      -0.4061      1.00000
      2       1.7748      1.00000
      3       2.4272      1.00000
      4       3.5527      1.00000
      5       3.5670      1.00000
      6       3.9910      1.00000
      7       4.0624      1.00000
      8       4.3658      1.00000
      9       4.4483      1.00000
     10       5.1723      1.00000
     11       5.3262      1.00000
     12       5.6135      1.00000
     13       5.8008      1.00000
     14       5.8636      1.00000
     15       6.0256      1.00000
     16       6.2641      1.00000
     17       6.5597      1.00408
     18       8.1029     -0.00000
     19       9.6348     -0.00000
     20      13.0821      0.00000
     21      15.3911      0.00000
     22      15.8250      0.00000
     23      17.3015      0.00000
     24      18.2169      0.00000

 k-point    48 :       0.4444    0.3333    0.0000
  band No.  band energies     occupation 
      1       0.0110      1.00000
      2       1.3319      1.00000
      3       2.5550      1.00000
      4       3.5701      1.00000
      5       3.5959      1.00000
      6       3.9922      1.00000
      7       4.1026      1.00000
      8       4.3068      1.00000
      9       4.6219      1.00000
     10       4.9975      1.00000
     11       5.3677      1.00000
     12       5.5060      1.00000
     13       5.7582      1.00000
     14       5.8941      1.00000
     15       6.0205      1.00000
     16       6.2163      1.00000
     17       6.4384      1.00027
     18       8.3309     -0.00000
     19       9.0975     -0.00000
     20      13.6756      0.00000
     21      15.1241      0.00000
     22      15.5141      0.00000
     23      17.5720      0.00000
     24      18.0334      0.00000

 k-point    49 :       0.5000    0.3333    0.0000
  band No.  band energies     occupation 
      1       0.2539      1.00000
      2       1.0777      1.00000
      3       2.6024      1.00000
      4       3.5737      1.00000
      5       3.6088      1.00000
      6       3.9652      1.00000
      7       4.1705      1.00000
      8       4.2660      1.00000
      9       4.7745      1.00000
     10       4.8435      1.00000
     11       5.3844      1.00000
     12       5.4519      1.00000
     13       5.7537      1.00000
     14       5.9060      1.00000
     15       6.0208      1.00000
     16       6.1994      1.00000
     17       6.3887      1.00007
     18       8.6527     -0.00000
     19       8.6758     -0.00000
     20      14.1366      0.00000
     21      14.6219      0.00000
     22      15.5622      0.00000
     23      17.6945      0.00000
     24      17.9541      0.00000

 k-point    50 :       0.3889    0.3889    0.0000
  band No.  band energies     occupation 
      1      -0.0173      1.00000
      2       1.9352      1.00000
      3       2.1004      1.00000
      4       3.5792      1.00000
      5       3.5800      1.00000
      6       4.0451      1.00000
      7       4.0535      1.00000
      8       4.3126      1.00000
      9       4.5361      1.00000
     10       5.0758      1.00000
     11       5.3984      1.00000
     12       5.5810      1.00000
     13       5.7186      1.00000
     14       5.8929      1.00000
     15       5.9295      1.00000
     16       6.1612      1.00000
     17       6.5110      1.00153
     18       7.9889     -0.00000
     19       9.0526     -0.00000
     20      13.6018      0.00000
     21      15.5868      0.00000
     22      15.9287      0.00000
     23      16.8086      0.00000
     24      18.3606      0.00000

 k-point    51 :       0.4444    0.3889    0.0000
  band No.  band energies     occupation 
      1       0.3700      1.00000
      2       1.6075      1.00000
      3       2.2021      1.00000
      4       3.5733      1.00000
      5       3.5900      1.00000
      6       4.0191      1.00000
      7       4.1308      1.00000
      8       4.2759      1.00000
      9       4.6637      1.00000
     10       4.9502      1.00000
     11       5.4466      1.00000
     12       5.5133      1.00000
     13       5.6729      1.00000
     14       5.8834      1.00000
     15       5.9199      1.00000
     16       6.0922      1.00000
     17       6.4381      1.00027
     18       8.0582     -0.00000
     19       8.5967     -0.00000
     20      14.1563      0.00000
     21      15.4919      0.00000
     22      15.7389      0.00000
     23      16.8598      0.00000
     24      18.3207      0.00000

 k-point    52 :       0.5000    0.3889    0.0000
  band No.  band energies     occupation 
      1       0.5898      1.00000
      2       1.3861      1.00000
      3       2.2646      1.00000
      4       3.5652      1.00000
      5       3.5945      1.00000
      6       4.0080      1.00000
      7       4.1732      1.00000
      8       4.2554      1.00000
      9       4.7910      1.00000
     10       4.8241      1.00000
     11       5.4627      1.00000
     12       5.4700      1.00000
     13       5.6686      1.00000
     14       5.8723      1.00000
     15       5.9332      1.00000
     16       6.0654      1.00000
     17       6.4038      1.00011
     18       8.2637     -0.00000
     19       8.2682     -0.00000
     20      14.5745      0.00000
     21      15.0629      0.00000
     22      15.7984      0.00000
     23      16.9542      0.00000
     24      18.2694      0.00000

 k-point    53 :       0.4444    0.4444    0.0000
  band No.  band energies     occupation 
      1       0.7248      1.00000
      2       1.7839      1.00000
      3       1.8894      1.00000
      4       3.5286      1.00000
      5       3.5862      1.00000
      6       4.0334      1.00000
      7       4.1859      1.00000
      8       4.2558      1.00000
      9       4.7298      1.00000
     10       4.8857      1.00000
     11       5.4916      1.00000
     12       5.5164      1.00000
     13       5.6087      1.00000
     14       5.7863      1.00000
     15       5.9383      1.00000
     16       6.0093      1.00000
     17       6.4073      1.00012
     18       7.9688     -0.00000
     19       8.2443     -0.00000
     20      14.6716      0.00000
     21      15.6483      0.00000
     22      15.9122      0.00000
     23      16.3580      0.00000
     24      18.5514      0.00000

 k-point    54 :       0.5000    0.4444    0.0000
  band No.  band energies     occupation 
      1       0.9251      1.00000
      2       1.6319      1.00000
      3       1.9269      1.00000
      4       3.5010      1.00000
      5       3.5848      1.00000
      6       4.0377      1.00000
      7       4.2168      1.00000
      8       4.2450      1.00000
      9       4.8041      1.00000
     10       4.8129      1.00000
     11       5.4688      1.00000
     12       5.5393      1.00000
     13       5.5955      1.00000
     14       5.7555      1.00000
     15       5.9498      1.00000
     16       5.9755      1.00000
     17       6.3883      1.00007
     18       8.0340     -0.00000
     19       8.0378     -0.00000
     20      15.0731      0.00000
     21      15.4128      0.00000
     22      15.9796      0.00000
     23      16.2743      0.00000
     24      18.6194      0.00000

 k-point    55 :       0.5000    0.5000    0.0000
  band No.  band energies     occupation 
      1       1.1207      1.00000
      2       1.7303      1.00000
      3       1.7303      1.00000
      4       3.4632      1.00000
      5       3.5815      1.00000
      6       4.0483      1.00000
      7       4.2408      1.00000
      8       4.2408      1.00000
      9       4.8093      1.00000
     10       4.8093      1.00000
     11       5.4573      1.00000
     12       5.5726      1.00000
     13       5.5726      1.00000
     14       5.7122      1.00000
     15       5.9437      1.00000
     16       5.9553      1.00000
     17       6.3753      1.00005
     18       7.9620     -0.00000
     19       7.9620     -0.00000
     20      15.5536      0.00000
     21      15.5536      0.00000
     22      15.7335      0.00000
     23      16.0498      0.00000
     24      18.8717      0.00000

 k-point    56 :       0.0556    0.0556    0.0556
  band No.  band energies     occupation 
      1      -3.3523      1.00000
      2       2.2889      1.00000
      3       2.9730      1.00000
      4       2.9730      1.00000
      5       3.3491      1.00000
      6       3.3912      1.00000
      7       3.3912      1.00000
      8       5.3448      1.00000
      9       5.4761      1.00000
     10       5.4761      1.00000
     11       6.3657      1.00004
     12       6.3657      1.00004
     13       6.6404      1.01483
     14       6.6404      1.01484
     15       6.6888      1.02548
     16       6.9207      0.80265
     17       7.8974     -0.00000
     18       8.1230     -0.00000
     19       8.1230     -0.00000
     20      14.2487      0.00000
     21      14.2487      0.00000
     22      15.3257      0.00000
     23      19.1259      0.00000
     24      19.5949      0.00000

 k-point    57 :       0.1111    0.0556    0.0556
  band No.  band energies     occupation 
      1      -3.2334      1.00000
      2       2.3280      1.00000
      3       2.9069      1.00000
      4       3.0495      1.00000
      5       3.3540      1.00000
      6       3.4126      1.00000
      7       3.4355      1.00000
      8       5.2427      1.00000
      9       5.4082      1.00000
     10       5.4928      1.00000
     11       6.2709      1.00000
     12       6.3629      1.00003
     13       6.4191      1.00016
     14       6.4745      1.00067
     15       6.6461      1.01597
     16       6.9076      0.84345
     17       7.5859     -0.00013
     18       8.3767     -0.00000
     19       8.4475     -0.00000
     20      14.2350      0.00000
     21      14.6162      0.00000
     22      15.6877      0.00000
     23      18.4526      0.00000
     24      18.7390      0.00000

 k-point    58 :       0.1667    0.0556    0.0556
  band No.  band energies     occupation 
      1      -3.0366      1.00000
      2       2.3584      1.00000
      3       2.8056      1.00000
      4       3.1722      1.00000
      5       3.3742      1.00000
      6       3.4479      1.00000
      7       3.4942      1.00000
      8       5.1243      1.00000
      9       5.3037      1.00000
     10       5.4811      1.00000
     11       6.0356      1.00000
     12       6.2544      1.00000
     13       6.2626      1.00000
     14       6.3822      1.00006
     15       6.5804      1.00592
     16       6.9001      0.86523
     17       7.1137      0.09062
     18       8.8218     -0.00000
     19       8.8758     -0.00000
     20      14.2096      0.00000
     21      14.8692      0.00000
     22      16.4461      0.00000
     23      17.6027      0.00000
     24      17.8056      0.00000

 k-point    59 :       0.2222    0.0556    0.0556
  band No.  band energies     occupation 
      1      -2.7643      1.00000
      2       2.2606      1.00000
      3       2.7558      1.00000
      4       3.3316      1.00000
      5       3.4081      1.00000
      6       3.4976      1.00000
      7       3.5630      1.00000
      8       5.0022      1.00000
      9       5.1750      1.00000
     10       5.4422      1.00000
     11       5.7385      1.00000
     12       6.0894      1.00000
     13       6.1073      1.00000
     14       6.3687      1.00004
     15       6.4976      1.00114
     16       6.7021      1.02848
     17       6.8958      0.87702
     18       9.3348     -0.00000
     19       9.3678     -0.00000
     20      14.1664      0.00000
     21      15.0369      0.00000
     22      16.6520      0.00000
     23      16.8984      0.00000
     24      17.4585      0.00000

 k-point    60 :       0.2778    0.0556    0.0556
  band No.  band energies     occupation 
      1      -2.4201      1.00000
      2       1.9386      1.00000
      3       2.8268      1.00000
      4       3.4526      1.00000
      5       3.4931      1.00000
      6       3.5827      1.00000
      7       3.6353      1.00000
      8       4.8884      1.00000
      9       5.0369      1.00000
     10       5.3678      1.00000
     11       5.4788      1.00000
     12       5.9401      1.00000
     13       5.9467      1.00000
     14       6.3054      1.00001
     15       6.3997      1.00010
     16       6.4430      1.00031
     17       6.8934      0.88322
     18       9.8977     -0.00000
     19       9.9061     -0.00000
     20      14.0897      0.00000
     21      15.1955      0.00000
     22      15.7902      0.00000
     23      16.0621      0.00000
     24      17.9813      0.00000

 k-point    61 :       0.3333    0.0556    0.0556
  band No.  band energies     occupation 
      1      -2.0101      1.00000
      2       1.4642      1.00000
      3       2.9457      1.00000
      4       3.5028      1.00000
      5       3.5787      1.00000
      6       3.7013      1.00000
      7       3.7609      1.00000
      8       4.7934      1.00000
      9       4.9032      1.00000
     10       5.2229      1.00000
     11       5.3478      1.00000
     12       5.7906      1.00000
     13       5.8224      1.00000
     14       6.1788      1.00000
     15       6.1847      1.00000
     16       6.4339      1.00024
     17       6.8923      0.88629
     18      10.4803     -0.00000
     19      10.5034     -0.00000
     20      13.9355      0.00000
     21      14.9248      0.00000
     22      15.3525      0.00000
     23      15.3870      0.00000
     24      17.7159      0.00000

 k-point    62 :       0.3889    0.0556    0.0556
  band No.  band energies     occupation 
      1      -1.5454      1.00000
      2       0.9101      1.00000
      3       3.0640      1.00000
      4       3.5509      1.00000
      5       3.6338      1.00000
      6       3.7496      1.00000
      7       3.9570      1.00000
      8       4.7287      1.00000
      9       4.7851      1.00000
     10       5.1016      1.00000
     11       5.2719      1.00000
     12       5.6600      1.00000
     13       5.7410      1.00000
     14       6.0322      1.00000
     15       6.0383      1.00000
     16       6.4356      1.00025
     17       6.8917      0.88772
     18      11.0803     -0.00000
     19      11.1479     -0.00000
     20      13.6121      0.00000
     21      14.1049      0.00000
     22      14.8707      0.00000
     23      15.5912      0.00000
     24      17.2851      0.00000

 k-point    63 :       0.4444    0.0556    0.0556
  band No.  band energies     occupation 
      1      -1.0566      1.00000
      2       0.3504      1.00000
      3       3.1519      1.00000
      4       3.5863      1.00000
      5       3.6715      1.00000
      6       3.7745      1.00000
      7       4.1147      1.00000
      8       4.6948      1.00000
      9       4.7002      1.00000
     10       5.0310      1.00000
     11       5.2222      1.00000
     12       5.5702      1.00000
     13       5.6993      1.00000
     14       5.9208      1.00000
     15       5.9379      1.00000
     16       6.4381      1.00027
     17       6.8915      0.88828
     18      11.6831     -0.00000
     19      11.8268     -0.00000
     20      13.1067      0.00000
     21      13.3192      0.00000
     22      14.6509      0.00000
     23      15.8054      0.00000
     24      16.9098      0.00000

 k-point    64 :       0.5000    0.0556    0.0556
  band No.  band energies     occupation 
      1      -0.7411      1.00000
      2       0.0083      1.00000
      3       3.1849      1.00000
      4       3.5993      1.00000
      5       3.6852      1.00000
      6       3.7810      1.00000
      7       4.1796      1.00000
      8       4.6569      1.00000
      9       4.6951      1.00000
     10       5.0058      1.00000
     11       5.2059      1.00000
     12       5.5371      1.00000
     13       5.6898      1.00000
     14       5.8714      1.00000
     15       5.9058      1.00000
     16       6.4391      1.00028
     17       6.8914      0.88841
     18      12.0924     -0.00000
     19      12.4411     -0.00000
     20      12.6694      0.00000
     21      12.7135      0.00000
     22      14.5941      0.00000
     23      15.9225      0.00000
     24      16.7360      0.00000

 k-point    65 :       0.1111    0.1111    0.0556
  band No.  band energies     occupation 
      1      -3.1152      1.00000
      2       2.3702      1.00000
      3       2.9129      1.00000
      4       3.0530      1.00000
      5       3.3482      1.00000
      6       3.4402      1.00000
      7       3.4821      1.00000
      8       5.1231      1.00000
      9       5.3725      1.00000
     10       5.5077      1.00000
     11       6.1201      1.00000
     12       6.3023      1.00000
     13       6.3180      1.00001
     14       6.3796      1.00005
     15       6.5865      1.00658
     16       6.8811      0.91372
     17       7.7155     -0.00000
     18       8.1758     -0.00000
     19       8.6981     -0.00000
     20      14.3912      0.00000
     21      14.9627      0.00000
     22      15.9222      0.00000
     23      17.6762      0.00000
     24      18.6522      0.00000

 k-point    66 :       0.1667    0.1111    0.0556
  band No.  band energies     occupation 
      1      -2.9196      1.00000
      2       2.4094      1.00000
      3       2.8312      1.00000
      4       3.1493      1.00000
      5       3.3582      1.00000
      6       3.4742      1.00000
      7       3.5494      1.00000
      8       4.9933      1.00000
      9       5.2806      1.00000
     10       5.5154      1.00000
     11       5.8485      1.00000
     12       6.1754      1.00000
     13       6.2246      1.00000
     14       6.3434      1.00002
     15       6.5182      1.00178
     16       6.8570      0.96217
     17       7.3581     -0.01447
     18       8.4412     -0.00000
     19       9.0898     -0.00000
     20      14.3974      0.00000
     21      15.3284      0.00000
     22      16.5371      0.00000
     23      16.7975      0.00000
     24      17.8575      0.00000

 k-point    67 :       0.2222    0.1111    0.0556
  band No.  band energies     occupation 
      1      -2.6490      1.00000
      2       2.3263      1.00000
      3       2.7779      1.00000
      4       3.2957      1.00000
      5       3.3851      1.00000
      6       3.5228      1.00000
      7       3.6263      1.00000
      8       4.8681      1.00000
      9       5.1607      1.00000
     10       5.4867      1.00000
     11       5.5805      1.00000
     12       6.0243      1.00000
     13       6.0932      1.00000
     14       6.3332      1.00001
     15       6.4403      1.00029
     16       6.8373      0.99132
     17       6.9331      0.76040
     18       8.8751     -0.00000
     19       9.5575     -0.00000
     20      14.3271      0.00000
     21      15.5352      0.00000
     22      15.9376      0.00000
     23      16.9316      0.00000
     24      17.5306      0.00000

 k-point    68 :       0.2778    0.1111    0.0556
  band No.  band energies     occupation 
      1      -2.3072      1.00000
      2       2.0122      1.00000
      3       2.8504      1.00000
      4       3.4066      1.00000
      5       3.4657      1.00000
      6       3.6051      1.00000
      7       3.7033      1.00000
      8       4.7609      1.00000
      9       5.0207      1.00000
     10       5.3214      1.00000
     11       5.4675      1.00000
     12       5.8920      1.00000
     13       5.9374      1.00000
     14       6.2736      1.00000
     15       6.3905      1.00007
     16       6.5941      1.00747
     17       6.8264      1.00372
     18       9.3588     -0.00000
     19      10.0808     -0.00000
     20      14.1056      0.00000
     21      15.2637      0.00000
     22      15.6719      0.00000
     23      16.1642      0.00000
     24      18.2165      0.00000

 k-point    69 :       0.3333    0.1111    0.0556
  band No.  band energies     occupation 
      1      -1.9003      1.00000
      2       1.5450      1.00000
      3       2.9732      1.00000
      4       3.4507      1.00000
      5       3.5607      1.00000
      6       3.7565      1.00000
      7       3.7750      1.00000
      8       4.6856      1.00000
      9       4.8685      1.00000
     10       5.1696      1.00000
     11       5.3985      1.00000
     12       5.7624      1.00000
     13       5.8059      1.00000
     14       6.1491      1.00000
     15       6.3432      1.00002
     16       6.3934      1.00008
     17       6.8182      1.01149
     18       9.8749     -0.00000
     19      10.6474     -0.00000
     20      13.6348      0.00000
     21      14.7408      0.00000
     22      15.4076      0.00000
     23      15.9974      0.00000
     24      18.1220      0.00000

 k-point    70 :       0.3889    0.1111    0.0556
  band No.  band energies     occupation 
      1      -1.4396      1.00000
      2       0.9989      1.00000
      3       3.0982      1.00000
      4       3.4831      1.00000
      5       3.6211      1.00000
      6       3.8003      1.00000
      7       3.9616      1.00000
      8       4.6562      1.00000
      9       4.7286      1.00000
     10       5.0707      1.00000
     11       5.3330      1.00000
     12       5.6164      1.00000
     13       5.7448      1.00000
     14       6.0174      1.00000
     15       6.1724      1.00000
     16       6.3935      1.00008
     17       6.8136      1.01529
     18      10.4155     -0.00000
     19      11.2422     -0.00000
     20      13.0269      0.00000
     21      14.1071      0.00000
     22      15.1656      0.00000
     23      16.1969      0.00000
     24      17.7363      0.00000

 k-point    71 :       0.4444    0.1111    0.0556
  band No.  band energies     occupation 
      1      -0.9567      1.00000
      2       0.4477      1.00000
      3       3.1973      1.00000
      4       3.4955      1.00000
      5       3.6664      1.00000
      6       3.8063      1.00000
      7       4.1323      1.00000
      8       4.6125      1.00000
      9       4.6755      1.00000
     10       4.9952      1.00000
     11       5.2932      1.00000
     12       5.5097      1.00000
     13       5.7214      1.00000
     14       5.9131      1.00000
     15       6.0584      1.00000
     16       6.3971      1.00009
     17       6.8113      1.01705
     18      10.9667     -0.00000
     19      11.7837     -0.00000
     20      12.4946      0.00000
     21      13.4033      0.00000
     22      15.0972      0.00000
     23      16.4286      0.00000
     24      17.3696      0.00000

 k-point    72 :       0.5000    0.1111    0.0556
  band No.  band energies     occupation 
      1      -0.6481      1.00000
      2       0.1135      1.00000
      3       3.2377      1.00000
      4       3.4948      1.00000
      5       3.6864      1.00000
      6       3.8023      1.00000
      7       4.2114      1.00000
      8       4.5594      1.00000
      9       4.6935      1.00000
     10       4.9592      1.00000
     11       5.2823      1.00000
     12       5.4694      1.00000
     13       5.7203      1.00000
     14       5.8687      1.00000
     15       6.0177      1.00000
     16       6.3985      1.00009
     17       6.8106      1.01757
     18      11.3699     -0.00000
     19      11.7584     -0.00000
     20      12.6533      0.00000
     21      12.8108      0.00000
     22      15.0834      0.00000
     23      16.5673      0.00000
     24      17.1836      0.00000

 k-point    73 :       0.1667    0.1667    0.0556
  band No.  band energies     occupation 
      1      -2.7260      1.00000
      2       2.4718      1.00000
      3       2.8058      1.00000
      4       3.1660      1.00000
      5       3.3603      1.00000
      6       3.5040      1.00000
      7       3.6278      1.00000
      8       4.8542      1.00000
      9       5.2195      1.00000
     10       5.4808      1.00000
     11       5.6622      1.00000
     12       6.0734      1.00000
     13       6.1736      1.00000
     14       6.3007      1.00000
     15       6.4342      1.00025
     16       6.8112      1.01711
     17       7.4525     -0.00303
     18       8.1712     -0.00000
     19       9.4383     -0.00000
     20      14.3848      0.00000
     21      15.9326      0.00000
     22      16.0079      0.00000
     23      16.8405      0.00000
     24      18.0724      0.00000

 k-point    74 :       0.2222    0.1667    0.0556
  band No.  band energies     occupation 
      1      -2.4584      1.00000
      2       2.4282      1.00000
      3       2.7618      1.00000
      4       3.2578      1.00000
      5       3.3849      1.00000
      6       3.5486      1.00000
      7       3.7163      1.00000
      8       4.7237      1.00000
      9       5.1311      1.00000
     10       5.2924      1.00000
     11       5.6147      1.00000
     12       5.9461      1.00000
     13       6.0717      1.00000
     14       6.2793      1.00000
     15       6.3490      1.00002
     16       6.7696      1.03433
     17       7.1540      0.01573
     18       8.3750     -0.00000
     19       9.8672     -0.00000
     20      14.1203      0.00000
     21      15.3373      0.00000
     22      16.3692      0.00000
     23      17.1369      0.00000
     24      17.6159      0.00000

 k-point    75 :       0.2778    0.1667    0.0556
  band No.  band energies     occupation 
      1      -2.1206      1.00000
      2       2.1288      1.00000
      3       2.8467      1.00000
      4       3.3523      1.00000
      5       3.4492      1.00000
      6       3.6270      1.00000
      7       3.8022      1.00000
      8       4.6180      1.00000
      9       4.9696      1.00000
     10       5.1679      1.00000
     11       5.5599      1.00000
     12       5.8393      1.00000
     13       5.9291      1.00000
     14       6.2140      1.00000
     15       6.3098      1.00001
     16       6.7289      1.03351
     17       6.8113      1.01703
     18       8.7576     -0.00000
     19      10.3542     -0.00000
     20      13.5379      0.00000
     21      15.0933      0.00000
     22      16.1307      0.00000
     23      16.8004      0.00000
     24      18.2064      0.00000

 k-point    76 :       0.3333    0.1667    0.0556
  band No.  band energies     occupation 
      1      -1.7190      1.00000
      2       1.6743      1.00000
      3       2.9781      1.00000
      4       3.3987      1.00000
      5       3.5319      1.00000
      6       3.7687      1.00000
      7       3.8656      1.00000
      8       4.5600      1.00000
      9       4.7850      1.00000
     10       5.1155      1.00000
     11       5.4615      1.00000
     12       5.7553      1.00000
     13       5.7948      1.00000
     14       6.0967      1.00000
     15       6.3128      1.00001
     16       6.5219      1.00193
     17       6.7194      1.03197
     18       9.1945     -0.00000
     19      10.8775     -0.00000
     20      12.8510      0.00000
     21      14.8926      0.00000
     22      15.5394      0.00000
     23      16.9451      0.00000
     24      18.3579      0.00000

 k-point    77 :       0.3889    0.1667    0.0556
  band No.  band energies     occupation 
      1      -1.2654      1.00000
      2       1.1423      1.00000
      3       3.1123      1.00000
      4       3.4147      1.00000
      5       3.5971      1.00000
      6       3.8728      1.00000
      7       3.9651      1.00000
      8       4.5725      1.00000
      9       4.6332      1.00000
     10       5.0594      1.00000
     11       5.3754      1.00000
     12       5.6011      1.00000
     13       5.7670      1.00000
     14       5.9806      1.00000
     15       6.3048      1.00001
     16       6.3374      1.00002
     17       6.7031      1.02870
     18       9.6656     -0.00000
     19      11.3571     -0.00000
     20      12.2642     -0.00000
     21      14.3326      0.00000
     22      15.3568      0.00000
     23      17.1431      0.00000
     24      18.1047      0.00000

 k-point    78 :       0.4444    0.1667    0.0556
  band No.  band energies     occupation 
      1      -0.7925      1.00000
      2       0.6060      1.00000
      3       3.2326      1.00000
      4       3.3932      1.00000
      5       3.6524      1.00000
      6       3.8547      1.00000
      7       4.1438      1.00000
      8       4.5099      1.00000
      9       4.6447      1.00000
     10       4.9687      1.00000
     11       5.3487      1.00000
     12       5.4720      1.00000
     13       5.7635      1.00000
     14       5.8944      1.00000
     15       6.1854      1.00000
     16       6.3294      1.00001
     17       6.6949      1.02687
     18      10.1627     -0.00000
     19      11.2761     -0.00000
     20      12.3274     -0.00000
     21      13.6357      0.00000
     22      15.3592      0.00000
     23      17.3478      0.00000
     24      17.8113      0.00000

 k-point    79 :       0.5000    0.1667    0.0556
  band No.  band energies     occupation 
      1      -0.4953      1.00000
      2       0.2850      1.00000
      3       3.3201      1.00000
      4       3.3394      1.00000
      5       3.6798      1.00000
      6       3.8367      1.00000
      7       4.2467      1.00000
      8       4.4344      1.00000
      9       4.7029      1.00000
     10       4.9043      1.00000
     11       5.3609      1.00000
     12       5.4078      1.00000
     13       5.7693      1.00000
     14       5.8592      1.00000
     15       6.1366      1.00000
     16       6.3310      1.00001
     17       6.6923      1.02629
     18      10.5621     -0.00000
     19      10.8885     -0.00000
     20      12.7966      0.00000
     21      13.0753      0.00000
     22      15.3702      0.00000
     23      17.5266      0.00000
     24      17.6000      0.00000

 k-point    80 :       0.2222    0.2222    0.0556
  band No.  band energies     occupation 
      1      -2.1951      1.00000
      2       2.5283      1.00000
      3       2.6430      1.00000
      4       3.2765      1.00000
      5       3.4075      1.00000
      6       3.5888      1.00000
      7       3.8193      1.00000
      8       4.5866      1.00000
      9       5.0507      1.00000
     10       5.1131      1.00000
     11       5.6677      1.00000
     12       5.8362      1.00000
     13       6.0184      1.00000
     14       6.2336      1.00000
     15       6.2452      1.00000
     16       6.7039      1.02887
     17       7.1922     -0.02167
     18       8.1264     -0.00000
     19      10.2546     -0.00000
     20      13.4956      0.00000
     21      15.1513      0.00000
     22      17.0631      0.00000
     23      17.2570      0.00000
     24      17.5375      0.00000

 k-point    81 :       0.2778    0.2222    0.0556
  band No.  band energies     occupation 
      1      -1.8632      1.00000
      2       2.2783      1.00000
      3       2.7268      1.00000
      4       3.3406      1.00000
      5       3.4566      1.00000
      6       3.6595      1.00000
      7       3.9194      1.00000
      8       4.4760      1.00000
      9       4.8404      1.00000
     10       5.1023      1.00000
     11       5.6356      1.00000
     12       5.7646      1.00000
     13       5.9121      1.00000
     14       6.1346      1.00000
     15       6.2190      1.00000
     16       6.6447      1.01569
     17       6.9578      0.66766
     18       8.2727     -0.00000
     19      10.6911     -0.00000
     20      12.7466      0.00000
     21      15.1503      0.00000
     22      16.4166      0.00000
     23      17.5803      0.00000
     24      17.8151      0.00000

 k-point    82 :       0.3333    0.2222    0.0556
  band No.  band energies     occupation 
      1      -1.4694      1.00000
      2       1.8428      1.00000
      3       2.8714      1.00000
      4       3.3948      1.00000
      5       3.5216      1.00000
      6       3.7808      1.00000
      7       3.9817      1.00000
      8       4.4305      1.00000
      9       4.6678      1.00000
     10       5.0994      1.00000
     11       5.4999      1.00000
     12       5.7662      1.00000
     13       5.7812      1.00000
     14       6.0227      1.00000
     15       6.2211      1.00000
     16       6.5878      1.00671
     17       6.6922      1.02628
     18       8.5939     -0.00000
     19      11.0946     -0.00000
     20      12.1019     -0.00000
     21      15.1048      0.00000
     22      15.7312      0.00000
     23      17.8452      0.00000
     24      18.0952      0.00000

 k-point    83 :       0.3889    0.2222    0.0556
  band No.  band energies     occupation 
      1      -1.0261      1.00000
      2       1.3326      1.00000
      3       3.0016      1.00000
      4       3.4235      1.00000
      5       3.5837      1.00000
      6       3.9249      1.00000
      7       3.9922      1.00000
      8       4.4798      1.00000
      9       4.5426      1.00000
     10       5.0606      1.00000
     11       5.3955      1.00000
     12       5.6154      1.00000
     13       5.7948      1.00000
     14       5.9245      1.00000
     15       6.2279      1.00000
     16       6.4444      1.00032
     17       6.5842      1.00632
     18       8.9836     -0.00000
     19      11.0028     -0.00000
     20      12.0588     -0.00000
     21      14.6197      0.00000
     22      15.5377      0.00000
     23      17.9105      0.00000
     24      18.4336      0.00000

 k-point    84 :       0.4444    0.2222    0.0556
  band No.  band energies     occupation 
      1      -0.5678      1.00000
      2       0.8189      1.00000
      3       3.0975      1.00000
      4       3.4264      1.00000
      5       3.6399      1.00000
      6       3.9083      1.00000
      7       4.1352      1.00000
      8       4.4156      1.00000
      9       4.6183      1.00000
     10       4.9542      1.00000
     11       5.3650      1.00000
     12       5.4863      1.00000
     13       5.8067      1.00000
     14       5.8627      1.00000
     15       6.2337      1.00000
     16       6.3015      1.00000
     17       6.5612      1.00420
     18       9.4202     -0.00000
     19      10.4765     -0.00000
     20      12.5587      0.00000
     21      13.9373      0.00000
     22      15.5793      0.00000
     23      17.8354      0.00000
     24      18.7050      0.00000

 k-point    85 :       0.5000    0.2222    0.0556
  band No.  band energies     occupation 
      1      -0.2864      1.00000
      2       0.5164      1.00000
      3       3.1352      1.00000
      4       3.4214      1.00000
      5       3.6677      1.00000
      6       3.8817      1.00000
      7       4.2720      1.00000
      8       4.3095      1.00000
      9       4.7172      1.00000
     10       4.8582      1.00000
     11       5.3727      1.00000
     12       5.4239      1.00000
     13       5.8208      1.00000
     14       5.8359      1.00000
     15       6.2375      1.00000
     16       6.2452      1.00000
     17       6.5548      1.00372
     18       9.8140     -0.00000
     19      10.0357     -0.00000
     20      13.0190      0.00000
     21      13.4258      0.00000
     22      15.6063      0.00000
     23      17.7850      0.00000
     24      18.7782      0.00000

 k-point    86 :       0.2778    0.2778    0.0556
  band No.  band energies     occupation 
      1      -1.5394      1.00000
      2       2.4263      1.00000
      3       2.4636      1.00000
      4       3.3915      1.00000
      5       3.4865      1.00000
      6       3.7148      1.00000
      7       4.0431      1.00000
      8       4.3507      1.00000
      9       4.6830      1.00000
     10       5.1024      1.00000
     11       5.6109      1.00000
     12       5.7419      1.00000
     13       5.8611      1.00000
     14       6.0375      1.00000
     15       6.1540      1.00000
     16       6.5617      1.00423
     17       6.9437      0.72183
     18       8.0688     -0.00000
     19      11.0056     -0.00000
     20      12.0446     -0.00000
     21      15.2601      0.00000
     22      16.5572      0.00000
     23      16.9480      0.00000
     24      18.7901      0.00000

 k-point    87 :       0.3333    0.2778    0.0556
  band No.  band energies     occupation 
      1      -1.1562      1.00000
      2       2.0352      1.00000
      3       2.6135      1.00000
      4       3.4538      1.00000
      5       3.5327      1.00000
      6       3.8078      1.00000
      7       4.1110      1.00000
      8       4.3081      1.00000
      9       4.5518      1.00000
     10       5.1095      1.00000
     11       5.4935      1.00000
     12       5.7537      1.00000
     13       5.7946      1.00000
     14       5.9329      1.00000
     15       6.1288      1.00000
     16       6.4893      1.00095
     17       6.7596      1.03530
     18       8.1738     -0.00000
     19      10.8583     -0.00000
     20      11.9214     -0.00000
     21      15.3291      0.00000
     22      15.9582      0.00000
     23      17.1724      0.00000
     24      18.6991      0.00000

 k-point    88 :       0.3889    0.2778    0.0556
  band No.  band energies     occupation 
      1      -0.7272      1.00000
      2       1.5570      1.00000
      3       2.7545      1.00000
      4       3.4973      1.00000
      5       3.5830      1.00000
      6       3.9301      1.00000
      7       4.0619      1.00000
      8       4.3916      1.00000
      9       4.4848      1.00000
     10       5.0656      1.00000
     11       5.4087      1.00000
     12       5.6298      1.00000
     13       5.8194      1.00000
     14       5.8554      1.00000
     15       6.1230      1.00000
     16       6.4322      1.00023
     17       6.5577      1.00393
     18       8.4404     -0.00000
     19      10.2888     -0.00000
     20      12.3491     -0.00000
     21      14.9551      0.00000
     22      15.7254      0.00000
     23      17.5322      0.00000
     24      18.4560      0.00000

 k-point    89 :       0.4444    0.2778    0.0556
  band No.  band energies     occupation 
      1      -0.2886      1.00000
      2       1.0752      1.00000
      3       2.8499      1.00000
      4       3.5161      1.00000
      5       3.6300      1.00000
      6       3.9572      1.00000
      7       4.1108      1.00000
      8       4.3455      1.00000
      9       4.6088      1.00000
     10       4.9472      1.00000
     11       5.3801      1.00000
     12       5.5142      1.00000
     13       5.7970      1.00000
     14       5.8600      1.00000
     15       6.1220      1.00000
     16       6.3750      1.00005
     17       6.4341      1.00024
     18       8.7923     -0.00000
     19       9.7241     -0.00000
     20      12.8920      0.00000
     21      14.2983      0.00000
     22      15.7994      0.00000
     23      17.8516      0.00000
     24      18.2206      0.00000

 k-point    90 :       0.5000    0.2778    0.0556
  band No.  band energies     occupation 
      1      -0.0268      1.00000
      2       0.7965      1.00000
      3       2.8838      1.00000
      4       3.5197      1.00000
      5       3.6522      1.00000
      6       3.9337      1.00000
      7       4.2044      1.00000
      8       4.2793      1.00000
      9       4.7357      1.00000
     10       4.8292      1.00000
     11       5.3748      1.00000
     12       5.4641      1.00000
     13       5.7920      1.00000
     14       5.8670      1.00000
     15       6.1217      1.00000
     16       6.3312      1.00001
     17       6.4110      1.00013
     18       9.1643     -0.00000
     19       9.2790     -0.00000
     20      13.3095      0.00000
     21      13.8368      0.00000
     22      15.8405      0.00000
     23      18.0090      0.00000
     24      18.1073      0.00000

 k-point    91 :       0.3333    0.3333    0.0556
  band No.  band energies     occupation 
      1      -0.7874      1.00000
      2       2.1832      1.00000
      3       2.2934      1.00000
      4       3.5185      1.00000
      5       3.5608      1.00000
      6       3.8645      1.00000
      7       4.1786      1.00000
      8       4.2683      1.00000
      9       4.4651      1.00000
     10       5.1103      1.00000
     11       5.4563      1.00000
     12       5.7034      1.00000
     13       5.8264      1.00000
     14       5.8394      1.00000
     15       6.0599      1.00000
     16       6.3931      1.00008
     17       6.7089      1.02994
     18       8.0158     -0.00000
     19      10.2245     -0.00000
     20      12.2773     -0.00000
     21      15.5268      0.00000
     22      16.0033      0.00000
     23      16.6940      0.00000
     24      18.8343      0.00000

 k-point    92 :       0.3889    0.3333    0.0556
  band No.  band energies     occupation 
      1      -0.3773      1.00000
      2       1.7943      1.00000
      3       2.4228      1.00000
      4       3.5578      1.00000
      5       3.5930      1.00000
      6       3.9499      1.00000
      7       4.1084      1.00000
      8       4.3304      1.00000
      9       4.4813      1.00000
     10       5.0537      1.00000
     11       5.4328      1.00000
     12       5.6165      1.00000
     13       5.7602      1.00000
     14       5.8624      1.00000
     15       6.0224      1.00000
     16       6.3174      1.00001
     17       6.5703      1.00495
     18       8.0955     -0.00000
     19       9.6099     -0.00000
     20      12.7603      0.00000
     21      15.3170      0.00000
     22      15.8603      0.00000
     23      16.8792      0.00000
     24      18.6312      0.00000

 k-point    93 :       0.4444    0.3333    0.0556
  band No.  band energies     occupation 
      1       0.0359      1.00000
      2       1.3562      1.00000
      3       2.5451      1.00000
      4       3.5706      1.00000
      5       3.6223      1.00000
      6       3.9967      1.00000
      7       4.1072      1.00000
      8       4.2981      1.00000
      9       4.6242      1.00000
     10       4.9370      1.00000
     11       5.4228      1.00000
     12       5.5213      1.00000
     13       5.7292      1.00000
     14       5.8914      1.00000
     15       6.0024      1.00000
     16       6.2752      1.00000
     17       6.4396      1.00028
     18       8.3229     -0.00000
     19       9.0835     -0.00000
     20      13.2882      0.00000
     21      14.6985      0.00000
     22      15.9887      0.00000
     23      17.2066      0.00000
     24      18.3309      0.00000

 k-point    94 :       0.5000    0.3333    0.0556
  band No.  band energies     occupation 
      1       0.2750      1.00000
      2       1.1066      1.00000
      3       2.5898      1.00000
      4       3.5714      1.00000
      5       3.6358      1.00000
      6       3.9896      1.00000
      7       4.1497      1.00000
      8       4.2699      1.00000
      9       4.7575      1.00000
     10       4.8152      1.00000
     11       5.4163      1.00000
     12       5.4780      1.00000
     13       5.7286      1.00000
     14       5.9043      1.00000
     15       5.9942      1.00000
     16       6.2651      1.00000
     17       6.3842      1.00006
     18       8.6367     -0.00000
     19       8.6727     -0.00000
     20      13.6641      0.00000
     21      14.2820      0.00000
     22      16.0473      0.00000
     23      17.3858      0.00000
     24      18.1686      0.00000

 k-point    95 :       0.3889    0.3889    0.0556
  band No.  band energies     occupation 
      1       0.0082      1.00000
      2       1.9628      1.00000
      3       2.0919      1.00000
      4       3.5689      1.00000
      5       3.6060      1.00000
      6       4.0044      1.00000
      7       4.1176      1.00000
      8       4.2922      1.00000
      9       4.5511      1.00000
     10       5.0026      1.00000
     11       5.4701      1.00000
     12       5.5656      1.00000
     13       5.6871      1.00000
     14       5.8931      1.00000
     15       5.9413      1.00000
     16       6.2153      1.00000
     17       6.5146      1.00165
     18       7.9754     -0.00000
     19       9.0350     -0.00000
     20      13.2324      0.00000
     21      15.5869      0.00000
     22      15.7320      0.00000
     23      16.6344      0.00000
     24      18.5625      0.00000

 k-point    96 :       0.4444    0.3889    0.0556
  band No.  band energies     occupation 
      1       0.3903      1.00000
      2       1.6298      1.00000
      3       2.2031      1.00000
      4       3.5489      1.00000
      5       3.6166      1.00000
      6       4.0460      1.00000
      7       4.1381      1.00000
      8       4.2659      1.00000
      9       4.6666      1.00000
     10       4.9121      1.00000
     11       5.4892      1.00000
     12       5.4970      1.00000
     13       5.6574      1.00000
     14       5.8872      1.00000
     15       5.9208      1.00000
     16       6.1498      1.00000
     17       6.4351      1.00025
     18       8.0433     -0.00000
     19       8.5814     -0.00000
     20      13.7345      0.00000
     21      15.0969      0.00000
     22      15.9564      0.00000
     23      16.7900      0.00000
     24      18.2700      0.00000

 k-point    97 :       0.5000    0.3889    0.0556
  band No.  band energies     occupation 
      1       0.6050      1.00000
      2       1.4135      1.00000
      3       2.2649      1.00000
      4       3.5359      1.00000
      5       3.6212      1.00000
      6       4.0517      1.00000
      7       4.1629      1.00000
      8       4.2531      1.00000
      9       4.7801      1.00000
     10       4.8092      1.00000
     11       5.4625      1.00000
     12       5.4868      1.00000
     13       5.6599      1.00000
     14       5.8705      1.00000
     15       5.9310      1.00000
     16       6.1281      1.00000
     17       6.3979      1.00009
     18       8.2506     -0.00000
     19       8.2516     -0.00000
     20      14.0791      0.00000
     21      14.7235      0.00000
     22      16.0589      0.00000
     23      16.9129      0.00000
     24      18.0968      0.00000

 k-point    98 :       0.4444    0.4444    0.0556
  band No.  band energies     occupation 
      1       0.7380      1.00000
      2       1.8112      1.00000
      3       1.8951      1.00000
      4       3.4855      1.00000
      5       3.6127      1.00000
      6       4.0891      1.00000
      7       4.1840      1.00000
      8       4.2462      1.00000
      9       4.7305      1.00000
     10       4.8667      1.00000
     11       5.4509      1.00000
     12       5.5489      1.00000
     13       5.6100      1.00000
     14       5.8042      1.00000
     15       5.9378      1.00000
     16       6.0629      1.00000
     17       6.4018      1.00010
     18       7.9506     -0.00000
     19       8.2271     -0.00000
     20      14.2109      0.00000
     21      15.3291      0.00000
     22      15.6288      0.00000
     23      16.8045      0.00000
     24      17.9755      0.00000

 k-point    99 :       0.5000    0.4444    0.0556
  band No.  band energies     occupation 
      1       0.9308      1.00000
      2       1.6588      1.00000
      3       1.9415      1.00000
      4       3.4516      1.00000
      5       3.6113      1.00000
      6       4.1031      1.00000
      7       4.2088      1.00000
      8       4.2388      1.00000
      9       4.7986      1.00000
     10       4.8067      1.00000
     11       5.4257      1.00000
     12       5.5586      1.00000
     13       5.6087      1.00000
     14       5.7725      1.00000
     15       5.9467      1.00000
     16       6.0319      1.00000
     17       6.3819      1.00006
     18       8.0161     -0.00000
     19       8.0188     -0.00000
     20      14.5459      0.00000
     21      15.0882      0.00000
     22      15.6584      0.00000
     23      16.8676      0.00000
     24      17.8090      0.00000

 k-point   100 :       0.5000    0.5000    0.0556
  band No.  band energies     occupation 
      1       1.1153      1.00000
      2       1.7576      1.00000
      3       1.7576      1.00000
      4       3.4070      1.00000
      5       3.6077      1.00000
      6       4.1219      1.00000
      7       4.2333      1.00000
      8       4.2333      1.00000
      9       4.8060      1.00000
     10       4.8060      1.00000
     11       5.4041      1.00000
     12       5.5904      1.00000
     13       5.5904      1.00000
     14       5.7337      1.00000
     15       5.9517      1.00000
     16       5.9991      1.00000
     17       6.3688      1.00004
     18       7.9423     -0.00000
     19       7.9423     -0.00000
     20      14.9430      0.00000
     21      15.2418      0.00000
     22      15.2418      0.00000
     23      16.9069      0.00000
     24      17.6567      0.00000

 k-point   101 :       0.1111    0.1111    0.1111
  band No.  band energies     occupation 
      1      -2.9977      1.00000
      2       2.4127      1.00000
      3       2.9892      1.00000
      4       2.9892      1.00000
      5       3.3315      1.00000
      6       3.5019      1.00000
      7       3.5019      1.00000
      8       4.9989      1.00000
      9       5.4279      1.00000
     10       5.4279      1.00000
     11       6.0846      1.00000
     12       6.0846      1.00000
     13       6.3093      1.00001
     14       6.3093      1.00001
     15       6.5037      1.00130
     16       6.8773      0.92240
     17       7.8673     -0.00000
     18       8.4026     -0.00000
     19       8.4026     -0.00000
     20      14.9532      0.00000
     21      14.9532      0.00000
     22      16.1173      0.00000
     23      17.6321      0.00000
     24      17.9705      0.00000

 k-point   102 :       0.1667    0.1111    0.1111
  band No.  band energies     occupation 
      1      -2.8034      1.00000
      2       2.4559      1.00000
      3       2.8823      1.00000
      4       3.1112      1.00000
      5       3.3305      1.00000
      6       3.5347      1.00000
      7       3.5761      1.00000
      8       4.8697      1.00000
      9       5.3087      1.00000
     10       5.4486      1.00000
     11       5.8155      1.00000
     12       6.0136      1.00000
     13       6.2161      1.00000
     14       6.3043      1.00001
     15       6.4243      1.00019
     16       6.8587      0.95916
     17       7.5676     -0.00021
     18       8.5715     -0.00000
     19       8.7250     -0.00000
     20      14.9094      0.00000
     21      15.4518      0.00000
     22      16.5690      0.00000
     23      16.9108      0.00000
     24      17.0766      0.00000

 k-point   103 :       0.2222    0.1111    0.1111
  band No.  band energies     occupation 
      1      -2.5346      1.00000
      2       2.3860      1.00000
      3       2.8125      1.00000
      4       3.2692      1.00000
      5       3.3454      1.00000
      6       3.5821      1.00000
      7       3.6560      1.00000
      8       4.7541      1.00000
      9       5.1653      1.00000
     10       5.3882      1.00000
     11       5.6003      1.00000
     12       5.9205      1.00000
     13       6.0914      1.00000
     14       6.3009      1.00000
     15       6.3539      1.00003
     16       6.8320      0.99773
     17       7.1175      0.08196
     18       8.9917     -0.00000
     19       9.1083     -0.00000
     20      14.7557      0.00000
     21      15.6122      0.00000
     22      16.0261      0.00000
     23      16.3569      0.00000
     24      17.5302      0.00000

 k-point   104 :       0.2778    0.1111    0.1111
  band No.  band energies     occupation 
      1      -2.1953      1.00000
      2       2.0816      1.00000
      3       2.8763      1.00000
      4       3.3726      1.00000
      5       3.4421      1.00000
      6       3.6523      1.00000
      7       3.7312      1.00000
      8       4.6651      1.00000
      9       5.0117      1.00000
     10       5.2092      1.00000
     11       5.5229      1.00000
     12       5.8290      1.00000
     13       5.9410      1.00000
     14       6.2443      1.00000
     15       6.3290      1.00001
     16       6.7363      1.03446
     17       6.8051      1.02125
     18       9.4816     -0.00000
     19       9.5315     -0.00000
     20      14.3701      0.00000
     21      14.9535      0.00000
     22      15.9496      0.00000
     23      16.0496      0.00000
     24      18.2125      0.00000

 k-point   105 :       0.3333    0.1111    0.1111
  band No.  band energies     occupation 
      1      -1.7916      1.00000
      2       1.6225      1.00000
      3       2.9946      1.00000
      4       3.4034      1.00000
      5       3.5788      1.00000
      6       3.7787      1.00000
      7       3.7874      1.00000
      8       4.6141      1.00000
      9       4.8579      1.00000
     10       5.0501      1.00000
     11       5.4794      1.00000
     12       5.7565      1.00000
     13       5.7791      1.00000
     14       6.1385      1.00000
     15       6.3354      1.00001
     16       6.4485      1.00035
     17       6.7835      1.03122
     18       9.9797     -0.00000
     19      10.0155     -0.00000
     20      13.7893      0.00000
     21      14.1477      0.00000
     22      15.8238      0.00000
     23      16.2651      0.00000
     24      18.4966      0.00000

 k-point   106 :       0.3889    0.1111    0.1111
  band No.  band energies     occupation 
      1      -1.3352      1.00000
      2       1.0850      1.00000
      3       3.1197      1.00000
      4       3.4222      1.00000
      5       3.6537      1.00000
      6       3.8158      1.00000
      7       3.9631      1.00000
      8       4.6095      1.00000
      9       4.7089      1.00000
     10       4.9530      1.00000
     11       5.4340      1.00000
     12       5.6295      1.00000
     13       5.7154      1.00000
     14       6.0180      1.00000
     15       6.2473      1.00000
     16       6.3432      1.00002
     17       6.7688      1.03444
     18      10.4353     -0.00000
     19      10.5834     -0.00000
     20      13.1758      0.00000
     21      13.3793      0.00000
     22      15.8211      0.00000
     23      16.5151      0.00000
     24      18.3000      0.00000

 k-point   107 :       0.4444    0.1111    0.1111
  band No.  band energies     occupation 
      1      -0.8586      1.00000
      2       0.5429      1.00000
      3       3.2306      1.00000
      4       3.4109      1.00000
      5       3.6946      1.00000
      6       3.8251      1.00000
      7       4.1465      1.00000
      8       4.5692      1.00000
      9       4.6388      1.00000
     10       4.9018      1.00000
     11       5.3924      1.00000
     12       5.5220      1.00000
     13       5.7125      1.00000
     14       5.9054      1.00000
     15       6.1270      1.00000
     16       6.3487      1.00002
     17       6.7606      1.03524
     18      10.8522     -0.00000
     19      11.1661     -0.00000
     20      12.6490      0.00000
     21      12.6758      0.00000
     22      15.8484      0.00000
     23      16.7681      0.00000
     24      17.9610      0.00000

 k-point   108 :       0.5000    0.1111    0.1111
  band No.  band energies     occupation 
      1      -0.5571      1.00000
      2       0.2169      1.00000
      3       3.2910      1.00000
      4       3.3849      1.00000
      5       3.7084      1.00000
      6       3.8274      1.00000
      7       4.2494      1.00000
      8       4.4845      1.00000
      9       4.6592      1.00000
     10       4.8836      1.00000
     11       5.3740      1.00000
     12       5.4829      1.00000
     13       5.7280      1.00000
     14       5.8475      1.00000
     15       6.0869      1.00000
     16       6.3507      1.00002
     17       6.7580      1.03537
     18      11.0603     -0.00000
     19      11.5699     -0.00000
     20      12.2319     -0.00000
     21      12.4025     -0.00000
     22      15.8623      0.00000
     23      16.9040      0.00000
     24      17.7860      0.00000

 k-point   109 :       0.1667    0.1667    0.1111
  band No.  band energies     occupation 
      1      -2.6112      1.00000
      2       2.5119      1.00000
      3       2.8833      1.00000
      4       3.1149      1.00000
      5       3.3215      1.00000
      6       3.5795      1.00000
      7       3.6429      1.00000
      8       4.7421      1.00000
      9       5.2542      1.00000
     10       5.3604      1.00000
     11       5.7180      1.00000
     12       5.9061      1.00000
     13       6.1787      1.00000
     14       6.2604      1.00000
     15       6.3211      1.00001
     16       6.8421      0.98501
     17       7.6551     -0.00002
     18       8.3146     -0.00000
     19       8.9572     -0.00000
     20      14.9961      0.00000
     21      15.9378      0.00000
     22      16.1130      0.00000
     23      16.7821      0.00000
     24      17.2532      0.00000

 k-point   110 :       0.2222    0.1667    0.1111
  band No.  band energies     occupation 
      1      -2.3456      1.00000
      2       2.4749      1.00000
      3       2.8187      1.00000
      4       3.2324      1.00000
      5       3.3358      1.00000
      6       3.6230      1.00000
      7       3.7289      1.00000
      8       4.6318      1.00000
      9       5.1287      1.00000
     10       5.2196      1.00000
     11       5.6385      1.00000
     12       5.8376      1.00000
     13       6.0786      1.00000
     14       6.2312      1.00000
     15       6.2505      1.00000
     16       6.8097      1.01820
     17       7.3218     -0.02227
     18       8.4988     -0.00000
     19       9.3188     -0.00000
     20      14.5442      0.00000
     21      15.6100      0.00000
     22      16.1184      0.00000
     23      16.7168      0.00000
     24      17.2109      0.00000

 k-point   111 :       0.2778    0.1667    0.1111
  band No.  band energies     occupation 
      1      -2.0105      1.00000
      2       2.1901      1.00000
      3       2.8749      1.00000
      4       3.3423      1.00000
      5       3.4168      1.00000
      6       3.6828      1.00000
      7       3.8091      1.00000
      8       4.5538      1.00000
      9       4.9579      1.00000
     10       5.0805      1.00000
     11       5.5888      1.00000
     12       5.7794      1.00000
     13       5.9429      1.00000
     14       6.1494      1.00000
     15       6.2533      1.00000
     16       6.7679      1.03457
     17       6.9252      0.78767
     18       8.8677     -0.00000
     19       9.7309     -0.00000
     20      13.8271      0.00000
     21      14.9928      0.00000
     22      16.0182      0.00000
     23      16.8874      0.00000
     24      17.5398      0.00000

 k-point   112 :       0.3333    0.1667    0.1111
  band No.  band energies     occupation 
      1      -1.6124      1.00000
      2       1.7456      1.00000
      3       2.9836      1.00000
      4       3.3813      1.00000
      5       3.5593      1.00000
      6       3.7815      1.00000
      7       3.8659      1.00000
      8       4.5249      1.00000
      9       4.7861      1.00000
     10       4.9740      1.00000
     11       5.5400      1.00000
     12       5.7384      1.00000
     13       5.7934      1.00000
     14       6.0607      1.00000
     15       6.2600      1.00000
     16       6.5944      1.00750
     17       6.7386      1.03470
     18       9.2860     -0.00000
     19      10.1731     -0.00000
     20      13.1047      0.00000
     21      14.2520      0.00000
     22      16.0796      0.00000
     23      17.1108      0.00000
     24      17.9119      0.00000

 k-point   113 :       0.3889    0.1667    0.1111
  band No.  band energies     occupation 
      1      -1.1635      1.00000
      2       1.2235      1.00000
      3       3.0944      1.00000
      4       3.4013      1.00000
      5       3.6508      1.00000
      6       3.8678      1.00000
      7       3.9618      1.00000
      8       4.5539      1.00000
      9       4.6337      1.00000
     10       4.8935      1.00000
     11       5.4964      1.00000
     12       5.6415      1.00000
     13       5.7276      1.00000
     14       5.9634      1.00000
     15       6.2668      1.00000
     16       6.3642      1.00003
     17       6.7075      1.02964
     18       9.7273     -0.00000
     19      10.6075     -0.00000
     20      12.4805      0.00000
     21      13.5326      0.00000
     22      16.1901      0.00000
     23      17.3530      0.00000
     24      18.2513      0.00000

 k-point   114 :       0.4444    0.1667    0.1111
  band No.  band energies     occupation 
      1      -0.6975      1.00000
      2       0.6975      1.00000
      3       3.1883      1.00000
      4       3.3916      1.00000
      5       3.7024      1.00000
      6       3.8708      1.00000
      7       4.1439      1.00000
      8       4.4865      1.00000
      9       4.6190      1.00000
     10       4.8334      1.00000
     11       5.4684      1.00000
     12       5.5286      1.00000
     13       5.7376      1.00000
     14       5.8705      1.00000
     15       6.2209      1.00000
     16       6.2721      1.00000
     17       6.6898      1.02572
     18      10.1638     -0.00000
     19      10.8946     -0.00000
     20      12.1151     -0.00000
     21      12.8853      0.00000
     22      16.2880      0.00000
     23      17.5964      0.00000
     24      18.3455      0.00000

 k-point   115 :       0.5000    0.1667    0.1111
  band No.  band energies     occupation 
      1      -0.4080      1.00000
      2       0.3854      1.00000
      3       3.2338      1.00000
      4       3.3738      1.00000
      5       3.7214      1.00000
      6       3.8683      1.00000
      7       4.2919      1.00000
      8       4.3571      1.00000
      9       4.6587      1.00000
     10       4.8035      1.00000
     11       5.4698      1.00000
     12       5.4727      1.00000
     13       5.7668      1.00000
     14       5.8116      1.00000
     15       6.1720      1.00000
     16       6.2738      1.00000
     17       6.6841      1.02439
     18      10.4340     -0.00000
     19      10.8722     -0.00000
     20      12.1838     -0.00000
     21      12.4714      0.00000
     22      16.3274      0.00000
     23      17.7384      0.00000
     24      18.2423      0.00000

 k-point   116 :       0.2222    0.2222    0.1111
  band No.  band energies     occupation 
      1      -2.0845      1.00000
      2       2.5461      1.00000
      3       2.7228      1.00000
      4       3.2662      1.00000
      5       3.3574      1.00000
      6       3.6579      1.00000
      7       3.8259      1.00000
      8       4.5223      1.00000
      9       5.0111      1.00000
     10       5.0802      1.00000
     11       5.6737      1.00000
     12       5.7645      1.00000
     13       6.0290      1.00000
     14       6.1188      1.00000
     15       6.2032      1.00000
     16       6.7701      1.03425
     17       7.3553     -0.01502
     18       8.2028     -0.00000
     19       9.6402     -0.00000
     20      13.7916      0.00000
     21      15.6799      0.00000
     22      16.2177      0.00000
     23      16.5339      0.00000
     24      17.5456      0.00000

 k-point   117 :       0.2778    0.2222    0.1111
  band No.  band energies     occupation 
      1      -1.7557      1.00000
      2       2.3258      1.00000
      3       2.7577      1.00000
      4       3.3549      1.00000
      5       3.4242      1.00000
      6       3.7043      1.00000
      7       3.9188      1.00000
      8       4.4434      1.00000
      9       4.8250      1.00000
     10       5.0159      1.00000
     11       5.6467      1.00000
     12       5.7369      1.00000
     13       5.9279      1.00000
     14       6.0252      1.00000
     15       6.1852      1.00000
     16       6.7178      1.03167
     17       7.0772      0.19334
     18       8.3370     -0.00000
     19       9.9979     -0.00000
     20      13.0134      0.00000
     21      15.2900      0.00000
     22      16.0679      0.00000
     23      16.7405      0.00000
     24      17.9535      0.00000

 k-point   118 :       0.3333    0.2222    0.1111
  band No.  band energies     occupation 
      1      -1.3659      1.00000
      2       1.9046      1.00000
      3       2.8648      1.00000
      4       3.4168      1.00000
      5       3.5432      1.00000
      6       3.7809      1.00000
      7       3.9764      1.00000
      8       4.4252      1.00000
      9       4.6695      1.00000
     10       4.9528      1.00000
     11       5.5722      1.00000
     12       5.7492      1.00000
     13       5.8010      1.00000
     14       5.9459      1.00000
     15       6.1804      1.00000
     16       6.6491      1.01658
     17       6.7664      1.03475
     18       8.6499     -0.00000
     19      10.3418     -0.00000
     20      12.3466     -0.00000
     21      14.5521      0.00000
     22      16.2094      0.00000
     23      17.0992      0.00000
     24      18.2088      0.00000

 k-point   119 :       0.3889    0.2222    0.1111
  band No.  band energies     occupation 
      1      -0.9280      1.00000
      2       1.4066      1.00000
      3       2.9581      1.00000
      4       3.4573      1.00000
      5       3.6392      1.00000
      6       3.8934      1.00000
      7       4.0005      1.00000
      8       4.4694      1.00000
      9       4.5588      1.00000
     10       4.8830      1.00000
     11       5.5142      1.00000
     12       5.6729      1.00000
     13       5.7557      1.00000
     14       5.8803      1.00000
     15       6.1780      1.00000
     16       6.4723      1.00063
     17       6.6427      1.01529
     18       9.0228     -0.00000
     19      10.5240     -0.00000
     20      11.9569     -0.00000
     21      13.8301      0.00000
     22      16.3822      0.00000
     23      17.4942      0.00000
     24      18.4131      0.00000

 k-point   120 :       0.4444    0.2222    0.1111
  band No.  band energies     occupation 
      1      -0.4777      1.00000
      2       0.9051      1.00000
      3       3.0220      1.00000
      4       3.4721      1.00000
      5       3.7007      1.00000
      6       3.9284      1.00000
      7       4.1094      1.00000
      8       4.4077      1.00000
      9       4.6046      1.00000
     10       4.8066      1.00000
     11       5.4746      1.00000
     12       5.5763      1.00000
     13       5.7586      1.00000
     14       5.8370      1.00000
     15       6.1761      1.00000
     16       6.3139      1.00001
     17       6.6085      1.00939
     18       9.4268     -0.00000
     19      10.3362     -0.00000
     20      12.0538     -0.00000
     21      13.1783      0.00000
     22      16.5239      0.00000
     23      17.8772      0.00000
     24      18.5061      0.00000

 k-point   121 :       0.5000    0.2222    0.1111
  band No.  band energies     occupation 
      1      -0.2047      1.00000
      2       0.6125      1.00000
      3       3.0454      1.00000
      4       3.4731      1.00000
      5       3.7251      1.00000
      6       3.9229      1.00000
      7       4.2220      1.00000
      8       4.3170      1.00000
      9       4.6735      1.00000
     10       4.7487      1.00000
     11       5.4579      1.00000
     12       5.5383      1.00000
     13       5.7674      1.00000
     14       5.8179      1.00000
     15       6.1753      1.00000
     16       6.2565      1.00000
     17       6.5981      1.00796
     18       9.7407     -0.00000
     19      10.0479     -0.00000
     20      12.3329     -0.00000
     21      12.7598      0.00000
     22      16.5805      0.00000
     23      18.1030      0.00000
     24      18.4434      0.00000

 k-point   122 :       0.2778    0.2778    0.1111
  band No.  band energies     occupation 
      1      -1.4354      1.00000
      2       2.4480      1.00000
      3       2.5078      1.00000
      4       3.4235      1.00000
      5       3.4721      1.00000
      6       3.7337      1.00000
      7       4.0333      1.00000
      8       4.3496      1.00000
      9       4.6803      1.00000
     10       4.9830      1.00000
     11       5.6447      1.00000
     12       5.7317      1.00000
     13       5.8678      1.00000
     14       5.9222      1.00000
     15       6.1361      1.00000
     16       6.6550      1.01783
     17       7.0582      0.25883
     18       8.0921     -0.00000
     19      10.2531     -0.00000
     20      12.2986     -0.00000
     21      15.5917      0.00000
     22      15.6891      0.00000
     23      16.4969      0.00000
     24      18.9018      0.00000

 k-point   123 :       0.3333    0.2778    0.1111
  band No.  band energies     occupation 
      1      -1.0570      1.00000
      2       2.0842      1.00000
      3       2.6157      1.00000
      4       3.4892      1.00000
      5       3.5602      1.00000
      6       3.7874      1.00000
      7       4.1009      1.00000
      8       4.3221      1.00000
      9       4.5681      1.00000
     10       4.9468      1.00000
     11       5.5828      1.00000
     12       5.7540      1.00000
     13       5.7803      1.00000
     14       5.8497      1.00000
     15       6.1106      1.00000
     16       6.5836      1.00626
     17       6.8371      0.99159
     18       8.1877     -0.00000
     19      10.3447     -0.00000
     20      11.8693     -0.00000
     21      14.9020      0.00000
     22      15.9924      0.00000
     23      16.6778      0.00000
     24      19.1967      0.00000

 k-point   124 :       0.3889    0.2778    0.1111
  band No.  band energies     occupation 
      1      -0.6345      1.00000
      2       1.6210      1.00000
      3       2.7253      1.00000
      4       3.5369      1.00000
      5       3.6390      1.00000
      6       3.8799      1.00000
      7       4.0882      1.00000
      8       4.3670      1.00000
      9       4.5265      1.00000
     10       4.8895      1.00000
     11       5.5235      1.00000
     12       5.6709      1.00000
     13       5.7528      1.00000
     14       5.8356      1.00000
     15       6.0929      1.00000
     16       6.4995      1.00119
     17       6.6147      1.01032
     18       8.4491     -0.00000
     19      10.0897     -0.00000
     20      11.9174     -0.00000
     21      14.1807      0.00000
     22      16.3258      0.00000
     23      16.9551      0.00000
     24      18.9451      0.00000

 k-point   125 :       0.4444    0.2778    0.1111
  band No.  band energies     occupation 
      1      -0.2054      1.00000
      2       1.1543      1.00000
      3       2.7954      1.00000
      4       3.5556      1.00000
      5       3.6968      1.00000
      6       3.9643      1.00000
      7       4.0894      1.00000
      8       4.3425      1.00000
      9       4.6069      1.00000
     10       4.8111      1.00000
     11       5.4776      1.00000
     12       5.5832      1.00000
     13       5.7376      1.00000
     14       5.8554      1.00000
     15       6.0760      1.00000
     16       6.3820      1.00006
     17       6.5208      1.00188
     18       8.7864     -0.00000
     19       9.6526     -0.00000
     20      12.2701     -0.00000
     21      13.5331      0.00000
     22      16.5688      0.00000
     23      17.2847      0.00000
     24      18.5378      0.00000

 k-point   126 :       0.5000    0.2778    0.1111
  band No.  band energies     occupation 
      1       0.0466      1.00000
      2       0.8874      1.00000
      3       2.8194      1.00000
      4       3.5581      1.00000
      5       3.7206      1.00000
      6       3.9809      1.00000
      7       4.1229      1.00000
      8       4.3105      1.00000
      9       4.6969      1.00000
     10       4.7350      1.00000
     11       5.4602      1.00000
     12       5.5420      1.00000
     13       5.7401      1.00000
     14       5.8647      1.00000
     15       6.0681      1.00000
     16       6.3267      1.00001
     17       6.5003      1.00121
     18       9.1078     -0.00000
     19       9.2851     -0.00000
     20      12.5828      0.00000
     21      13.1352      0.00000
     22      16.6583      0.00000
     23      17.4935      0.00000
     24      18.2959      0.00000

 k-point   127 :       0.3333    0.3333    0.1111
  band No.  band energies     occupation 
      1      -0.6940      1.00000
      2       2.2623      1.00000
      3       2.2649      1.00000
      4       3.5382      1.00000
      5       3.6149      1.00000
      6       3.8242      1.00000
      7       4.2157      1.00000
      8       4.2373      1.00000
      9       4.5086      1.00000
     10       4.9328      1.00000
     11       5.5800      1.00000
     12       5.6641      1.00000
     13       5.7522      1.00000
     14       5.8419      1.00000
     15       6.0621      1.00000
     16       6.5026      1.00127
     17       6.7745      1.03348
     18       7.9997     -0.00000
     19      10.0077     -0.00000
     20      11.8699     -0.00000
     21      15.2097      0.00000
     22      15.3765      0.00000
     23      16.8129      0.00000
     24      19.1088      0.00000

 k-point   128 :       0.3889    0.3333    0.1111
  band No.  band energies     occupation 
      1      -0.2921      1.00000
      2       1.8472      1.00000
      3       2.4173      1.00000
      4       3.5635      1.00000
      5       3.6586      1.00000
      6       3.9061      1.00000
      7       4.1703      1.00000
      8       4.2871      1.00000
      9       4.5304      1.00000
     10       4.8933      1.00000
     11       5.5420      1.00000
     12       5.5905      1.00000
     13       5.7180      1.00000
     14       5.8627      1.00000
     15       6.0266      1.00000
     16       6.4244      1.00019
     17       6.6066      1.00911
     18       8.0722     -0.00000
     19       9.5091     -0.00000
     20      12.1781     -0.00000
     21      14.5682      0.00000
     22      15.7121      0.00000
     23      17.0386      0.00000
     24      18.5942      0.00000

 k-point   129 :       0.4444    0.3333    0.1111
  band No.  band energies     occupation 
      1       0.1092      1.00000
      2       1.4270      1.00000
      3       2.5209      1.00000
      4       3.5664      1.00000
      5       3.6941      1.00000
      6       3.9897      1.00000
      7       4.1387      1.00000
      8       4.2878      1.00000
      9       4.6307      1.00000
     10       4.8271      1.00000
     11       5.4886      1.00000
     12       5.5305      1.00000
     13       5.7215      1.00000
     14       5.8860      1.00000
     15       5.9905      1.00000
     16       6.3738      1.00005
     17       6.4553      1.00042
     18       8.2959     -0.00000
     19       9.0298     -0.00000
     20      12.6010      0.00000
     21      13.9337      0.00000
     22      16.0653      0.00000
     23      17.2744      0.00000
     24      18.0827      0.00000

 k-point   130 :       0.5000    0.3333    0.1111
  band No.  band energies     occupation 
      1       0.3363      1.00000
      2       1.1917      1.00000
      3       2.5574      1.00000
      4       3.5637      1.00000
      5       3.7103      1.00000
      6       4.0246      1.00000
      7       4.1304      1.00000
      8       4.2806      1.00000
      9       4.7262      1.00000
     10       4.7515      1.00000
     11       5.4760      1.00000
     12       5.4907      1.00000
     13       5.7310      1.00000
     14       5.9011      1.00000
     15       5.9693      1.00000
     16       6.3703      1.00004
     17       6.3841      1.00006
     18       8.5830     -0.00000
     19       8.6577     -0.00000
     20      12.9084      0.00000
     21      13.5585      0.00000
     22      16.2238      0.00000
     23      17.4457      0.00000
     24      17.7880      0.00000

 k-point   131 :       0.3889    0.3889    0.1111
  band No.  band energies     occupation 
      1       0.0827      1.00000
      2       2.0437      1.00000
      3       2.0697      1.00000
      4       3.5313      1.00000
      5       3.6775      1.00000
      6       3.9893      1.00000
      7       4.2102      1.00000
      8       4.2464      1.00000
      9       4.5835      1.00000
     10       4.8783      1.00000
     11       5.4816      1.00000
     12       5.5855      1.00000
     13       5.6737      1.00000
     14       5.8938      1.00000
     15       5.9758      1.00000
     16       6.3320      1.00001
     17       6.5303      1.00229
     18       7.9335     -0.00000
     19       8.9694     -0.00000
     20      12.5632      0.00000
     21      14.8503      0.00000
     22      15.1525      0.00000
     23      17.2393      0.00000
     24      18.0539      0.00000

 k-point   132 :       0.4444    0.3889    0.1111
  band No.  band energies     occupation 
      1       0.4490      1.00000
      2       1.6930      1.00000
      3       2.2112      1.00000
      4       3.4867      1.00000
      5       3.6920      1.00000
      6       4.0693      1.00000
      7       4.2036      1.00000
      8       4.2467      1.00000
      9       4.6745      1.00000
     10       4.8364      1.00000
     11       5.4136      1.00000
     12       5.5679      1.00000
     13       5.6818      1.00000
     14       5.9082      1.00000
     15       5.9302      1.00000
     16       6.2700      1.00000
     17       6.4284      1.00021
     18       7.9967     -0.00000
     19       8.5293     -0.00000
     20      13.0016      0.00000
     21      14.3490      0.00000
     22      15.4060      0.00000
     23      17.3048      0.00000
     24      17.6919      0.00000

 k-point   133 :       0.5000    0.3889    0.1111
  band No.  band energies     occupation 
      1       0.6482      1.00000
      2       1.4938      1.00000
      3       2.2690      1.00000
      4       3.4668      1.00000
      5       3.6981      1.00000
      6       4.0991      1.00000
      7       4.2025      1.00000
      8       4.2471      1.00000
      9       4.7584      1.00000
     10       4.7752      1.00000
     11       5.3884      1.00000
     12       5.5472      1.00000
     13       5.7002      1.00000
     14       5.8933      1.00000
     15       5.9256      1.00000
     16       6.2548      1.00000
     17       6.3795      1.00005
     18       8.1945     -0.00000
     19       8.2123     -0.00000
     20      13.2998      0.00000
     21      13.9955      0.00000
     22      15.5759      0.00000
     23      17.1935      0.00000
     24      17.6662      0.00000

 k-point   134 :       0.4444    0.4444    0.1111
  band No.  band energies     occupation 
      1       0.7741      1.00000
      2       1.8913      1.00000
      3       1.9154      1.00000
      4       3.3886      1.00000
      5       3.6896      1.00000
      6       4.1520      1.00000
      7       4.2223      1.00000
      8       4.2534      1.00000
      9       4.7327      1.00000
     10       4.8259      1.00000
     11       5.3437      1.00000
     12       5.6195      1.00000
     13       5.6398      1.00000
     14       5.8632      1.00000
     15       5.9321      1.00000
     16       6.1829      1.00000
     17       6.3857      1.00007
     18       7.8944     -0.00000
     19       8.1721     -0.00000
     20      13.4413      0.00000
     21      14.6285      0.00000
     22      14.8926      0.00000
     23      16.9046      0.00000
     24      17.8006      0.00000

 k-point   135 :       0.5000    0.4444    0.1111
  band No.  band energies     occupation 
      1       0.9451      1.00000
      2       1.7378      1.00000
      3       1.9872      1.00000
      4       3.3437      1.00000
      5       3.6886      1.00000
      6       4.1802      1.00000
      7       4.2232      1.00000
      8       4.2690      1.00000
      9       4.7865      1.00000
     10       4.7924      1.00000
     11       5.3168      1.00000
     12       5.6092      1.00000
     13       5.6569      1.00000
     14       5.8300      1.00000
     15       5.9381      1.00000
     16       6.1544      1.00000
     17       6.3621      1.00003
     18       7.9594     -0.00000
     19       7.9606     -0.00000
     20      13.7430      0.00000
     21      14.3795      0.00000
     22      14.9570      0.00000
     23      16.6961      0.00000
     24      17.8772      0.00000

 k-point   136 :       0.5000    0.5000    0.1111
  band No.  band energies     occupation 
      1       1.1002      1.00000
      2       1.8373      1.00000
      3       1.8373      1.00000
      4       3.2858      1.00000
      5       3.6850      1.00000
      6       4.2147      1.00000
      7       4.2147      1.00000
      8       4.2958      1.00000
      9       4.7984      1.00000
     10       4.7984      1.00000
     11       5.2887      1.00000
     12       5.6381      1.00000
     13       5.6381      1.00000
     14       5.7963      1.00000
     15       5.9414      1.00000
     16       6.1208      1.00000
     17       6.3488      1.00002
     18       7.8816     -0.00000
     19       7.8816     -0.00000
     20      14.0859      0.00000
     21      14.5536      0.00000
     22      14.5536      0.00000
     23      16.4824      0.00000
     24      17.9651      0.00000

 k-point   137 :       0.1667    0.1667    0.1667
  band No.  band energies     occupation 
      1      -2.4214      1.00000
      2       2.5597      1.00000
      3       3.0073      1.00000
      4       3.0073      1.00000
      5       3.3055      1.00000
      6       3.6683      1.00000
      7       3.6683      1.00000
      8       4.6261      1.00000
      9       5.2238      1.00000
     10       5.2238      1.00000
     11       5.7494      1.00000
     12       5.7494      1.00000
     13       6.1855      1.00000
     14       6.1855      1.00000
     15       6.2015      1.00000
     16       6.8478      0.97694
     17       7.7988     -0.00000
     18       8.5311     -0.00000
     19       8.5311     -0.00000
     20      15.5682      0.00000
     21      15.5682      0.00000
     22      15.9510      0.00000
     23      16.7344      0.00000
     24      16.7344      0.00000

 k-point   138 :       0.2222    0.1667    0.1667
  band No.  band energies     occupation 
      1      -2.1592      1.00000
      2       2.5360      1.00000
      3       2.8858      1.00000
      4       3.1696      1.00000
      5       3.3189      1.00000
      6       3.7043      1.00000
      7       3.7597      1.00000
      8       4.5318      1.00000
      9       5.0763      1.00000
     10       5.1033      1.00000
     11       5.6646      1.00000
     12       5.7546      1.00000
     13       6.0813      1.00000
     14       6.0995      1.00000
     15       6.1922      1.00000
     16       6.8270      1.00314
     17       7.5207     -0.00069
     18       8.6160     -0.00000
     19       8.7984     -0.00000
     20      14.8367      0.00000
     21      15.0584      0.00000
     22      16.1289      0.00000
     23      16.6650      0.00000
     24      17.0228      0.00000

 k-point   139 :       0.2778    0.1667    0.1667
  band No.  band energies     occupation 
      1      -1.8287      1.00000
      2       2.2816      1.00000
      3       2.8876      1.00000
      4       3.3559      1.00000
      5       3.3563      1.00000
      6       3.7530      1.00000
      7       3.8374      1.00000
      8       4.4768      1.00000
      9       4.9233      1.00000
     10       4.9531      1.00000
     11       5.6288      1.00000
     12       5.7370      1.00000
     13       5.9554      1.00000
     14       6.0220      1.00000
     15       6.1968      1.00000
     16       6.7882      1.02961
     17       7.0904      0.15256
     18       8.9824     -0.00000
     19       9.0979     -0.00000
     20      14.0462      0.00000
     21      14.2348      0.00000
     22      16.5346      0.00000
     23      16.7614      0.00000
     24      17.2614      0.00000

 k-point   140 :       0.3333    0.1667    0.1667
  band No.  band energies     occupation 
      1      -1.4369      1.00000
      2       1.8570      1.00000
      3       2.9539      1.00000
      4       3.4051      1.00000
      5       3.5400      1.00000
      6       3.8237      1.00000
      7       3.8831      1.00000
      8       4.4768      1.00000
      9       4.7692      1.00000
     10       4.8358      1.00000
     11       5.6028      1.00000
     12       5.7114      1.00000
     13       5.8214      1.00000
     14       5.9593      1.00000
     15       6.1981      1.00000
     16       6.7223      1.03247
     17       6.7427      1.03505
     18       9.4133     -0.00000
     19       9.4234     -0.00000
     20      13.3185      0.00000
     21      13.4484      0.00000
     22      16.9093      0.00000
     23      16.9491      0.00000
     24      17.5110      0.00000

 k-point   141 :       0.3889    0.1667    0.1667
  band No.  band energies     occupation 
      1      -0.9962      1.00000
      2       1.3534      1.00000
      3       3.0222      1.00000
      4       3.4435      1.00000
      5       3.6756      1.00000
      6       3.9015      1.00000
      7       3.9414      1.00000
      8       4.5290      1.00000
      9       4.6159      1.00000
     10       4.7641      1.00000
     11       5.5712      1.00000
     12       5.6983      1.00000
     13       5.7010      1.00000
     14       5.8963      1.00000
     15       6.1970      1.00000
     16       6.4484      1.00035
     17       6.7020      1.02845
     18       9.7230     -0.00000
     19       9.8962     -0.00000
     20      12.7030      0.00000
     21      12.7303      0.00000
     22      17.0631      0.00000
     23      17.3595      0.00000
     24      17.7934      0.00000

 k-point   142 :       0.4444    0.1667    0.1667
  band No.  band energies     occupation 
      1      -0.5421      1.00000
      2       0.8458      1.00000
      3       3.0734      1.00000
      4       3.4566      1.00000
      5       3.7417      1.00000
      6       3.9147      1.00000
      7       4.1027      1.00000
      8       4.4636      1.00000
      9       4.6006      1.00000
     10       4.7213      1.00000
     11       5.5351      1.00000
     12       5.6201      1.00000
     13       5.7103      1.00000
     14       5.8298      1.00000
     15       6.1952      1.00000
     16       6.2783      1.00000
     17       6.6749      1.02227
     18       9.9802     -0.00000
     19      10.3520     -0.00000
     20      12.1275     -0.00000
     21      12.2582     -0.00000
     22      17.1824      0.00000
     23      17.6979      0.00000
     24      18.1218      0.00000

 k-point   143 :       0.5000    0.1667    0.1667
  band No.  band energies     occupation 
      1      -0.2654      1.00000
      2       0.5488      1.00000
      3       3.0932      1.00000
      4       3.4565      1.00000
      5       3.7607      1.00000
      6       3.9219      1.00000
      7       4.2260      1.00000
      8       4.3493      1.00000
      9       4.6439      1.00000
     10       4.6960      1.00000
     11       5.5174      1.00000
     12       5.5925      1.00000
     13       5.7344      1.00000
     14       5.7854      1.00000
     15       6.1944      1.00000
     16       6.2205      1.00000
     17       6.6656      1.02015
     18      10.0896     -0.00000
     19      10.5964     -0.00000
     20      11.8341     -0.00000
     21      12.0856     -0.00000
     22      17.2282      0.00000
     23      17.8342      0.00000
     24      18.4232      0.00000

 k-point   144 :       0.2222    0.2222    0.1667
  band No.  band energies     occupation 
      1      -1.9019      1.00000
      2       2.5619      1.00000
      3       2.8506      1.00000
      4       3.1847      1.00000
      5       3.3475      1.00000
      6       3.7519      1.00000
      7       3.8372      1.00000
      8       4.4489      1.00000
      9       4.9480      1.00000
     10       4.9912      1.00000
     11       5.6838      1.00000
     12       5.7150      1.00000
     13       5.9753      1.00000
     14       6.0482      1.00000
     15       6.1456      1.00000
     16       6.8142      1.01482
     17       7.5653     -0.00023
     18       8.3246     -0.00000
     19       8.9716     -0.00000
     20      14.0931      0.00000
     21      15.2726      0.00000
     22      15.3238      0.00000
     23      16.9192      0.00000
     24      17.6624      0.00000

 k-point   145 :       0.2778    0.2222    0.1667
  band No.  band energies     occupation 
      1      -1.5784      1.00000
      2       2.3832      1.00000
      3       2.8095      1.00000
      4       3.3282      1.00000
      5       3.4064      1.00000
      6       3.7874      1.00000
      7       3.9205      1.00000
      8       4.4027      1.00000
      9       4.7978      1.00000
     10       4.8905      1.00000
     11       5.6674      1.00000
     12       5.7155      1.00000
     13       5.8793      1.00000
     14       5.9562      1.00000
     15       6.1376      1.00000
     16       6.7768      1.03300
     17       7.2445     -0.03545
     18       8.4386     -0.00000
     19       9.2554     -0.00000
     20      13.2922      0.00000
     21      14.4639      0.00000
     22      15.6699      0.00000
     23      17.1034      0.00000
     24      18.1238      0.00000

 k-point   146 :       0.3333    0.2222    0.1667
  band No.  band energies     occupation 
      1      -1.1956      1.00000
      2       1.9963      1.00000
      3       2.8461      1.00000
      4       3.4751      1.00000
      5       3.5072      1.00000
      6       3.8304      1.00000
      7       3.9697      1.00000
      8       4.4155      1.00000
      9       4.6714      1.00000
     10       4.7979      1.00000
     11       5.6312      1.00000
     12       5.7097      1.00000
     13       5.8211      1.00000
     14       5.8571      1.00000
     15       6.1347      1.00000
     16       6.7221      1.03243
     17       6.8644      0.94887
     18       8.7337     -0.00000
     19       9.5567     -0.00000
     20      12.5933      0.00000
     21      13.6913      0.00000
     22      16.0758      0.00000
     23      17.3080      0.00000
     24      18.4080      0.00000

 k-point   147 :       0.3889    0.2222    0.1667
  band No.  band energies     occupation 
      1      -0.7674      1.00000
      2       1.5228      1.00000
      3       2.8871      1.00000
      4       3.5293      1.00000
      5       3.6660      1.00000
      6       3.8946      1.00000
      7       3.9930      1.00000
      8       4.4711      1.00000
      9       4.5718      1.00000
     10       4.7274      1.00000
     11       5.5876      1.00000
     12       5.6777      1.00000
     13       5.7606      1.00000
     14       5.8243      1.00000
     15       6.1251      1.00000
     16       6.5419      1.00290
     17       6.6857      1.02476
     18       9.0664     -0.00000
     19       9.8268     -0.00000
     20      12.0583     -0.00000
     21      13.0031      0.00000
     22      16.5001      0.00000
     23      17.5161      0.00000
     24      18.6050      0.00000

 k-point   148 :       0.4444    0.2222    0.1667
  band No.  band energies     occupation 
      1      -0.3308      1.00000
      2       1.0439      1.00000
      3       2.9157      1.00000
      4       3.5503      1.00000
      5       3.7621      1.00000
      6       3.9707      1.00000
      7       4.0335      1.00000
      8       4.4355      1.00000
      9       4.5832      1.00000
     10       4.6807      1.00000
     11       5.5482      1.00000
     12       5.6378      1.00000
     13       5.7254      1.00000
     14       5.8248      1.00000
     15       6.1116      1.00000
     16       6.3437      1.00002
     17       6.6465      1.01605
     18       9.3829     -0.00000
     19       9.9698     -0.00000
     20      11.7923     -0.00000
     21      12.4353     -0.00000
     22      16.8883      0.00000
     23      17.6989      0.00000
     24      18.5137      0.00000

 k-point   149 :       0.5000    0.2222    0.1667
  band No.  band energies     occupation 
      1      -0.0722      1.00000
      2       0.7687      1.00000
      3       2.9259      1.00000
      4       3.5532      1.00000
      5       3.7910      1.00000
      6       3.9930      1.00000
      7       4.0816      1.00000
      8       4.3854      1.00000
      9       4.6245      1.00000
     10       4.6523      1.00000
     11       5.5341      1.00000
     12       5.6166      1.00000
     13       5.7196      1.00000
     14       5.8260      1.00000
     15       6.1049      1.00000
     16       6.2727      1.00000
     17       6.6333      1.01348
     18       9.5520     -0.00000
     19       9.9652     -0.00000
     20      11.7993     -0.00000
     21      12.1383     -0.00000
     22      17.0741      0.00000
     23      17.7996      0.00000
     24      18.3204      0.00000

 k-point   150 :       0.2778    0.2778    0.1667
  band No.  band energies     occupation 
      1      -1.2642      1.00000
      2       2.4199      1.00000
      3       2.6382      1.00000
      4       3.3809      1.00000
      5       3.4912      1.00000
      6       3.8045      1.00000
      7       4.0197      1.00000
      8       4.3473      1.00000
      9       4.6740      1.00000
     10       4.8407      1.00000
     11       5.6796      1.00000
     12       5.7201      1.00000
     13       5.7523      1.00000
     14       5.9220      1.00000
     15       6.0982      1.00000
     16       6.7382      1.03466
     17       7.2281     -0.03448
     18       8.1305     -0.00000
     19       9.4698     -0.00000
     20      12.5500      0.00000
     21      14.7703      0.00000
     22      14.8816      0.00000
     23      17.3253      0.00000
     24      19.0564      0.00000

 k-point   151 :       0.3333    0.2778    0.1667
  band No.  band energies     occupation 
      1      -0.8943      1.00000
      2       2.1426      1.00000
      3       2.6391      1.00000
      4       3.4836      1.00000
      5       3.5886      1.00000
      6       3.8280      1.00000
      7       4.0801      1.00000
      8       4.3457      1.00000
      9       4.5881      1.00000
     10       4.7898      1.00000
     11       5.6264      1.00000
     12       5.6798      1.00000
     13       5.7456      1.00000
     14       5.8669      1.00000
     15       6.0818      1.00000
     16       6.6789      1.02320
     17       6.9547      0.67972
     18       8.2094     -0.00000
     19       9.6338     -0.00000
     20      11.9860     -0.00000
     21      14.0425      0.00000
     22      15.2350      0.00000
     23      17.5505      0.00000
     24      19.0511      0.00000

 k-point   152 :       0.3889    0.2778    0.1667
  band No.  band energies     occupation 
      1      -0.4834      1.00000
      2       1.7174      1.00000
      3       2.6899      1.00000
      4       3.5789      1.00000
      5       3.6796      1.00000
      6       3.8731      1.00000
      7       4.0950      1.00000
      8       4.3785      1.00000
      9       4.5607      1.00000
     10       4.7398      1.00000
     11       5.5519      1.00000
     12       5.6308      1.00000
     13       5.7700      1.00000
     14       5.8416      1.00000
     15       6.0641      1.00000
     16       6.5813      1.00601
     17       6.6836      1.02430
     18       8.4550     -0.00000
     19       9.6450     -0.00000
     20      11.7129     -0.00000
     21      13.3452      0.00000
     22      15.6634      0.00000
     23      17.7533      0.00000
     24      18.4972      0.00000

 k-point   153 :       0.4444    0.2778    0.1667
  band No.  band energies     occupation 
      1      -0.0711      1.00000
      2       1.2803      1.00000
      3       2.7227      1.00000
      4       3.6118      1.00000
      5       3.7701      1.00000
      6       3.9259      1.00000
      7       4.1057      1.00000
      8       4.3698      1.00000
      9       4.6012      1.00000
     10       4.6970      1.00000
     11       5.5077      1.00000
     12       5.5755      1.00000
     13       5.7911      1.00000
     14       5.8545      1.00000
     15       6.0361      1.00000
     16       6.3976      1.00009
     17       6.6012      1.00837
     18       8.7523     -0.00000
     19       9.4563     -0.00000
     20      11.7766     -0.00000
     21      12.7523      0.00000
     22      16.0668      0.00000
     23      17.7671      0.00000
     24      18.1429      0.00000

 k-point   154 :       0.5000    0.2778    0.1667
  band No.  band energies     occupation 
      1       0.1641      1.00000
      2       1.0343      1.00000
      3       2.7336      1.00000
      4       3.6156      1.00000
      5       3.8100      1.00000
      6       3.9491      1.00000
      7       4.1132      1.00000
      8       4.3566      1.00000
      9       4.6331      1.00000
     10       4.6743      1.00000
     11       5.4990      1.00000
     12       5.5459      1.00000
     13       5.8009      1.00000
     14       5.8691      1.00000
     15       6.0183      1.00000
     16       6.3187      1.00001
     17       6.5816      1.00605
     18       8.9797     -0.00000
     19       9.2474     -0.00000
     20      11.9544     -0.00000
     21      12.4159     -0.00000
     22      16.2695      0.00000
     23      17.6035      0.00000
     24      18.1340      0.00000

 k-point   155 :       0.3333    0.3333    0.1667
  band No.  band energies     occupation 
      1      -0.5417      1.00000
      2       2.2179      1.00000
      3       2.3950      1.00000
      4       3.4988      1.00000
      5       3.6845      1.00000
      6       3.8527      1.00000
      7       4.1613      1.00000
      8       4.3066      1.00000
      9       4.5522      1.00000
     10       4.7795      1.00000
     11       5.5403      1.00000
     12       5.6634      1.00000
     13       5.7290      1.00000
     14       5.8691      1.00000
     15       6.0533      1.00000
     16       6.6156      1.01046
     17       6.8871      0.89941
     18       7.9713     -0.00000
     19       9.5452     -0.00000
     20      11.6825     -0.00000
     21      14.3471      0.00000
     22      14.5499      0.00000
     23      17.7450      0.00000
     24      18.4916      0.00000

 k-point   156 :       0.3889    0.3333    0.1667
  band No.  band energies     occupation 
      1      -0.1544      1.00000
      2       1.9150      1.00000
      3       2.4317      1.00000
      4       3.5247      1.00000
      5       3.7431      1.00000
      6       3.9179      1.00000
      7       4.1805      1.00000
      8       4.3181      1.00000
      9       4.5747      1.00000
     10       4.7605      1.00000
     11       5.4512      1.00000
     12       5.6367      1.00000
     13       5.7400      1.00000
     14       5.8771      1.00000
     15       6.0332      1.00000
     16       6.5362      1.00258
     17       6.6754      1.02238
     18       8.0298     -0.00000
     19       9.2632     -0.00000
     20      11.7219     -0.00000
     21      13.7314      0.00000
     22      14.8911      0.00000
     23      17.5805      0.00000
     24      18.2531      0.00000

 k-point   157 :       0.4444    0.3333    0.1667
  band No.  band energies     occupation 
      1       0.2254      1.00000
      2       1.5371      1.00000
      3       2.4950      1.00000
      4       3.5388      1.00000
      5       3.7920      1.00000
      6       3.9621      1.00000
      7       4.2077      1.00000
      8       4.3112      1.00000
      9       4.6395      1.00000
     10       4.7331      1.00000
     11       5.3950      1.00000
     12       5.5911      1.00000
     13       5.7872      1.00000
     14       5.8907      1.00000
     15       5.9996      1.00000
     16       6.4176      1.00016
     17       6.5325      1.00240
     18       8.2403     -0.00000
     19       8.9008     -0.00000
     20      11.9848     -0.00000
     21      13.1314      0.00000
     22      15.2954      0.00000
     23      17.1030      0.00000
     24      18.3821      0.00000

 k-point   158 :       0.5000    0.3333    0.1667
  band No.  band energies     occupation 
      1       0.4321      1.00000
      2       1.3283      1.00000
      3       2.5172      1.00000
      4       3.5416      1.00000
      5       3.8174      1.00000
      6       3.9692      1.00000
      7       4.2363      1.00000
      8       4.2950      1.00000
      9       4.6871      1.00000
     10       4.7053      1.00000
     11       5.3766      1.00000
     12       5.5724      1.00000
     13       5.8146      1.00000
     14       5.9022      1.00000
     15       5.9728      1.00000
     16       6.3467      1.00002
     17       6.5014      1.00124
     18       8.4752     -0.00000
     19       8.6105     -0.00000
     20      12.2224     -0.00000
     21      12.7895      0.00000
     22      15.5025      0.00000
     23      16.8581      0.00000
     24      18.4522      0.00000

 k-point   159 :       0.3889    0.3889    0.1667
  band No.  band energies     occupation 
      1       0.2011      1.00000
      2       2.0427      1.00000
      3       2.1717      1.00000
      4       3.4538      1.00000
      5       3.7799      1.00000
      6       4.0098      1.00000
      7       4.1981      1.00000
      8       4.3349      1.00000
      9       4.6184      1.00000
     10       4.7732      1.00000
     11       5.3544      1.00000
     12       5.6695      1.00000
     13       5.6906      1.00000
     14       5.9006      1.00000
     15       6.0213      1.00000
     16       6.4615      1.00049
     17       6.5726      1.00516
     18       7.8595     -0.00000
     19       8.8188     -0.00000
     20      11.9609     -0.00000
     21      14.0368      0.00000
     22      14.3048      0.00000
     23      16.9748      0.00000
     24      18.4611      0.00000

 k-point   160 :       0.4444    0.3889    0.1667
  band No.  band energies     occupation 
      1       0.5386      1.00000
      2       1.7856      1.00000
      3       2.2407      1.00000
      4       3.3994      1.00000
      5       3.8055      1.00000
      6       4.0620      1.00000
      7       4.2176      1.00000
      8       4.3621      1.00000
      9       4.6856      1.00000
     10       4.7687      1.00000
     11       5.2898      1.00000
     12       5.6340      1.00000
     13       5.7310      1.00000
     14       5.9147      1.00000
     15       5.9949      1.00000
     16       6.3867      1.00007
     17       6.4397      1.00028
     18       7.9132     -0.00000
     19       8.4218     -0.00000
     20      12.3126     -0.00000
     21      13.5424      0.00000
     22      14.5965      0.00000
     23      16.4292      0.00000
     24      18.6681      0.00000

 k-point   161 :       0.5000    0.3889    0.1667
  band No.  band energies     occupation 
      1       0.7119      1.00000
      2       1.6215      1.00000
      3       2.2846      1.00000
      4       3.3790      1.00000
      5       3.8160      1.00000
      6       4.0682      1.00000
      7       4.2413      1.00000
      8       4.3681      1.00000
      9       4.7411      1.00000
     10       4.7415      1.00000
     11       5.2675      1.00000
     12       5.6194      1.00000
     13       5.7568      1.00000
     14       5.9213      1.00000
     15       5.9701      1.00000
     16       6.3478      1.00002
     17       6.3914      1.00008
     18       8.0904     -0.00000
     19       8.1365     -0.00000
     20      12.5730      0.00000
     21      13.2046      0.00000
     22      14.7981      0.00000
     23      16.1738      0.00000
     24      18.7538      0.00000

 k-point   162 :       0.4444    0.4444    0.1667
  band No.  band energies     occupation 
      1       0.8241      1.00000
      2       1.9578      1.00000
      3       2.0175      1.00000
      4       3.2745      1.00000
      5       3.8103      1.00000
      6       4.1446      1.00000
      7       4.1964      1.00000
      8       4.4445      1.00000
      9       4.7366      1.00000
     10       4.7871      1.00000
     11       5.2157      1.00000
     12       5.6837      1.00000
     13       5.6874      1.00000
     14       5.9250      1.00000
     15       5.9661      1.00000
     16       6.3197      1.00001
     17       6.3614      1.00003
     18       7.7956     -0.00000
     19       8.0694     -0.00000
     20      12.7052      0.00000
     21      13.8480      0.00000
     22      14.0746      0.00000
     23      15.8742      0.00000
     24      18.8984      0.00000

 k-point   163 :       0.5000    0.4444    0.1667
  band No.  band energies     occupation 
      1       0.9615      1.00000
      2       1.8622      1.00000
      3       2.0675      1.00000
      4       3.2216      1.00000
      5       3.8114      1.00000
      6       4.1592      1.00000
      7       4.2075      1.00000
      8       4.4759      1.00000
      9       4.7753      1.00000
     10       4.7778      1.00000
     11       5.1889      1.00000
     12       5.6746      1.00000
     13       5.7106      1.00000
     14       5.9268      1.00000
     15       5.9344      1.00000
     16       6.2932      1.00000
     17       6.3273      1.00001
     18       7.8539     -0.00000
     19       7.8616     -0.00000
     20      12.9848      0.00000
     21      13.5944      0.00000
     22      14.1747      0.00000
     23      15.6223      0.00000
     24      18.9909      0.00000

 k-point   164 :       0.5000    0.5000    0.1667
  band No.  band energies     occupation 
      1       1.0778      1.00000
      2       1.9628      1.00000
      3       1.9628      1.00000
      4       3.1508      1.00000
      5       3.8091      1.00000
      6       4.1961      1.00000
      7       4.1961      1.00000
      8       4.5186      1.00000
      9       4.7906      1.00000
     10       4.7906      1.00000
     11       5.1594      1.00000
     12       5.7021      1.00000
     13       5.7021      1.00000
     14       5.8947      1.00000
     15       5.9257      1.00000
     16       6.2598      1.00000
     17       6.3134      1.00001
     18       7.7750     -0.00000
     19       7.7750     -0.00000
     20      13.3042      0.00000
     21      13.7847      0.00000
     22      13.7847      0.00000
     23      15.3782      0.00000
     24      19.0854      0.00000

 k-point   165 :       0.2222    0.2222    0.2222
  band No.  band energies     occupation 
      1      -1.6504      1.00000
      2       2.5461      1.00000
      3       3.0186      1.00000
      4       3.0186      1.00000
      5       3.4017      1.00000
      6       3.8534      1.00000
      7       3.8534      1.00000
      8       4.3888      1.00000
      9       4.8660      1.00000
     10       4.8660      1.00000
     11       5.6976      1.00000
     12       5.6976      1.00000
     13       5.8449      1.00000
     14       6.0646      1.00000
     15       6.0646      1.00000
     16       6.8237      1.00647
     17       7.6849     -0.00001
     18       8.4817     -0.00000
     19       8.4817     -0.00000
     20      14.3729      0.00000
     21      14.3729      0.00000
     22      14.5304      0.00000
     23      17.8302      0.00000
     24      17.8302      0.00000

 k-point   166 :       0.2778    0.2222    0.2222
  band No.  band energies     occupation 
      1      -1.3346      1.00000
      2       2.4165      1.00000
      3       2.8626      1.00000
      4       3.2146      1.00000
      5       3.4861      1.00000
      6       3.8740      1.00000
      7       3.9383      1.00000
      8       4.3639      1.00000
      9       4.7517      1.00000
     10       4.7708      1.00000
     11       5.6904      1.00000
     12       5.7005      1.00000
     13       5.7483      1.00000
     14       5.9714      1.00000
     15       6.0781      1.00000
     16       6.8012      1.02355
     17       7.4125     -0.00632
     18       8.5073     -0.00000
     19       8.6607     -0.00000
     20      13.5619      0.00000
     21      13.6523      0.00000
     22      14.7970      0.00000
     23      18.0330      0.00000
     24      18.4448      0.00000

 k-point   167 :       0.3333    0.2222    0.2222
  band No.  band energies     occupation 
      1      -0.9625      1.00000
      2       2.0986      1.00000
      3       2.8018      1.00000
      4       3.4216      1.00000
      5       3.5739      1.00000
      6       3.8965      1.00000
      7       3.9873      1.00000
      8       4.3954      1.00000
      9       4.6699      1.00000
     10       4.6770      1.00000
     11       5.6279      1.00000
     12       5.6717      1.00000
     13       5.7575      1.00000
     14       5.8877      1.00000
     15       6.0818      1.00000
     16       6.7566      1.03542
     17       6.9925      0.52472
     18       8.8111     -0.00000
     19       8.8466     -0.00000
     20      12.8681      0.00000
     21      12.8997      0.00000
     22      15.2033      0.00000
     23      18.2524      0.00000
     24      18.6530      0.00000

 k-point   168 :       0.3889    0.2222    0.2222
  band No.  band energies     occupation 
      1      -0.5487      1.00000
      2       1.6698      1.00000
      3       2.7893      1.00000
      4       3.6174      1.00000
      5       3.6315      1.00000
      6       3.9155      1.00000
      7       4.0269      1.00000
      8       4.4596      1.00000
      9       4.5731      1.00000
     10       4.6442      1.00000
     11       5.5624      1.00000
     12       5.6317      1.00000
     13       5.7929      1.00000
     14       5.8406      1.00000
     15       6.0704      1.00000
     16       6.6346      1.01372
     17       6.7051      1.02913
     18       9.0197     -0.00000
     19       9.1690     -0.00000
     20      12.2433     -0.00000
     21      12.3220     -0.00000
     22      15.6391      0.00000
     23      18.2947      0.00000
     24      18.4600      0.00000

 k-point   169 :       0.4444    0.2222    0.2222
  band No.  band energies     occupation 
      1      -0.1328      1.00000
      2       1.2276      1.00000
      3       2.7885      1.00000
      4       3.6493      1.00000
      5       3.7747      1.00000
      6       3.9203      1.00000
      7       4.0776      1.00000
      8       4.4957      1.00000
      9       4.5011      1.00000
     10       4.6461      1.00000
     11       5.5220      1.00000
     12       5.5937      1.00000
     13       5.8303      1.00000
     14       5.8323      1.00000
     15       6.0458      1.00000
     16       6.3856      1.00007
     17       6.6646      1.01994
     18       9.1505     -0.00000
     19       9.4918     -0.00000
     20      11.7443     -0.00000
     21      11.9627     -0.00000
     22      16.0564      0.00000
     23      17.7929      0.00000
     24      18.6150      0.00000

 k-point   170 :       0.5000    0.2222    0.2222
  band No.  band energies     occupation 
      1       0.1052      1.00000
      2       0.9781      1.00000
      3       2.7891      1.00000
      4       3.6508      1.00000
      5       3.8525      1.00000
      6       3.9054      1.00000
      7       4.1033      1.00000
      8       4.4640      1.00000
      9       4.5096      1.00000
     10       4.6546      1.00000
     11       5.5085      1.00000
     12       5.5807      1.00000
     13       5.8330      1.00000
     14       5.8530      1.00000
     15       6.0298      1.00000
     16       6.2911      1.00000
     17       6.6494      1.01665
     18       9.2009     -0.00000
     19       9.6379     -0.00000
     20      11.5397     -0.00000
     21      11.8353     -0.00000
     22      16.2734      0.00000
     23      17.5401      0.00000
     24      18.6736      0.00000

 k-point   171 :       0.2778    0.2778    0.2222
  band No.  band energies     occupation 
      1      -1.0298      1.00000
      2       2.3757      1.00000
      3       2.8085      1.00000
      4       3.2185      1.00000
      5       3.5897      1.00000
      6       3.9036      1.00000
      7       4.0057      1.00000
      8       4.3444      1.00000
      9       4.6625      1.00000
     10       4.7184      1.00000
     11       5.6122      1.00000
     12       5.7067      1.00000
     13       5.7142      1.00000
     14       5.9532      1.00000
     15       6.0423      1.00000
     16       6.7895      1.02913
     17       7.4194     -0.00561
     18       8.1823     -0.00000
     19       8.7515     -0.00000
     20      12.8411      0.00000
     21      13.9083      0.00000
     22      14.0319      0.00000
     23      18.4047      0.00000
     24      18.9725      0.00000

 k-point   172 :       0.3333    0.2778    0.2222
  band No.  band energies     occupation 
      1      -0.6726      1.00000
      2       2.1780      1.00000
      3       2.7038      1.00000
      4       3.3581      1.00000
      5       3.6870      1.00000
      6       3.9167      1.00000
      7       4.0611      1.00000
      8       4.3702      1.00000
      9       4.6071      1.00000
     10       4.6746      1.00000
     11       5.5121      1.00000
     12       5.6900      1.00000
     13       5.7390      1.00000
     14       5.9086      1.00000
     15       6.0394      1.00000
     16       6.7487      1.03538
     17       7.0976      0.13180
     18       8.2359     -0.00000
     19       8.9076     -0.00000
     20      12.2115     -0.00000
     21      13.2244      0.00000
     22      14.3782      0.00000
     23      18.1836      0.00000
     24      18.7753      0.00000

 k-point   173 :       0.3889    0.2778    0.2222
  band No.  band energies     occupation 
      1      -0.2794      1.00000
      2       1.8290      1.00000
      3       2.6590      1.00000
      4       3.5190      1.00000
      5       3.7438      1.00000
      6       3.9303      1.00000
      7       4.1162      1.00000
      8       4.4100      1.00000
      9       4.5848      1.00000
     10       4.6488      1.00000
     11       5.4373      1.00000
     12       5.6500      1.00000
     13       5.7828      1.00000
     14       5.8936      1.00000
     15       6.0282      1.00000
     16       6.6771      1.02277
     17       6.7415      1.03496
     18       8.4429     -0.00000
     19       9.0343     -0.00000
     20      11.7656     -0.00000
     21      12.5917      0.00000
     22      14.8132      0.00000
     23      17.5415      0.00000
     24      18.9853      0.00000

 k-point   174 :       0.4444    0.2778    0.2222
  band No.  band energies     occupation 
      1       0.1073      1.00000
      2       1.4440      1.00000
      3       2.6436      1.00000
      4       3.6334      1.00000
      5       3.7806      1.00000
      6       3.9223      1.00000
      7       4.1960      1.00000
      8       4.4090      1.00000
      9       4.5710      1.00000
     10       4.6601      1.00000
     11       5.3913      1.00000
     12       5.6172      1.00000
     13       5.8418      1.00000
     14       5.9105      1.00000
     15       5.9981      1.00000
     16       6.4273      1.00020
     17       6.6591      1.01872
     18       8.6465     -0.00000
     19       9.0887     -0.00000
     20      11.5531     -0.00000
     21      12.1055     -0.00000
     22      15.2369      0.00000
     23      16.9758      0.00000
     24      19.1620      0.00000

 k-point   175 :       0.5000    0.2778    0.2222
  band No.  band energies     occupation 
      1       0.3183      1.00000
      2       1.2300      1.00000
      3       2.6396      1.00000
      4       3.6648      1.00000
      5       3.8161      1.00000
      6       3.9034      1.00000
      7       4.2420      1.00000
      8       4.3943      1.00000
      9       4.5623      1.00000
     10       4.6726      1.00000
     11       5.3759      1.00000
     12       5.6076      1.00000
     13       5.8884      1.00000
     14       5.9176      1.00000
     15       5.9782      1.00000
     16       6.3070      1.00001
     17       6.6407      1.01488
     18       8.7444     -0.00000
     19       9.0853     -0.00000
     20      11.5317     -0.00000
     21      11.8855     -0.00000
     22      15.4623      0.00000
     23      16.7019      0.00000
     24      19.2309      0.00000

 k-point   176 :       0.3333    0.3333    0.2222
  band No.  band energies     occupation 
      1      -0.3360      1.00000
      2       2.1674      1.00000
      3       2.5628      1.00000
      4       3.3623      1.00000
      5       3.7817      1.00000
      6       3.9467      1.00000
      7       4.1166      1.00000
      8       4.3822      1.00000
      9       4.5904      1.00000
     10       4.6760      1.00000
     11       5.4037      1.00000
     12       5.7095      1.00000
     13       5.7166      1.00000
     14       5.9072      1.00000
     15       6.0285      1.00000
     16       6.7083      1.02980
     17       7.0373      0.33837
     18       7.9292     -0.00000
     19       8.9229     -0.00000
     20      11.7416     -0.00000
     21      13.5387      0.00000
     22      13.7056      0.00000
     23      17.4661      0.00000
     24      19.0584      0.00000

 k-point   177 :       0.3889    0.3333    0.2222
  band No.  band energies     occupation 
      1       0.0286      1.00000
      2       1.9700      1.00000
      3       2.4919      1.00000
      4       3.4139      1.00000
      5       3.8352      1.00000
      6       3.9852      1.00000
      7       4.1661      1.00000
      8       4.4184      1.00000
      9       4.6122      1.00000
     10       4.6779      1.00000
     11       5.3198      1.00000
     12       5.6707      1.00000
     13       5.7537      1.00000
     14       5.9120      1.00000
     15       6.0278      1.00000
     16       6.6412      1.01500
     17       6.7685      1.03448
     18       7.9644     -0.00000
     19       8.8341     -0.00000
     20      11.5313     -0.00000
     21      12.9559      0.00000
     22      14.0603      0.00000
     23      16.7762      0.00000
     24      19.3235      0.00000

 k-point   178 :       0.4444    0.3333    0.2222
  band No.  band energies     occupation 
      1       0.3752      1.00000
      2       1.6745      1.00000
      3       2.4810      1.00000
      4       3.4624      1.00000
      5       3.8820      1.00000
      6       3.9741      1.00000
      7       4.2538      1.00000
      8       4.4217      1.00000
      9       4.6424      1.00000
     10       4.6890      1.00000
     11       5.2674      1.00000
     12       5.6421      1.00000
     13       5.8097      1.00000
     14       5.9230      1.00000
     15       6.0300      1.00000
     16       6.4480      1.00035
     17       6.6231      1.01167
     18       8.1402     -0.00000
     19       8.6516     -0.00000
     20      11.5712     -0.00000
     21      12.4218     -0.00000
     22      14.4805      0.00000
     23      16.1934      0.00000
     24      19.5289      0.00000

 k-point   179 :       0.5000    0.3333    0.2222
  band No.  band energies     occupation 
      1       0.5526      1.00000
      2       1.5080      1.00000
      3       2.4804      1.00000
      4       3.4800      1.00000
      5       3.9262      1.00000
      6       3.9401      1.00000
      7       4.3076      1.00000
      8       4.4067      1.00000
      9       4.6476      1.00000
     10       4.7015      1.00000
     11       5.2498      1.00000
     12       5.6364      1.00000
     13       5.8469      1.00000
     14       5.9153      1.00000
     15       6.0523      1.00000
     16       6.3130      1.00001
     17       6.5989      1.00807
     18       8.2925     -0.00000
     19       8.4940     -0.00000
     20      11.6937     -0.00000
     21      12.1412     -0.00000
     22      14.7087      0.00000
     23      15.9110      0.00000
     24      19.6095      0.00000

 k-point   180 :       0.3889    0.3889    0.2222
  band No.  band energies     occupation 
      1       0.3534      1.00000
      2       2.0222      1.00000
      3       2.3353      1.00000
      4       3.3352      1.00000
      5       3.8940      1.00000
      6       4.0628      1.00000
      7       4.1640      1.00000
      8       4.4986      1.00000
      9       4.6506      1.00000
     10       4.7077      1.00000
     11       5.2248      1.00000
     12       5.7030      1.00000
     13       5.7105      1.00000
     14       5.9203      1.00000
     15       6.0480      1.00000
     16       6.5819      1.00608
     17       6.6566      1.01817
     18       7.7494     -0.00000
     19       8.5392     -0.00000
     20      11.5621     -0.00000
     21      13.2761      0.00000
     22      13.4808      0.00000
     23      16.0730      0.00000
     24      19.6167      0.00000

 k-point   181 :       0.4444    0.3889    0.2222
  band No.  band energies     occupation 
      1       0.6467      1.00000
      2       1.8907      1.00000
      3       2.3085      1.00000
      4       3.2922      1.00000
      5       3.9391      1.00000
      6       4.0673      1.00000
      7       4.2120      1.00000
      8       4.5583      1.00000
      9       4.6989      1.00000
     10       4.7282      1.00000
     11       5.1633      1.00000
     12       5.6807      1.00000
     13       5.7519      1.00000
     14       5.9264      1.00000
     15       6.0704      1.00000
     16       6.4280      1.00021
     17       6.5402      1.00280
     18       7.7862     -0.00000
     19       8.2323     -0.00000
     20      11.7734     -0.00000
     21      12.8020      0.00000
     22      13.8036      0.00000
     23      15.4854      0.00000
     24      19.8406      0.00000

 k-point   182 :       0.5000    0.3889    0.2222
  band No.  band energies     occupation 
      1       0.7847      1.00000
      2       1.7864      1.00000
      3       2.3193      1.00000
      4       3.2792      1.00000
      5       3.9616      1.00000
      6       4.0516      1.00000
      7       4.2442      1.00000
      8       4.5763      1.00000
      9       4.7195      1.00000
     10       4.7374      1.00000
     11       5.1422      1.00000
     12       5.6800      1.00000
     13       5.7752      1.00000
     14       5.9255      1.00000
     15       6.0989      1.00000
     16       6.3011      1.00000
     17       6.5173      1.00175
     18       7.9271     -0.00000
     19       8.0089     -0.00000
     20      11.9702     -0.00000
     21      12.4959      0.00000
     22      14.0262      0.00000
     23      15.2012      0.00000
     24      19.9284      0.00000

 k-point   183 :       0.4444    0.4444    0.2222
  band No.  band energies     occupation 
      1       0.8752      1.00000
      2       2.0300      1.00000
      3       2.1779      1.00000
      4       3.1576      1.00000
      5       3.9633      1.00000
      6       4.1494      1.00000
      7       4.1856      1.00000
      8       4.6731      1.00000
      9       4.7421      1.00000
     10       4.7622      1.00000
     11       5.0914      1.00000
     12       5.7243      1.00000
     13       5.7296      1.00000
     14       5.9235      1.00000
     15       6.0813      1.00000
     16       6.3438      1.00002
     17       6.4522      1.00039
     18       7.6491     -0.00002
     19       7.9056     -0.00000
     20      12.0839     -0.00000
     21      13.1199      0.00000
     22      13.2960      0.00000
     23      14.9012      0.00000
     24      20.0756      0.00000

 k-point   184 :       0.5000    0.4444    0.2222
  band No.  band energies     occupation 
      1       0.9734      1.00000
      2       2.0203      1.00000
      3       2.1816      1.00000
      4       3.1028      1.00000
      5       3.9707      1.00000
      6       4.1534      1.00000
      7       4.2065      1.00000
      8       4.7116      1.00000
      9       4.7680      1.00000
     10       4.7715      1.00000
     11       5.0652      1.00000
     12       5.7346      1.00000
     13       5.7504      1.00000
     14       5.9177      1.00000
     15       6.0742      1.00000
     16       6.2749      1.00000
     17       6.4277      1.00021
     18       7.6958     -0.00000
     19       7.7124     -0.00000
     20      12.3258     -0.00000
     21      12.8681      0.00000
     22      13.4315      0.00000
     23      14.6236      0.00000
     24      20.1673      0.00000

 k-point   185 :       0.5000    0.5000    0.2222
  band No.  band energies     occupation 
      1       1.0513      1.00000
      2       2.1221      1.00000
      3       2.1221      1.00000
      4       3.0223      1.00000
      5       3.9728      1.00000
      6       4.1942      1.00000
      7       4.1942      1.00000
      8       4.7658      1.00000
      9       4.7852      1.00000
     10       4.7852      1.00000
     11       5.0359      1.00000
     12       5.7659      1.00000
     13       5.7659      1.00000
     14       5.9065      1.00000
     15       6.0227      1.00000
     16       6.2598      1.00000
     17       6.3952      1.00009
     18       7.6178     -0.00005
     19       7.6178     -0.00005
     20      12.6100      0.00000
     21      13.0681      0.00000
     22      13.0681      0.00000
     23      14.3562      0.00000
     24      20.2600      0.00000

 k-point   186 :       0.2778    0.2778    0.2778
  band No.  band energies     occupation 
      1      -0.7381      1.00000
      2       2.3038      1.00000
      3       3.0046      1.00000
      4       3.0046      1.00000
      5       3.7054      1.00000
      6       3.9943      1.00000
      7       3.9943      1.00000
      8       4.3558      1.00000
      9       4.6452      1.00000
     10       4.6452      1.00000
     11       5.4879      1.00000
     12       5.7171      1.00000
     13       5.7171      1.00000
     14       5.9818      1.00000
     15       5.9818      1.00000
     16       6.8019      1.02319
     17       7.5128     -0.00083
     18       8.2425     -0.00000
     19       8.2425     -0.00000
     20      13.1480      0.00000
     21      13.1480      0.00000
     22      13.2674      0.00000
     23      18.1718      0.00000
     24      19.4863      0.00000

 k-point   187 :       0.3333    0.2778    0.2778
  band No.  band energies     occupation 
      1      -0.3991      1.00000
      2       2.1704      1.00000
      3       2.7863      1.00000
      4       3.2060      1.00000
      5       3.8037      1.00000
      6       3.9875      1.00000
      7       4.0654      1.00000
      8       4.4044      1.00000
      9       4.6229      1.00000
     10       4.6238      1.00000
     11       5.3857      1.00000
     12       5.7011      1.00000
     13       5.7357      1.00000
     14       5.9424      1.00000
     15       5.9988      1.00000
     16       6.7785      1.03260
     17       7.2282     -0.03448
     18       8.2279     -0.00000
     19       8.3036     -0.00000
     20      12.5093      0.00000
     21      12.5199      0.00000
     22      13.5848      0.00000
     23      17.4148      0.00000
     24      19.7315      0.00000

 k-point   188 :       0.3889    0.2778    0.2778
  band No.  band energies     occupation 
      1      -0.0316      1.00000
      2       1.9312      1.00000
      3       2.6351      1.00000
      4       3.3848      1.00000
      5       3.8426      1.00000
      6       3.9859      1.00000
      7       4.1627      1.00000
      8       4.4547      1.00000
      9       4.6020      1.00000
     10       4.6403      1.00000
     11       5.3096      1.00000
     12       5.6675      1.00000
     13       5.7742      1.00000
     14       5.9461      1.00000
     15       5.9948      1.00000
     16       6.7331      1.03409
     17       6.8130      1.01574
     18       8.3567     -0.00000
     19       8.4447     -0.00000
     20      11.9168     -0.00000
     21      12.0495     -0.00000
     22      14.0153      0.00000
     23      16.7128      0.00000
     24      19.9595      0.00000

 k-point   189 :       0.4444    0.2778    0.2778
  band No.  band energies     occupation 
      1       0.3181      1.00000
      2       1.6312      1.00000
      3       2.5647      1.00000
      4       3.5093      1.00000
      5       3.8424      1.00000
      6       3.9880      1.00000
      7       4.2836      1.00000
      8       4.4541      1.00000
      9       4.5856      1.00000
     10       4.6738      1.00000
     11       5.2623      1.00000
     12       5.6473      1.00000
     13       5.8319      1.00000
     14       5.9628      1.00000
     15       6.0008      1.00000
     16       6.4687      1.00058
     17       6.6895      1.02564
     18       8.3930     -0.00000
     19       8.6510     -0.00000
     20      11.5009     -0.00000
     21      11.7578     -0.00000
     22      14.4436      0.00000
     23      16.1201      0.00000
     24      20.1274      0.00000

 k-point   190 :       0.5000    0.2778    0.2778
  band No.  band energies     occupation 
      1       0.4973      1.00000
      2       1.4634      1.00000
      3       2.5451      1.00000
      4       3.5540      1.00000
      5       3.8389      1.00000
      6       3.9898      1.00000
      7       4.3695      1.00000
      8       4.4139      1.00000
      9       4.5794      1.00000
     10       4.6877      1.00000
     11       5.2461      1.00000
     12       5.6445      1.00000
     13       5.8861      1.00000
     14       5.9181      1.00000
     15       6.0729      1.00000
     16       6.2911      1.00000
     17       6.6715      1.02149
     18       8.4060     -0.00000
     19       8.7375     -0.00000
     20      11.3455     -0.00000
     21      11.6589     -0.00000
     22      14.6801      0.00000
     23      15.8287      0.00000
     24      20.1903      0.00000

 k-point   191 :       0.3333    0.3333    0.2778
  band No.  band energies     occupation 
      1      -0.0859      1.00000
      2       2.1161      1.00000
      3       2.7516      1.00000
      4       3.1665      1.00000
      5       3.8970      1.00000
      6       4.0327      1.00000
      7       4.0902      1.00000
      8       4.4789      1.00000
      9       4.6223      1.00000
     10       4.6372      1.00000
     11       5.2782      1.00000
     12       5.7075      1.00000
     13       5.7223      1.00000
     14       5.9461      1.00000
     15       5.9959      1.00000
     16       6.7668      1.03469
     17       7.1975     -0.02471
     18       7.8751     -0.00000
     19       8.2910     -0.00000
     20      11.9538     -0.00000
     21      12.8372      0.00000
     22      12.9290      0.00000
     23      16.6370      0.00000
     24      20.2168      0.00000

 k-point   192 :       0.3889    0.3333    0.2778
  band No.  band energies     occupation 
      1       0.2450      1.00000
      2       1.9993      1.00000
      3       2.5984      1.00000
      4       3.2550      1.00000
      5       3.9358      1.00000
      6       4.0519      1.00000
      7       4.1714      1.00000
      8       4.5603      1.00000
      9       4.6394      1.00000
     10       4.6620      1.00000
     11       5.1964      1.00000
     12       5.6823      1.00000
     13       5.7459      1.00000
     14       5.9530      1.00000
     15       6.0084      1.00000
     16       6.7235      1.03268
     17       6.8724      0.93286
     18       7.8748     -0.00000
     19       8.2956     -0.00000
     20      11.5755     -0.00000
     21      12.3018     -0.00000
     22      13.2998      0.00000
     23      15.9252      0.00000
     24      20.5013      0.00000

 k-point   193 :       0.4444    0.3333    0.2778
  band No.  band energies     occupation 
      1       0.5437      1.00000
      2       1.8233      1.00000
      3       2.4888      1.00000
      4       3.3357      1.00000
      5       3.9483      1.00000
      6       4.0574      1.00000
      7       4.2707      1.00000
      8       4.5950      1.00000
      9       4.6465      1.00000
     10       4.7061      1.00000
     11       5.1448      1.00000
     12       5.6712      1.00000
     13       5.7885      1.00000
     14       5.9552      1.00000
     15       6.0578      1.00000
     16       6.5028      1.00128
     17       6.6887      1.02546
     18       7.9776     -0.00000
     19       8.2809     -0.00000
     20      11.3941     -0.00000
     21      11.8842     -0.00000
     22      13.7206      0.00000
     23      15.3245      0.00000
     24      20.6993      0.00000

 k-point   194 :       0.5000    0.3333    0.2778
  band No.  band energies     occupation 
      1       0.6840      1.00000
      2       1.7186      1.00000
      3       2.4552      1.00000
      4       3.3648      1.00000
      5       3.9506      1.00000
      6       4.0624      1.00000
      7       4.3142      1.00000
      8       4.6026      1.00000
      9       4.6475      1.00000
     10       4.7228      1.00000
     11       5.1272      1.00000
     12       5.6740      1.00000
     13       5.8157      1.00000
     14       5.9409      1.00000
     15       6.1772      1.00000
     16       6.2690      1.00000
     17       6.6681      1.02073
     18       8.0302     -0.00000
     19       8.2660     -0.00000
     20      11.3616     -0.00000
     21      11.7123     -0.00000
     22      13.9611      0.00000
     23      15.0242      0.00000
     24      20.7734      0.00000

 k-point   195 :       0.3889    0.3889    0.2778
  band No.  band energies     occupation 
      1       0.5243      1.00000
      2       2.0207      1.00000
      3       2.5161      1.00000
      4       3.1840      1.00000
      5       4.0065      1.00000
      6       4.1352      1.00000
      7       4.1587      1.00000
      8       4.6796      1.00000
      9       4.6815      1.00000
     10       4.7056      1.00000
     11       5.1066      1.00000
     12       5.7015      1.00000
     13       5.7170      1.00000
     14       5.9499      1.00000
     15       6.0399      1.00000
     16       6.6810      1.02369
     17       6.7752      1.03335
     18       7.6041     -0.00008
     19       8.1317     -0.00000
     20      11.4051     -0.00000
     21      12.6253      0.00000
     22      12.7360      0.00000
     23      15.2116      0.00000
     24      20.8318      0.00000

 k-point   196 :       0.4444    0.3889    0.2778
  band No.  band energies     occupation 
      1       0.7566      1.00000
      2       1.9983      1.00000
      3       2.4174      1.00000
      4       3.1692      1.00000
      5       4.0566      1.00000
      6       4.1261      1.00000
      7       4.2330      1.00000
      8       4.7056      1.00000
      9       4.7098      1.00000
     10       4.8039      1.00000
     11       5.0480      1.00000
     12       5.7032      1.00000
     13       5.7428      1.00000
     14       5.9487      1.00000
     15       6.0933      1.00000
     16       6.4963      1.00111
     17       6.6421      1.01517
     18       7.6138     -0.00006
     19       7.9459     -0.00000
     20      11.4333     -0.00000
     21      12.1884     -0.00000
     22      13.0849      0.00000
     23      14.6111      0.00000
     24      21.0579      0.00000

 k-point   197 :       0.5000    0.3889    0.2778
  band No.  band energies     occupation 
      1       0.8545      1.00000
      2       1.9741      1.00000
      3       2.3760      1.00000
      4       3.1701      1.00000
      5       4.0769      1.00000
      6       4.1175      1.00000
      7       4.2686      1.00000
      8       4.7160      1.00000
      9       4.7190      1.00000
     10       4.8367      1.00000
     11       5.0275      1.00000
     12       5.7136      1.00000
     13       5.7610      1.00000
     14       5.9426      1.00000
     15       6.2377      1.00000
     16       6.2416      1.00000
     17       6.6215      1.01142
     18       7.7021     -0.00000
     19       7.8134     -0.00000
     20      11.5261     -0.00000
     21      11.9464     -0.00000
     22      13.3202      0.00000
     23      14.3085      0.00000
     24      21.1428      0.00000

 k-point   198 :       0.4444    0.4444    0.2778
  band No.  band energies     occupation 
      1       0.9170      1.00000
      2       2.1331      1.00000
      3       2.3536      1.00000
      4       3.0433      1.00000
      5       4.1267      1.00000
      6       4.1951      1.00000
      7       4.2085      1.00000
      8       4.7486      1.00000
      9       4.7490      1.00000
     10       4.9280      1.00000
     11       4.9808      1.00000
     12       5.7398      1.00000
     13       5.7476      1.00000
     14       5.9324      1.00000
     15       6.1242      1.00000
     16       6.3913      1.00008
     17       6.5699      1.00492
     18       7.4556     -0.00285
     19       7.6728     -0.00001
     20      11.6182     -0.00000
     21      12.5026      0.00000
     22      12.6028      0.00000
     23      14.0171      0.00000
     24      21.2998      0.00000

 k-point   199 :       0.5000    0.4444    0.2778
  band No.  band energies     occupation 
      1       0.9783      1.00000
      2       2.1941      1.00000
      3       2.3180      1.00000
      4       2.9948      1.00000
      5       4.1531      1.00000
      6       4.1845      1.00000
      7       4.2395      1.00000
      8       4.7633      1.00000
      9       4.7648      1.00000
     10       4.9556      1.00000
     11       4.9714      1.00000
     12       5.7682      1.00000
     13       5.7690      1.00000
     14       5.9176      1.00000
     15       6.2023      1.00000
     16       6.2303      1.00000
     17       6.5475      1.00323
     18       7.4857     -0.00153
     19       7.5104     -0.00088
     20      11.7926     -0.00000
     21      12.2634     -0.00000
     22      12.7763      0.00000
     23      13.7202      0.00000
     24      21.3903      0.00000

 k-point   200 :       0.5000    0.5000    0.2778
  band No.  band energies     occupation 
      1       1.0244      1.00000
      2       2.2960      1.00000
      3       2.2960      1.00000
      4       2.9092      1.00000
      5       4.1664      1.00000
      6       4.2288      1.00000
      7       4.2288      1.00000
      8       4.7825      1.00000
      9       4.7825      1.00000
     10       4.9271      1.00000
     11       5.0173      1.00000
     12       5.8122      1.00000
     13       5.8122      1.00000
     14       5.8863      1.00000
     15       6.1754      1.00000
     16       6.1854      1.00000
     17       6.5167      1.00173
     18       7.4116     -0.00642
     19       7.4116     -0.00642
     20      12.0152     -0.00000
     21      12.4624      0.00000
     22      12.4624      0.00000
     23      13.4332      0.00000
     24      21.4825      0.00000

 k-point   201 :       0.3333    0.3333    0.3333
  band No.  band energies     occupation 
      1       0.1936      1.00000
      2       2.0667      1.00000
      3       2.9366      1.00000
      4       2.9366      1.00000
      5       4.0028      1.00000
      6       4.0895      1.00000
      7       4.0895      1.00000
      8       4.6126      1.00000
      9       4.6478      1.00000
     10       4.6478      1.00000
     11       5.1719      1.00000
     12       5.7071      1.00000
     13       5.7071      1.00000
     14       5.9753      1.00000
     15       5.9753      1.00000
     16       6.7828      1.03142
     17       7.2587     -0.03464
     18       7.8165     -0.00000
     19       7.8165     -0.00000
     20      12.2428     -0.00000
     21      12.2739     -0.00000
     22      12.2739     -0.00000
     23      15.8493      0.00000
     24      21.2914      0.00000

 k-point   202 :       0.3889    0.3333    0.3333
  band No.  band energies     occupation 
      1       0.4759      1.00000
      2       2.0186      1.00000
      3       2.7029      1.00000
      4       3.0884      1.00000
      5       4.0373      1.00000
      6       4.1158      1.00000
      7       4.1827      1.00000
      8       4.6668      1.00000
      9       4.6735      1.00000
     10       4.7538      1.00000
     11       5.0900      1.00000
     12       5.6856      1.00000
     13       5.7206      1.00000
     14       5.9854      1.00000
     15       5.9878      1.00000
     16       6.7596      1.03530
     17       6.9588      0.66384
     18       7.7658     -0.00000
     19       7.7738     -0.00000
     20      11.7125     -0.00000
     21      11.8670     -0.00000
     22      12.6408      0.00000
     23      15.1349      0.00000
     24      21.5293      0.00000

 k-point   203 :       0.4444    0.3333    0.3333
  band No.  band energies     occupation 
      1       0.7106      1.00000
      2       1.9706      1.00000
      3       2.5170      1.00000
      4       3.1840      1.00000
      5       4.0373      1.00000
      6       4.1539      1.00000
      7       4.2780      1.00000
      8       4.6788      1.00000
      9       4.6944      1.00000
     10       4.8458      1.00000
     11       5.0373      1.00000
     12       5.6873      1.00000
     13       5.7462      1.00000
     14       5.9747      1.00000
     15       6.0630      1.00000
     16       6.5667      1.00464
     17       6.7214      1.03232
     18       7.7335     -0.00000
     19       7.8778     -0.00000
     20      11.3530     -0.00000
     21      11.6235     -0.00000
     22      13.0442      0.00000
     23      14.5303      0.00000
     24      21.7022      0.00000

 k-point   204 :       0.5000    0.3333    0.3333
  band No.  band energies     occupation 
      1       0.8092      1.00000
      2       1.9444      1.00000
      3       2.4450      1.00000
      4       3.2157      1.00000
      5       4.0356      1.00000
      6       4.1725      1.00000
      7       4.3179      1.00000
      8       4.6829      1.00000
      9       4.7013      1.00000
     10       4.8726      1.00000
     11       5.0189      1.00000
     12       5.6966      1.00000
     13       5.7622      1.00000
     14       5.9634      1.00000
     15       6.2155      1.00000
     16       6.2919      1.00000
     17       6.7031      1.02870
     18       7.7228     -0.00000
     19       7.9255     -0.00000
     20      11.2248     -0.00000
     21      11.5428     -0.00000
     22      13.2879      0.00000
     23      14.2199      0.00000
     24      21.7664      0.00000

 k-point   205 :       0.3889    0.3889    0.3333
  band No.  band energies     occupation 
      1       0.6920      1.00000
      2       2.0518      1.00000
      3       2.6885      1.00000
      4       3.0108      1.00000
      5       4.1182      1.00000
      6       4.1937      1.00000
      7       4.2057      1.00000
      8       4.7002      1.00000
      9       4.7061      1.00000
     10       4.9305      1.00000
     11       5.0059      1.00000
     12       5.6910      1.00000
     13       5.6988      1.00000
     14       5.9755      1.00000
     15       6.0097      1.00000
     16       6.7472      1.03532
     17       6.8953      0.87834
     18       7.4393     -0.00391
     19       7.6672     -0.00001
     20      11.4473     -0.00000
     21      12.1071     -0.00000
     22      12.1135     -0.00000
     23      14.4249      0.00000
     24      22.0355      0.00000

 k-point   206 :       0.4444    0.3889    0.3333
  band No.  band energies     occupation 
      1       0.8516      1.00000
      2       2.1143      1.00000
      3       2.5421      1.00000
      4       3.0374      1.00000
      5       4.1505      1.00000
      6       4.2381      1.00000
      7       4.2880      1.00000
      8       4.7223      1.00000
      9       4.7288      1.00000
     10       4.9501      1.00000
     11       5.0508      1.00000
     12       5.7051      1.00000
     13       5.7101      1.00000
     14       5.9695      1.00000
     15       6.0594      1.00000
     16       6.5924      1.00725
     17       6.7147      1.03108
     18       7.4105     -0.00654
     19       7.5872     -0.00013
     20      11.2882     -0.00000
     21      11.7430     -0.00000
     22      12.4705      0.00000
     23      13.8265      0.00000
     24      22.2679      0.00000

 k-point   207 :       0.5000    0.3889    0.3333
  band No.  band energies     occupation 
      1       0.9113      1.00000
      2       2.1666      1.00000
      3       2.4477      1.00000
      4       3.0548      1.00000
      5       4.1553      1.00000
      6       4.2629      1.00000
      7       4.3260      1.00000
      8       4.7320      1.00000
      9       4.7336      1.00000
     10       4.9300      1.00000
     11       5.0861      1.00000
     12       5.7191      1.00000
     13       5.7235      1.00000
     14       5.9618      1.00000
     15       6.1564      1.00000
     16       6.3727      1.00004
     17       6.6956      1.02703
     18       7.4377     -0.00402
     19       7.5490     -0.00035
     20      11.2521     -0.00000
     21      11.6010     -0.00000
     22      12.7052      0.00000
     23      13.5135      0.00000
     24      22.3476      0.00000

 k-point   208 :       0.4444    0.4444    0.3333
  band No.  band energies     occupation 
      1       0.9450      1.00000
      2       2.2577      1.00000
      3       2.5192      1.00000
      4       2.9341      1.00000
      5       4.2490      1.00000
      6       4.2813      1.00000
      7       4.3268      1.00000
      8       4.7531      1.00000
      9       4.7578      1.00000
     10       4.8892      1.00000
     11       5.1868      1.00000
     12       5.7269      1.00000
     13       5.7372      1.00000
     14       5.9410      1.00000
     15       6.0710      1.00000
     16       6.5088      1.00146
     17       6.6658      1.02021
     18       7.2314     -0.03487
     19       7.3846     -0.00992
     20      11.3226     -0.00000
     21      12.0234     -0.00000
     22      12.0284     -0.00000
     23      13.2404      0.00000
     24      22.5487      0.00000

 k-point   209 :       0.5000    0.4444    0.3333
  band No.  band energies     occupation 
      1       0.9773      1.00000
      2       2.3610      1.00000
      3       2.4556      1.00000
      4       2.9010      1.00000
      5       4.2691      1.00000
      6       4.3108      1.00000
      7       4.3533      1.00000
      8       4.7646      1.00000
      9       4.7694      1.00000
     10       4.8656      1.00000
     11       5.2207      1.00000
     12       5.7530      1.00000
     13       5.7694      1.00000
     14       5.9215      1.00000
     15       6.1078      1.00000
     16       6.3872      1.00007
     17       6.6456      1.01586
     18       7.2428     -0.03546
     19       7.2683     -0.03343
     20      11.3981     -0.00000
     21      11.8136     -0.00000
     22      12.2354     -0.00000
     23      12.9334      0.00000
     24      22.6433      0.00000

 k-point   210 :       0.5000    0.5000    0.3333
  band No.  band energies     occupation 
      1       1.0000      1.00000
      2       2.4595      1.00000
      3       2.4595      1.00000
      4       2.8168      1.00000
      5       4.3184      1.00000
      6       4.3184      1.00000
      7       4.3758      1.00000
      8       4.7822      1.00000
      9       4.7822      1.00000
     10       4.8383      1.00000
     11       5.2477      1.00000
     12       5.8204      1.00000
     13       5.8204      1.00000
     14       5.8674      1.00000
     15       6.0901      1.00000
     16       6.3478      1.00002
     17       6.6174      1.01075
     18       7.1752     -0.00857
     19       7.1752     -0.00857
     20      11.5328     -0.00000
     21      11.9944     -0.00000
     22      11.9944     -0.00000
     23      12.6336      0.00000
     24      22.7427      0.00000

 k-point   211 :       0.3889    0.3889    0.3889
  band No.  band energies     occupation 
      1       0.8311      1.00000
      2       2.1271      1.00000
      3       2.8254      1.00000
      4       2.8254      1.00000
      5       4.2232      1.00000
      6       4.2677      1.00000
      7       4.2677      1.00000
      8       4.7312      1.00000
      9       4.7312      1.00000
     10       4.9266      1.00000
     11       5.1504      1.00000
     12       5.6784      1.00000
     13       5.6784      1.00000
     14       5.9835      1.00000
     15       5.9835      1.00000
     16       6.7679      1.03457
     17       6.9193      0.80737
     18       7.2940     -0.02860
     19       7.2940     -0.02860
     20      11.5043     -0.00000
     21      11.7525     -0.00000
     22      11.7525     -0.00000
     23      13.7278      0.00000
     24      23.1307      0.00000

 k-point   212 :       0.4444    0.3889    0.3889
  band No.  band energies     occupation 
      1       0.9206      1.00000
      2       2.2458      1.00000
      3       2.6406      1.00000
      4       2.9095      1.00000
      5       4.2688      1.00000
      6       4.3513      1.00000
      7       4.3565      1.00000
      8       4.7487      1.00000
      9       4.7528      1.00000
     10       4.8727      1.00000
     11       5.2915      1.00000
     12       5.6685      1.00000
     13       5.6994      1.00000
     14       5.9722      1.00000
     15       6.0022      1.00000
     16       6.6628      1.01953
     17       6.7475      1.03533
     18       7.2105     -0.03034
     19       7.2374     -0.03532
     20      11.2427     -0.00000
     21      11.5407     -0.00000
     22      11.9863     -0.00000
     23      13.1450      0.00000
     24      23.3113      0.00000

 k-point   213 :       0.5000    0.3889    0.3889
  band No.  band energies     occupation 
      1       0.9510      1.00000
      2       2.3467      1.00000
      3       2.5184      1.00000
      4       2.9372      1.00000
      5       4.2789      1.00000
      6       4.3897      1.00000
      7       4.4038      1.00000
      8       4.7489      1.00000
      9       4.7627      1.00000
     10       4.8525      1.00000
     11       5.3260      1.00000
     12       5.6647      1.00000
     13       5.7267      1.00000
     14       5.9624      1.00000
     15       6.0617      1.00000
     16       6.4759      1.00069
     17       6.7308      1.03378
     18       7.1873     -0.01845
     19       7.2540     -0.03505
     20      11.1350     -0.00000
     21      11.4713     -0.00000
     22      12.1993     -0.00000
     23      12.8328      0.00000
     24      23.3779      0.00000

 k-point   214 :       0.4444    0.4444    0.3889
  band No.  band energies     occupation 
      1       0.9606      1.00000
      2       2.3878      1.00000
      3       2.6494      1.00000
      4       2.8300      1.00000
      5       4.3840      1.00000
      6       4.4051      1.00000
      7       4.4624      1.00000
      8       4.7701      1.00000
      9       4.7725      1.00000
     10       4.8193      1.00000
     11       5.4288      1.00000
     12       5.6844      1.00000
     13       5.7010      1.00000
     14       5.9315      1.00000
     15       5.9836      1.00000
     16       6.6218      1.01147
     17       6.7332      1.03409
     18       7.0196      0.41069
     19       7.0897      0.15451
     20      11.1680     -0.00000
     21      11.6249     -0.00000
     22      11.6898     -0.00000
     23      12.5885      0.00000
     24      23.7808      0.00000

 k-point   215 :       0.5000    0.4444    0.3889
  band No.  band energies     occupation 
      1       0.9736      1.00000
      2       2.5009      1.00000
      3       2.5694      1.00000
      4       2.8222      1.00000
      5       4.4082      1.00000
      6       4.4512      1.00000
      7       4.5162      1.00000
      8       4.7686      1.00000
      9       4.7848      1.00000
     10       4.7981      1.00000
     11       5.4398      1.00000
     12       5.6935      1.00000
     13       5.7417      1.00000
     14       5.9114      1.00000
     15       5.9951      1.00000
     16       6.5293      1.00225
     17       6.7160      1.03133
     18       7.0140      0.43406
     19       7.0250      0.38815
     20      11.1393     -0.00000
     21      11.5346     -0.00000
     22      11.8278     -0.00000
     23      12.2891     -0.00000
     24      23.8892      0.00000

 k-point   216 :       0.5000    0.5000    0.3889
  band No.  band energies     occupation 
      1       0.9808      1.00000
      2       2.5879      1.00000
      3       2.5879      1.00000
      4       2.7484      1.00000
      5       4.4678      1.00000
      6       4.4678      1.00000
      7       4.5793      1.00000
      8       4.7727      1.00000
      9       4.7840      1.00000
     10       4.7840      1.00000
     11       5.4293      1.00000
     12       5.7669      1.00000
     13       5.7669      1.00000
     14       5.8521      1.00000
     15       5.9810      1.00000
     16       6.5252      1.00207
     17       6.6928      1.02639
     18       6.9540      0.68273
     19       6.9540      0.68273
     20      11.1761     -0.00000
     21      11.6699     -0.00000
     22      11.6699     -0.00000
     23      11.9951     -0.00000
     24      24.0186      0.00000

 k-point   217 :       0.4444    0.4444    0.4444
  band No.  band energies     occupation 
      1       0.9679      1.00000
      2       2.5102      1.00000
      3       2.7290      1.00000
      4       2.7290      1.00000
      5       4.5398      1.00000
      6       4.5414      1.00000
      7       4.5414      1.00000
      8       4.7718      1.00000
      9       4.7899      1.00000
     10       4.7899      1.00000
     11       5.6012      1.00000
     12       5.6408      1.00000
     13       5.6408      1.00000
     14       5.9075      1.00000
     15       5.9075      1.00000
     16       6.6654      1.02012
     17       6.7583      1.03536
     18       6.8863      0.90132
     19       6.8863      0.90132
     20      11.0592     -0.00000
     21      11.4960     -0.00000
     22      11.4960     -0.00000
     23      12.0828     -0.00000
     24      24.8731      0.00000

 k-point   218 :       0.5000    0.4444    0.4444
  band No.  band energies     occupation 
      1       0.9699      1.00000
      2       2.6053      1.00000
      3       2.6419      1.00000
      4       2.7553      1.00000
      5       4.5637      1.00000
      6       4.6045      1.00000
      7       4.6329      1.00000
      8       4.7524      1.00000
      9       4.7795      1.00000
     10       4.8059      1.00000
     11       5.5926      1.00000
     12       5.6022      1.00000
     13       5.6896      1.00000
     14       5.8839      1.00000
     15       5.8954      1.00000
     16       6.6333      1.01349
     17       6.7488      1.03538
     18       6.8486      0.97575
     19       6.8578      0.96080
     20      10.9995     -0.00000
     21      11.4328     -0.00000
     22      11.5707     -0.00000
     23      11.8163     -0.00000
     24      24.9492      0.00000

 k-point   219 :       0.5000    0.5000    0.4444
  band No.  band energies     occupation 
      1       0.9685      1.00000
      2       2.6664      1.00000
      3       2.6664      1.00000
      4       2.7064      1.00000
      5       4.6398      1.00000
      6       4.6398      1.00000
      7       4.7326      1.00000
      8       4.7406      1.00000
      9       4.7906      1.00000
     10       4.7906      1.00000
     11       5.5426      1.00000
     12       5.6542      1.00000
     13       5.6542      1.00000
     14       5.8421      1.00000
     15       5.8819      1.00000
     16       6.6695      1.02104
     17       6.7393      1.03477
     18       6.8049      1.02139
     19       6.8049      1.02139
     20      10.9568     -0.00000
     21      11.4819     -0.00000
     22      11.4819     -0.00000
     23      11.5713     -0.00000
     24      25.2332      0.00000

 k-point   220 :       0.5000    0.5000    0.5000
  band No.  band energies     occupation 
      1       0.9643      1.00000
      2       2.6923      1.00000
      3       2.6923      1.00000
      4       2.6923      1.00000
      5       4.7190      1.00000
      6       4.7190      1.00000
      7       4.7190      1.00000
      8       4.8056      1.00000
      9       4.8056      1.00000
     10       4.8056      1.00000
     11       5.5807      1.00000
     12       5.5807      1.00000
     13       5.5807      1.00000
     14       5.8387      1.00000
     15       5.8387      1.00000
     16       6.7268      1.03320
     17       6.7550      1.03545
     18       6.7550      1.03545
     19       6.7550      1.03545
     20      10.8828     -0.00000
     21      11.4207     -0.00000
     22      11.4207     -0.00000
     23      11.4207     -0.00000
     24      25.9297      0.00000
 Fermi energy:         6.9983314193

 spin component 2

 k-point     1 :       0.0000    0.0000    0.0000
  band No.  band energies     occupation 
      1      -3.4982      1.00000
      2       2.3187      1.00000
      3       3.1116      1.00000
      4       3.1116      1.00000
      5       3.6289      1.00000
      6       3.6289      1.00000
      7       3.6289      1.00000
      8       5.7030      1.00000
      9       5.7030      1.00000
     10       5.7030      1.00000
     11       6.5663      1.00461
     12       6.5664      1.00461
     13       7.0115      0.44458
     14       7.3776     -0.01101
     15       7.3777     -0.01100
     16       7.3777     -0.01100
     17       7.8730     -0.00000
     18       7.8730     -0.00000
     19       7.8730     -0.00000
     20      14.0879      0.00000
     21      14.0879      0.00000
     22      15.0843      0.00000
     23      19.9519      0.00000
     24      19.9519      0.00000

 k-point     2 :       0.0556    0.0000    0.0000
  band No.  band energies     occupation 
      1      -3.4583      1.00000
      2       2.3331      1.00000
      3       3.0868      1.00000
      4       3.1383      1.00000
      5       3.6347      1.00000
      6       3.6348      1.00000
      7       3.6397      1.00000
      8       5.6788      1.00000
      9       5.6788      1.00000
     10       5.6911      1.00000
     11       6.5422      1.00291
     12       6.5668      1.00465
     13       6.9956      0.51140
     14       7.2008     -0.02638
     15       7.2008     -0.02638
     16       7.3777     -0.01100
     17       7.7132     -0.00000
     18       8.1023     -0.00000
     19       8.1023     -0.00000
     20      14.0806      0.00000
     21      14.2380      0.00000
     22      15.1922      0.00000
     23      19.7748      0.00000
     24      19.7787      0.00000

 k-point     3 :       0.1111    0.0000    0.0000
  band No.  band energies     occupation 
      1      -3.3389      1.00000
      2       2.3692      1.00000
      3       3.0109      1.00000
      4       3.2170      1.00000
      5       3.6518      1.00000
      6       3.6518      1.00000
      7       3.6713      1.00000
      8       5.6103      1.00000
      9       5.6103      1.00000
     10       5.6561      1.00000
     11       6.4652      1.00053
     12       6.5678      1.00473
     13       6.9363      0.74913
     14       6.9363      0.74912
     15       6.9487      0.70318
     16       7.3184     -0.02304
     17       7.3778     -0.01098
     18       8.5219     -0.00000
     19       8.5219     -0.00000
     20      14.0588      0.00000
     21      14.5034      0.00000
     22      15.6231      0.00000
     23      19.1417      0.00000
     24      19.1417      0.00000

 k-point     4 :       0.1667    0.0000    0.0000
  band No.  band energies     occupation 
      1      -3.1413      1.00000
      2       2.3900      1.00000
      3       2.8971      1.00000
      4       3.3439      1.00000
      5       3.6788      1.00000
      6       3.6788      1.00000
      7       3.7222      1.00000
      8       5.5095      1.00000
      9       5.5095      1.00000
     10       5.6002      1.00000
     11       6.3139      1.00001
     12       6.5668      1.00465
     13       6.6967      1.02729
     14       6.6967      1.02729
     15       6.8689      0.94003
     16       6.8730      0.93169
     17       7.3780     -0.01095
     18       9.0121     -0.00000
     19       9.0121     -0.00000
     20      14.0232      0.00000
     21      14.6782      0.00000
     22      16.4208      0.00000
     23      18.2438      0.00000
     24      18.2438      0.00000

 k-point     5 :       0.2222    0.0000    0.0000
  band No.  band energies     occupation 
      1      -2.8679      1.00000
      2       2.2717      1.00000
      3       2.8379      1.00000
      4       3.5119      1.00000
      5       3.7133      1.00000
      6       3.7133      1.00000
      7       3.7890      1.00000
      8       5.3929      1.00000
      9       5.3929      1.00000
     10       5.5270      1.00000
     11       6.0542      1.00000
     12       6.4909      1.00098
     13       6.4909      1.00098
     14       6.5338      1.00247
     15       6.5565      1.00384
     16       6.7772      1.03290
     17       7.3782     -0.01092
     18       9.5550     -0.00000
     19       9.5550     -0.00000
     20      13.9758      0.00000
     21      14.8041      0.00000
     22      17.2924      0.00000
     23      17.2934      0.00000
     24      17.2934      0.00000

 k-point     6 :       0.2778    0.0000    0.0000
  band No.  band energies     occupation 
      1      -2.5222      1.00000
      2       1.9236      1.00000
      3       2.9025      1.00000
      4       3.7100      1.00000
      5       3.7519      1.00000
      6       3.7519      1.00000
      7       3.8670      1.00000
      8       5.2777      1.00000
      9       5.2777      1.00000
     10       5.4422      1.00000
     11       5.7624      1.00000
     12       6.3167      1.00001
     13       6.3167      1.00001
     14       6.3187      1.00001
     15       6.5100      1.00150
     16       6.6917      1.02616
     17       7.3784     -0.01088
     18      10.1450     -0.00000
     19      10.1450     -0.00000
     20      13.9202      0.00000
     21      14.9303      0.00000
     22      16.3536      0.00000
     23      16.3536      0.00000
     24      17.5052      0.00000

 k-point     7 :       0.3333    0.0000    0.0000
  band No.  band energies     occupation 
      1      -2.1101      1.00000
      2       1.4237      1.00000
      3       3.0180      1.00000
      4       3.7901      1.00000
      5       3.7901      1.00000
      6       3.9215      1.00000
      7       3.9490      1.00000
      8       5.1777      1.00000
      9       5.1777      1.00000
     10       5.3539      1.00000
     11       5.5447      1.00000
     12       6.1474      1.00000
     13       6.1738      1.00000
     14       6.1738      1.00000
     15       6.3973      1.00009
     16       6.6553      1.01788
     17       7.3786     -0.01084
     18      10.7792     -0.00000
     19      10.7792     -0.00000
     20      13.8625      0.00000
     21      15.0748      0.00000
     22      15.4429      0.00000
     23      15.4429      0.00000
     24      17.1609      0.00000

 k-point     8 :       0.3889    0.0000    0.0000
  band No.  band energies     occupation 
      1      -1.6426      1.00000
      2       0.8502      1.00000
      3       3.1329      1.00000
      4       3.8228      1.00000
      5       3.8228      1.00000
      6       4.0243      1.00000
      7       4.1212      1.00000
      8       5.1021      1.00000
      9       5.1021      1.00000
     10       5.2734      1.00000
     11       5.4155      1.00000
     12       6.0036      1.00000
     13       6.0654      1.00000
     14       6.0654      1.00000
     15       6.2571      1.00000
     16       6.6466      1.01607
     17       7.3788     -0.01082
     18      11.4557     -0.00000
     19      11.4557     -0.00000
     20      13.8113      0.00000
     21      14.5677      0.00000
     22      14.5677      0.00000
     23      15.2406      0.00000
     24      16.7646      0.00000

 k-point     9 :       0.4444    0.0000    0.0000
  band No.  band energies     occupation 
      1      -1.1508      1.00000
      2       0.2780      1.00000
      3       3.2165      1.00000
      4       3.8449      1.00000
      5       3.8449      1.00000
      6       4.0793      1.00000
      7       4.2719      1.00000
      8       5.0556      1.00000
      9       5.0556      1.00000
     10       5.2150      1.00000
     11       5.3539      1.00000
     12       5.9019      1.00000
     13       5.9968      1.00000
     14       5.9968      1.00000
     15       6.1411      1.00000
     16       6.6452      1.01578
     17       7.3789     -0.01080
     18      12.1734     -0.00000
     19      12.1734     -0.00000
     20      13.7306      0.00000
     21      13.7306      0.00000
     22      13.7757      0.00000
     23      15.4090      0.00000
     24      16.4403      0.00000

 k-point    10 :       0.5000    0.0000    0.0000
  band No.  band energies     occupation 
      1      -0.8337      1.00000
      2      -0.0687      1.00000
      3       3.2471      1.00000
      4       3.8528      1.00000
      5       3.8528      1.00000
      6       4.0998      1.00000
      7       4.3295      1.00000
      8       5.0400      1.00000
      9       5.0400      1.00000
     10       5.1933      1.00000
     11       5.3367      1.00000
     12       5.8643      1.00000
     13       5.9732      1.00000
     14       5.9732      1.00000
     15       6.0950      1.00000
     16       6.6451      1.01576
     17       7.3790     -0.01079
     18      12.9073      0.00000
     19      12.9073      0.00000
     20      12.9568      0.00000
     21      12.9568      0.00000
     22      13.7629      0.00000
     23      15.4968      0.00000
     24      16.2983      0.00000

 k-point    11 :       0.0556    0.0556    0.0000
  band No.  band energies     occupation 
      1      -3.4184      1.00000
      2       2.3478      1.00000
      3       3.0879      1.00000
      4       3.1390      1.00000
      5       3.6301      1.00000
      6       3.6401      1.00000
      7       3.6610      1.00000
      8       5.6204      1.00000
      9       5.6554      1.00000
     10       5.7151      1.00000
     11       6.5298      1.00227
     12       6.5553      1.00375
     13       6.9745      0.60014
     14       7.0368      0.34068
     15       7.1034      0.11640
     16       7.3586     -0.01439
     17       7.7998     -0.00000
     18       8.0729     -0.00000
     19       8.2696     -0.00000
     20      14.1475      0.00000
     21      14.3335      0.00000
     22      15.2849      0.00000
     23      19.3033      0.00000
     24      19.6870      0.00000

 k-point    12 :       0.1111    0.0556    0.0000
  band No.  band energies     occupation 
      1      -3.2993      1.00000
      2       2.3850      1.00000
      3       3.0222      1.00000
      4       3.2070      1.00000
      5       3.6388      1.00000
      6       3.6560      1.00000
      7       3.7015      1.00000
      8       5.5263      1.00000
      9       5.5897      1.00000
     10       5.7107      1.00000
     11       6.4532      1.00040
     12       6.5515      1.00349
     13       6.7532      1.03546
     14       6.8926      0.88551
     15       6.9381      0.74235
     16       7.3478     -0.01653
     17       7.4993     -0.00113
     18       8.3977     -0.00000
     19       8.6406     -0.00000
     20      14.1532      0.00000
     21      14.6234      0.00000
     22      15.6747      0.00000
     23      18.5371      0.00000
     24      19.1702      0.00000

 k-point    13 :       0.1667    0.0556    0.0000
  band No.  band energies     occupation 
      1      -3.1021      1.00000
      2       2.4090      1.00000
      3       2.9086      1.00000
      4       3.3310      1.00000
      5       3.6607      1.00000
      6       3.6815      1.00000
      7       3.7579      1.00000
      8       5.4118      1.00000
      9       5.4939      1.00000
     10       5.6755      1.00000
     11       6.2745      1.00000
     12       6.5095      1.00148
     13       6.5563      1.00383
     14       6.6726      1.02174
     15       6.8594      0.95793
     16       7.0896      0.15468
     17       7.3451     -0.01711
     18       8.8571     -0.00000
     19       9.1060     -0.00000
     20      14.1254      0.00000
     21      14.8266      0.00000
     22      16.4488      0.00000
     23      17.6655      0.00000
     24      18.2863      0.00000

 k-point    14 :       0.2222    0.0556    0.0000
  band No.  band energies     occupation 
      1      -2.8292      1.00000
      2       2.2953      1.00000
      3       2.8476      1.00000
      4       3.4945      1.00000
      5       3.6931      1.00000
      6       3.7166      1.00000
      7       3.8273      1.00000
      8       5.2911      1.00000
      9       5.3838      1.00000
     10       5.6138      1.00000
     11       5.9879      1.00000
     12       6.3390      1.00002
     13       6.4737      1.00066
     14       6.5425      1.00293
     15       6.7217      1.03236
     16       6.7954      1.02658
     17       7.3445     -0.01723
     18       9.3707     -0.00000
     19       9.6340     -0.00000
     20      14.0791      0.00000
     21      14.9675      0.00000
     22      16.7393      0.00000
     23      17.3354      0.00000
     24      17.4002      0.00000

 k-point    15 :       0.2778    0.0556    0.0000
  band No.  band energies     occupation 
      1      -2.4842      1.00000
      2       1.9497      1.00000
      3       2.9129      1.00000
      4       3.6688      1.00000
      5       3.7324      1.00000
      6       3.7749      1.00000
      7       3.9045      1.00000
      8       5.1799      1.00000
      9       5.2723      1.00000
     10       5.5303      1.00000
     11       5.7107      1.00000
     12       6.1823      1.00000
     13       6.3034      1.00001
     14       6.4658      1.00054
     15       6.5332      1.00243
     16       6.6866      1.02497
     17       7.3446     -0.01721
     18       9.9266     -0.00000
     19      10.2141     -0.00000
     20      14.0107      0.00000
     21      15.1062      0.00000
     22      15.9034      0.00000
     23      16.3953      0.00000
     24      17.7454      0.00000

 k-point    16 :       0.3333    0.0556    0.0000
  band No.  band energies     occupation 
      1      -2.0731      1.00000
      2       1.4520      1.00000
      3       3.0301      1.00000
      4       3.7544      1.00000
      5       3.7739      1.00000
      6       3.9352      1.00000
      7       3.9814      1.00000
      8       5.0932      1.00000
      9       5.1658      1.00000
     10       5.4315      1.00000
     11       5.5211      1.00000
     12       6.0329      1.00000
     13       6.1655      1.00000
     14       6.2994      1.00000
     15       6.4138      1.00014
     16       6.6439      1.01552
     17       7.3449     -0.01715
     18      10.5191     -0.00000
     19      10.8411     -0.00000
     20      13.8975      0.00000
     21      15.1237      0.00000
     22      15.2724      0.00000
     23      15.4853      0.00000
     24      17.4296      0.00000

 k-point    17 :       0.3889    0.0556    0.0000
  band No.  band energies     occupation 
      1      -1.6069      1.00000
      2       0.8809      1.00000
      3       3.1472      1.00000
      4       3.7880      1.00000
      5       3.8115      1.00000
      6       4.0471      1.00000
      7       4.1310      1.00000
      8       5.0431      1.00000
      9       5.0734      1.00000
     10       5.3269      1.00000
     11       5.4235      1.00000
     12       5.9018      1.00000
     13       6.0637      1.00000
     14       6.1680      1.00000
     15       6.2746      1.00000
     16       6.6342      1.01365
     17       7.3452     -0.01708
     18      11.1435     -0.00000
     19      11.5122     -0.00000
     20      13.6455      0.00000
     21      14.5399      0.00000
     22      14.6114      0.00000
     23      15.4504      0.00000
     24      17.0225      0.00000

 k-point    18 :       0.4444    0.0556    0.0000
  band No.  band energies     occupation 
      1      -1.1169      1.00000
      2       0.3113      1.00000
      3       3.2332      1.00000
      4       3.8061      1.00000
      5       3.8383      1.00000
      6       4.0910      1.00000
      7       4.2854      1.00000
      8       5.0094      1.00000
      9       5.0335      1.00000
     10       5.2338      1.00000
     11       5.3859      1.00000
     12       5.8069      1.00000
     13       6.0013      1.00000
     14       6.0905      1.00000
     15       6.1543      1.00000
     16       6.6327      1.01338
     17       7.3454     -0.01704
     18      11.7926     -0.00000
     19      12.2257     -0.00000
     20      13.1313      0.00000
     21      13.7762      0.00000
     22      14.2723      0.00000
     23      15.6385      0.00000
     24      16.6796      0.00000

 k-point    19 :       0.5000    0.0556    0.0000
  band No.  band energies     occupation 
      1      -0.8020      1.00000
      2      -0.0328      1.00000
      3       3.2650      1.00000
      4       3.8118      1.00000
      5       3.8482      1.00000
      6       4.1062      1.00000
      7       4.3461      1.00000
      8       4.9859      1.00000
      9       5.0418      1.00000
     10       5.1896      1.00000
     11       5.3776      1.00000
     12       5.7711      1.00000
     13       5.9802      1.00000
     14       6.0739      1.00000
     15       6.0971      1.00000
     16       6.6327      1.01337
     17       7.3455     -0.01702
     18      12.3668     -0.00000
     19      12.5736      0.00000
     20      12.9701      0.00000
     21      12.9913      0.00000
     22      14.2110      0.00000
     23      15.7393      0.00000
     24      16.5247      0.00000

 k-point    20 :       0.1111    0.1111    0.0000
  band No.  band energies     occupation 
      1      -3.1808      1.00000
      2       2.4265      1.00000
      3       3.0145      1.00000
      4       3.2143      1.00000
      5       3.6349      1.00000
      6       3.6687      1.00000
      7       3.7555      1.00000
      8       5.4021      1.00000
      9       5.5329      1.00000
     10       5.7502      1.00000
     11       6.3494      1.00002
     12       6.5228      1.00196
     13       6.5312      1.00234
     14       6.7686      1.03447
     15       6.8936      0.88270
     16       7.3017     -0.02690
     17       7.6248     -0.00004
     18       8.2613     -0.00000
     19       8.9443     -0.00000
     20      14.2278      0.00000
     21      15.0225      0.00000
     22      15.9102      0.00000
     23      17.6536      0.00000
     24      19.1400      0.00000

 k-point    21 :       0.1667    0.1111    0.0000
  band No.  band energies     occupation 
      1      -2.9847      1.00000
      2       2.4615      1.00000
      3       2.9250      1.00000
      4       3.3038      1.00000
      5       3.6458      1.00000
      6       3.6910      1.00000
      7       3.8247      1.00000
      8       5.2671      1.00000
      9       5.4528      1.00000
     10       5.7557      1.00000
     11       6.0838      1.00000
     12       6.4039      1.00011
     13       6.5130      1.00160
     14       6.5979      1.00794
     15       6.8184      1.01138
     16       7.2741     -0.03251
     17       7.3483     -0.01644
     18       8.5225     -0.00000
     19       9.3617     -0.00000
     20      14.2206      0.00000
     21      15.3578      0.00000
     22      16.5452      0.00000
     23      16.7693      0.00000
     24      18.4110      0.00000

 k-point    22 :       0.2222    0.1111    0.0000
  band No.  band energies     occupation 
      1      -2.7135      1.00000
      2       2.3641      1.00000
      3       2.8641      1.00000
      4       3.4462      1.00000
      5       3.6700      1.00000
      6       3.7281      1.00000
      7       3.9041      1.00000
      8       5.1362      1.00000
      9       5.3622      1.00000
     10       5.7253      1.00000
     11       5.7972      1.00000
     12       6.2710      1.00000
     13       6.4200      1.00017
     14       6.5039      1.00131
     15       6.7143      1.03101
     16       7.0102      0.44991
     17       7.2610     -0.03439
     18       8.9479     -0.00000
     19       9.8562     -0.00000
     20      14.1514      0.00000
     21      15.5355      0.00000
     22      15.9317      0.00000
     23      17.4589      0.00000
     24      17.4706      0.00000

 k-point    23 :       0.2778    0.1111    0.0000
  band No.  band energies     occupation 
      1      -2.3708      1.00000
      2       2.0263      1.00000
      3       2.9346      1.00000
      4       3.5882      1.00000
      5       3.7046      1.00000
      6       3.8043      1.00000
      7       3.9860      1.00000
      8       5.0259      1.00000
      9       5.2570      1.00000
     10       5.5718      1.00000
     11       5.6563      1.00000
     12       6.1187      1.00000
     13       6.2618      1.00000
     14       6.4563      1.00043
     15       6.6083      1.00936
     16       6.7585      1.03535
     17       7.2550     -0.03497
     18       9.4274     -0.00000
     19      10.4117     -0.00000
     20      13.9604      0.00000
     21      15.2304      0.00000
     22      15.7336      0.00000
     23      16.5179      0.00000
     24      18.0023      0.00000

 k-point    24 :       0.3333    0.1111    0.0000
  band No.  band energies     occupation 
      1      -1.9626      1.00000
      2       1.5356      1.00000
      3       3.0586      1.00000
      4       3.6663      1.00000
      5       3.7459      1.00000
      6       3.9594      1.00000
      7       4.0574      1.00000
      8       4.9552      1.00000
      9       5.1251      1.00000
     10       5.4606      1.00000
     11       5.5486      1.00000
     12       5.9605      1.00000
     13       6.1399      1.00000
     14       6.3327      1.00001
     15       6.5184      1.00179
     16       6.6220      1.01149
     17       7.2524     -0.03516
     18       9.9412     -0.00000
     19      11.0200     -0.00000
     20      13.5407      0.00000
     21      14.8486      0.00000
     22      15.6100      0.00000
     23      15.9096      0.00000
     24      17.7963      0.00000

 k-point    25 :       0.3889    0.1111    0.0000
  band No.  band energies     occupation 
      1      -1.5003      1.00000
      2       0.9720      1.00000
      3       3.1842      1.00000
      4       3.6938      1.00000
      5       3.7879      1.00000
      6       4.1041      1.00000
      7       4.1516      1.00000
      8       4.9417      1.00000
      9       4.9995      1.00000
     10       5.4124      1.00000
     11       5.4339      1.00000
     12       5.8142      1.00000
     13       6.0590      1.00000
     14       6.2055      1.00000
     15       6.3794      1.00005
     16       6.5985      1.00801
     17       7.2513     -0.03523
     18      10.4833     -0.00000
     19      11.6763     -0.00000
     20      12.9469      0.00000
     21      14.6928      0.00000
     22      14.7405      0.00000
     23      16.1169      0.00000
     24      17.4312      0.00000

 k-point    26 :       0.4444    0.1111    0.0000
  band No.  band energies     occupation 
      1      -1.0159      1.00000
      2       0.4104      1.00000
      3       3.2800      1.00000
      4       3.6987      1.00000
      5       3.8215      1.00000
      6       4.1224      1.00000
      7       4.3160      1.00000
      8       4.9088      1.00000
      9       4.9891      1.00000
     10       5.2699      1.00000
     11       5.4431      1.00000
     12       5.7017      1.00000
     13       6.0139      1.00000
     14       6.1246      1.00000
     15       6.2617      1.00000
     16       6.5959      1.00769
     17       7.2508     -0.03525
     18      11.0475     -0.00000
     19      12.3166     -0.00000
     20      12.3777     -0.00000
     21      13.9116      0.00000
     22      14.6350      0.00000
     23      16.3412      0.00000
     24      17.0965      0.00000

 k-point    27 :       0.5000    0.1111    0.0000
  band No.  band energies     occupation 
      1      -0.7076      1.00000
      2       0.0737      1.00000
      3       3.3170      1.00000
      4       3.6972      1.00000
      5       3.8348      1.00000
      6       4.1251      1.00000
      7       4.3859      1.00000
      8       4.8718      1.00000
      9       5.0475      1.00000
     10       5.1799      1.00000
     11       5.4534      1.00000
     12       5.6557      1.00000
     13       5.9995      1.00000
     14       6.1007      1.00000
     15       6.2123      1.00000
     16       6.5959      1.00768
     17       7.2507     -0.03525
     18      11.5131     -0.00000
     19      11.8251     -0.00000
     20      13.0946      0.00000
     21      13.1523      0.00000
     22      14.6198      0.00000
     23      16.4857      0.00000
     24      16.9144      0.00000

 k-point    28 :       0.1667    0.1667    0.0000
  band No.  band energies     occupation 
      1      -2.7907      1.00000
      2       2.5250      1.00000
      3       2.8859      1.00000
      4       3.3132      1.00000
      5       3.6458      1.00000
      6       3.7114      1.00000
      7       3.9077      1.00000
      8       5.1174      1.00000
      9       5.3999      1.00000
     10       5.8053      1.00000
     11       5.8134      1.00000
     12       6.3444      1.00002
     13       6.4706      1.00061
     14       6.4754      1.00068
     15       6.7481      1.03535
     16       7.2083     -0.02956
     17       7.4207     -0.00548
     18       8.3386     -0.00000
     19       9.7341     -0.00000
     20      14.1857      0.00000
     21      15.8982      0.00000
     22      16.0501      0.00000
     23      16.8567      0.00000
     24      18.5632      0.00000

 k-point    29 :       0.2222    0.1667    0.0000
  band No.  band energies     occupation 
      1      -2.5223      1.00000
      2       2.4717      1.00000
      3       2.8356      1.00000
      4       3.3948      1.00000
      5       3.6603      1.00000
      6       3.7524      1.00000
      7       4.0004      1.00000
      8       4.9781      1.00000
      9       5.3413      1.00000
     10       5.5560      1.00000
     11       5.8158      1.00000
     12       6.2398      1.00000
     13       6.3256      1.00001
     14       6.4493      1.00036
     15       6.6508      1.01695
     16       7.1640      0.00311
     17       7.1999     -0.02594
     18       8.5272     -0.00000
     19      10.1917     -0.00000
     20      13.9573      0.00000
     21      15.2487      0.00000
     22      16.4389      0.00000
     23      17.5822      0.00000
     24      17.6550      0.00000

 k-point    30 :       0.2778    0.1667    0.0000
  band No.  band energies     occupation 
      1      -2.1834      1.00000
      2       2.1485      1.00000
      3       2.9258      1.00000
      4       3.4959      1.00000
      5       3.6873      1.00000
      6       3.8365      1.00000
      7       4.0912      1.00000
      8       4.8679      1.00000
      9       5.2188      1.00000
     10       5.4158      1.00000
     11       5.7710      1.00000
     12       6.0971      1.00000
     13       6.1869      1.00000
     14       6.4108      1.00013
     15       6.5549      1.00373
     16       6.9308      0.76864
     17       7.1377      0.04116
     18       8.8874     -0.00000
     19      10.7169     -0.00000
     20      13.4347      0.00000
     21      14.9472      0.00000
     22      16.6521      0.00000
     23      16.7128      0.00000
     24      18.1841      0.00000

 k-point    31 :       0.3333    0.1667    0.0000
  band No.  band energies     occupation 
      1      -1.7803      1.00000
      2       1.6697      1.00000
      3       3.0669      1.00000
      4       3.5583      1.00000
      5       3.7237      1.00000
      6       3.9843      1.00000
      7       4.1581      1.00000
      8       4.8140      1.00000
      9       5.0433      1.00000
     10       5.4053      1.00000
     11       5.6545      1.00000
     12       5.9369      1.00000
     13       6.0967      1.00000
     14       6.3044      1.00001
     15       6.5176      1.00176
     16       6.7127      1.03071
     17       7.1230      0.06987
     18       9.3103     -0.00000
     19      11.3000     -0.00000
     20      12.7599      0.00000
     21      14.8647      0.00000
     22      15.8097      0.00000
     23      16.8399      0.00000
     24      18.1092      0.00000

 k-point    32 :       0.3889    0.1667    0.0000
  band No.  band energies     occupation 
      1      -1.3247      1.00000
      2       1.1195      1.00000
      3       3.2108      1.00000
      4       3.5723      1.00000
      5       3.7643      1.00000
      6       4.1711      1.00000
      7       4.1793      1.00000
      8       4.8426      1.00000
      9       4.9006      1.00000
     10       5.4342      1.00000
     11       5.4859      1.00000
     12       5.7795      1.00000
     13       6.0524      1.00000
     14       6.1887      1.00000
     15       6.4887      1.00093
     16       6.5641      1.00442
     17       7.1149      0.08779
     18       9.7730     -0.00000
     19      11.9349     -0.00000
     20      12.0790     -0.00000
     21      14.8558      0.00000
     22      14.9488      0.00000
     23      17.0158      0.00000
     24      17.8424      0.00000

 k-point    33 :       0.4444    0.1667    0.0000
  band No.  band energies     occupation 
      1      -0.8498      1.00000
      2       0.5719      1.00000
      3       3.3344      1.00000
      4       3.5493      1.00000
      5       3.7995      1.00000
      6       4.1661      1.00000
      7       4.3464      1.00000
      8       4.7943      1.00000
      9       4.9465      1.00000
     10       5.3026      1.00000
     11       5.4784      1.00000
     12       5.6454      1.00000
     13       6.0323      1.00000
     14       6.1172      1.00000
     15       6.3911      1.00008
     16       6.5367      1.00261
     17       7.1110      0.09721
     18      10.2694     -0.00000
     19      11.4426     -0.00000
     20      12.6167      0.00000
     21      14.1323      0.00000
     22      14.8654      0.00000
     23      17.1579      0.00000
     24      17.6327      0.00000

 k-point    34 :       0.5000    0.1667    0.0000
  band No.  band energies     occupation 
      1      -0.5523      1.00000
      2       0.2477      1.00000
      3       3.3975      1.00000
      4       3.5208      1.00000
      5       3.8142      1.00000
      6       4.1553      1.00000
      7       4.4320      1.00000
      8       4.7415      1.00000
      9       5.0568      1.00000
     10       5.1678      1.00000
     11       5.5242      1.00000
     12       5.5653      1.00000
     13       6.0263      1.00000
     14       6.0975      1.00000
     15       6.3429      1.00002
     16       6.5353      1.00254
     17       7.1098      0.10012
     18      10.6973     -0.00000
     19      10.9668     -0.00000
     20      13.2663      0.00000
     21      13.4380      0.00000
     22      14.8709      0.00000
     23      17.2198      0.00000
     24      17.5497      0.00000

 k-point    35 :       0.2222    0.2222    0.0000
  band No.  band energies     occupation 
      1      -2.2580      1.00000
      2       2.5803      1.00000
      3       2.6975      1.00000
      4       3.3995      1.00000
      5       3.6651      1.00000
      6       3.7981      1.00000
      7       4.1089      1.00000
      8       4.8316      1.00000
      9       5.3130      1.00000
     10       5.3372      1.00000
     11       5.8749      1.00000
     12       6.1840      1.00000
     13       6.1956      1.00000
     14       6.4008      1.00010
     15       6.5586      1.00399
     16       7.0809      0.18158
     17       7.2186     -0.03269
     18       8.3464     -0.00000
     19      10.6148     -0.00000
     20      13.3921      0.00000
     21      14.9726      0.00000
     22      17.3134      0.00000
     23      17.7969      0.00000
     24      17.8074      0.00000

 k-point    36 :       0.2778    0.2222    0.0000
  band No.  band energies     occupation 
      1      -1.9247      1.00000
      2       2.3067      1.00000
      3       2.7930      1.00000
      4       3.4558      1.00000
      5       3.6831      1.00000
      6       3.8807      1.00000
      7       4.2146      1.00000
      8       4.7174      1.00000
      9       5.0988      1.00000
     10       5.3539      1.00000
     11       5.8681      1.00000
     12       6.0739      1.00000
     13       6.0773      1.00000
     14       6.3569      1.00003
     15       6.4618      1.00049
     16       7.0211      0.40439
     17       7.0435      0.31431
     18       8.4782     -0.00000
     19      11.1092     -0.00000
     20      12.6521      0.00000
     21      14.9312      0.00000
     22      16.9561      0.00000
     23      17.6652      0.00000
     24      18.2673      0.00000

 k-point    37 :       0.3333    0.2222    0.0000
  band No.  band energies     occupation 
      1      -1.5290      1.00000
      2       1.8460      1.00000
      3       2.9574      1.00000
      4       3.5071      1.00000
      5       3.7115      1.00000
      6       4.0133      1.00000
      7       4.2764      1.00000
      8       4.6815      1.00000
      9       4.9259      1.00000
     10       5.3920      1.00000
     11       5.7307      1.00000
     12       5.9348      1.00000
     13       6.0418      1.00000
     14       6.2556      1.00000
     15       6.4297      1.00022
     16       6.8296      1.00039
     17       6.9821      0.56852
     18       8.7716     -0.00000
     19      11.6645     -0.00000
     20      11.9118     -0.00000
     21      14.9667      0.00000
     22      16.0697      0.00000
     23      17.7318      0.00000
     24      18.5597      0.00000

 k-point    38 :       0.3889    0.2222    0.0000
  band No.  band energies     occupation 
      1      -1.0832      1.00000
      2       1.3162      1.00000
      3       3.1123      1.00000
      4       3.5252      1.00000
      5       3.7454      1.00000
      6       4.1851      1.00000
      7       4.2595      1.00000
      8       4.7635      1.00000
      9       4.7949      1.00000
     10       5.4385      1.00000
     11       5.5320      1.00000
     12       5.7830      1.00000
     13       6.0472      1.00000
     14       6.1486      1.00000
     15       6.4317      1.00023
     16       6.6471      1.01618
     17       6.9584      0.66529
     18       9.1404     -0.00000
     19      11.2259     -0.00000
     20      12.2736     -0.00000
     21      15.0236      0.00000
     22      15.2248      0.00000
     23      17.6496      0.00000
     24      18.6195      0.00000

 k-point    39 :       0.4444    0.2222    0.0000
  band No.  band energies     occupation 
      1      -0.6221      1.00000
      2       0.7898      1.00000
      3       3.2351      1.00000
      4       3.5118      1.00000
      5       3.7757      1.00000
      6       4.2149      1.00000
      7       4.3622      1.00000
      8       4.6880      1.00000
      9       4.9185      1.00000
     10       5.3237      1.00000
     11       5.4817      1.00000
     12       5.6507      1.00000
     13       6.0533      1.00000
     14       6.0894      1.00000
     15       6.4383      1.00027
     16       6.5142      1.00164
     17       6.9458      0.71404
     18       9.5634     -0.00000
     19      10.6111     -0.00000
     20      12.9290      0.00000
     21      14.4289      0.00000
     22      15.0732      0.00000
     23      17.5235      0.00000
     24      18.7042      0.00000

 k-point    40 :       0.5000    0.2222    0.0000
  band No.  band energies     occupation 
      1      -0.3395      1.00000
      2       0.4830      1.00000
      3       3.2886      1.00000
      4       3.4955      1.00000
      5       3.7886      1.00000
      6       4.1944      1.00000
      7       4.4716      1.00000
      8       4.6127      1.00000
      9       5.0697      1.00000
     10       5.1568      1.00000
     11       5.5138      1.00000
     12       5.5807      1.00000
     13       6.0555      1.00000
     14       6.0759      1.00000
     15       6.4498      1.00037
     16       6.4532      1.00040
     17       6.9418      0.72877
     18       9.9677     -0.00000
     19      10.1424     -0.00000
     20      13.5056      0.00000
     21      13.8057      0.00000
     22      15.0929      0.00000
     23      17.4687      0.00000
     24      18.7460      0.00000

 k-point    41 :       0.2778    0.2778    0.0000
  band No.  band energies     occupation 
      1      -1.5991      1.00000
      2       2.4585      1.00000
      3       2.5159      1.00000
      4       3.4912      1.00000
      5       3.6911      1.00000
      6       3.9498      1.00000
      7       4.3471      1.00000
      8       4.5886      1.00000
      9       4.9400      1.00000
     10       5.3728      1.00000
     11       5.9172      1.00000
     12       5.9518      1.00000
     13       6.0249      1.00000
     14       6.3139      1.00001
     15       6.3433      1.00002
     16       6.9236      0.79299
     17       7.0182      0.41646
     18       8.3235     -0.00000
     19      11.5735     -0.00000
     20      11.8526     -0.00000
     21      15.0014      0.00000
     22      17.0366      0.00000
     23      17.5916      0.00000
     24      18.2755      0.00000

 k-point    42 :       0.3333    0.2778    0.0000
  band No.  band energies     occupation 
      1      -1.2134      1.00000
      2       2.0494      1.00000
      3       2.6777      1.00000
      4       3.5449      1.00000
      5       3.7088      1.00000
      6       4.0563      1.00000
      7       4.4000      1.00000
      8       4.5741      1.00000
      9       4.8035      1.00000
     10       5.4190      1.00000
     11       5.7385      1.00000
     12       5.9256      1.00000
     13       6.0078      1.00000
     14       6.1988      1.00000
     15       6.3119      1.00001
     16       6.8515      0.97129
     17       6.8753      0.92661
     18       8.4170     -0.00000
     19      11.1096     -0.00000
     20      12.0998     -0.00000
     21      15.1023      0.00000
     22      16.3504      0.00000
     23      17.7629      0.00000
     24      18.2001      0.00000

 k-point    43 :       0.3889    0.2778    0.0000
  band No.  band energies     occupation 
      1      -0.7811      1.00000
      2       1.5500      1.00000
      3       2.8431      1.00000
      4       3.5788      1.00000
      5       3.7318      1.00000
      6       4.1992      1.00000
      7       4.3248      1.00000
      8       4.6983      1.00000
      9       4.7273      1.00000
     10       5.4663      1.00000
     11       5.5373      1.00000
     12       5.7976      1.00000
     13       6.0496      1.00000
     14       6.0884      1.00000
     15       6.3178      1.00001
     16       6.7117      1.03050
     17       6.8031      1.02245
     18       8.6557     -0.00000
     19      10.4479     -0.00000
     20      12.6802      0.00000
     21      15.2081      0.00000
     22      15.5481      0.00000
     23      17.9831      0.00000
     24      18.0990      0.00000

 k-point    44 :       0.4444    0.2778    0.0000
  band No.  band energies     occupation 
      1      -0.3386      1.00000
      2       1.0535      1.00000
      3       2.9613      1.00000
      4       3.5892      1.00000
      5       3.7525      1.00000
      6       4.2620      1.00000
      7       4.3566      1.00000
      8       4.6069      1.00000
      9       4.9136      1.00000
     10       5.3287      1.00000
     11       5.4971      1.00000
     12       5.6781      1.00000
     13       6.0361      1.00000
     14       6.0744      1.00000
     15       6.3280      1.00001
     16       6.5838      1.00628
     17       6.7755      1.03327
     18       8.9824     -0.00000
     19       9.8757     -0.00000
     20      13.3033      0.00000
     21      14.7857      0.00000
     22      15.2919      0.00000
     23      17.7905      0.00000
     24      18.3867      0.00000

 k-point    45 :       0.5000    0.2778    0.0000
  band No.  band energies     occupation 
      1      -0.0745      1.00000
      2       0.7690      1.00000
      3       3.0050      1.00000
      4       3.5895      1.00000
      5       3.7611      1.00000
      6       4.2387      1.00000
      7       4.4957      1.00000
      8       4.5006      1.00000
      9       5.0859      1.00000
     10       5.1490      1.00000
     11       5.5103      1.00000
     12       5.6228      1.00000
     13       6.0271      1.00000
     14       6.0827      1.00000
     15       6.3337      1.00001
     16       6.5322      1.00239
     17       6.7666      1.03473
     18       9.3486     -0.00000
     19       9.4283     -0.00000
     20      13.8114      0.00000
     21      14.2308      0.00000
     22      15.3246      0.00000
     23      17.7159      0.00000
     24      18.5063      0.00000

 k-point    46 :       0.3333    0.3333    0.0000
  band No.  band energies     occupation 
      1      -0.8412      1.00000
      2       2.2020      1.00000
      3       2.3418      1.00000
      4       3.6028      1.00000
      5       3.7137      1.00000
      6       4.1268      1.00000
      7       4.4191      1.00000
      8       4.6049      1.00000
      9       4.7000      1.00000
     10       5.4694      1.00000
     11       5.6461      1.00000
     12       5.8832      1.00000
     13       6.0264      1.00000
     14       6.1272      1.00000
     15       6.2049      1.00000
     16       6.7446      1.03518
     17       6.8235      1.00669
     18       8.2931     -0.00000
     19      10.3916     -0.00000
     20      12.5961      0.00000
     21      15.2545      0.00000
     22      16.4233      0.00000
     23      17.2062      0.00000
     24      18.3426      0.00000

 k-point    47 :       0.3889    0.3333    0.0000
  band No.  band energies     occupation 
      1      -0.4266      1.00000
      2       1.8002      1.00000
      3       2.4812      1.00000
      4       3.6365      1.00000
      5       3.7228      1.00000
      6       4.2303      1.00000
      7       4.3509      1.00000
      8       4.6214      1.00000
      9       4.7602      1.00000
     10       5.4927      1.00000
     11       5.5197      1.00000
     12       5.8008      1.00000
     13       6.0165      1.00000
     14       6.0642      1.00000
     15       6.1789      1.00000
     16       6.6666      1.02038
     17       6.7134      1.03084
     18       8.3637     -0.00000
     19       9.7757     -0.00000
     20      13.1451      0.00000
     21      15.4039      0.00000
     22      15.8686      0.00000
     23      17.3318      0.00000
     24      18.2380      0.00000

 k-point    48 :       0.4444    0.3333    0.0000
  band No.  band energies     occupation 
      1      -0.0078      1.00000
      2       1.3450      1.00000
      3       2.6235      1.00000
      4       3.6432      1.00000
      5       3.7315      1.00000
      6       4.3012      1.00000
      7       4.3488      1.00000
      8       4.5559      1.00000
      9       4.9369      1.00000
     10       5.3138      1.00000
     11       5.5468      1.00000
     12       5.7027      1.00000
     13       5.9603      1.00000
     14       6.0940      1.00000
     15       6.1789      1.00000
     16       6.6115      1.00983
     17       6.6187      1.01096
     18       8.5648     -0.00000
     19       9.2684     -0.00000
     20      13.7318      0.00000
     21      15.1749      0.00000
     22      15.5203      0.00000
     23      17.5954      0.00000
     24      18.0646      0.00000

 k-point    49 :       0.5000    0.3333    0.0000
  band No.  band energies     occupation 
      1       0.2350      1.00000
      2       1.0876      1.00000
      3       2.6773      1.00000
      4       3.6415      1.00000
      5       3.7351      1.00000
      6       4.2835      1.00000
      7       4.4297      1.00000
      8       4.5024      1.00000
      9       5.1043      1.00000
     10       5.1447      1.00000
     11       5.5544      1.00000
     12       5.6539      1.00000
     13       5.9527      1.00000
     14       6.1051      1.00000
     15       6.1807      1.00000
     16       6.5693      1.00487
     17       6.6024      1.00854
     18       8.8585     -0.00000
     19       8.8754     -0.00000
     20      14.1825      0.00000
     21      14.6832      0.00000
     22      15.5655      0.00000
     23      17.7138      0.00000
     24      17.9893      0.00000

 k-point    50 :       0.3889    0.3889    0.0000
  band No.  band energies     occupation 
      1      -0.0349      1.00000
      2       1.9760      1.00000
      3       2.1323      1.00000
      4       3.6510      1.00000
      5       3.7175      1.00000
      6       4.2936      1.00000
      7       4.3433      1.00000
      8       4.5662      1.00000
      9       4.8568      1.00000
     10       5.4012      1.00000
     11       5.5816      1.00000
     12       5.7751      1.00000
     13       5.9375      1.00000
     14       6.0603      1.00000
     15       6.0881      1.00000
     16       6.5603      1.00412
     17       6.6598      1.01886
     18       8.2667     -0.00000
     19       9.2267     -0.00000
     20      13.6600      0.00000
     21      15.5923      0.00000
     22      15.9710      0.00000
     23      16.8413      0.00000
     24      18.3795      0.00000

 k-point    51 :       0.4444    0.3889    0.0000
  band No.  band energies     occupation 
      1       0.3552      1.00000
      2       1.6321      1.00000
      3       2.2506      1.00000
      4       3.6290      1.00000
      5       3.7147      1.00000
      6       4.3287      1.00000
      7       4.3750      1.00000
      8       4.5249      1.00000
      9       4.9880      1.00000
     10       5.2760      1.00000
     11       5.6207      1.00000
     12       5.7173      1.00000
     13       5.8746      1.00000
     14       6.0150      1.00000
     15       6.1114      1.00000
     16       6.4913      1.00099
     17       6.5921      1.00723
     18       8.3262     -0.00000
     19       8.8062     -0.00000
     20      14.2081      0.00000
     21      15.5389      0.00000
     22      15.7377      0.00000
     23      16.8876      0.00000
     24      18.3469      0.00000

 k-point    52 :       0.5000    0.3889    0.0000
  band No.  band energies     occupation 
      1       0.5756      1.00000
      2       1.4060      1.00000
      3       2.3203      1.00000
      4       3.6129      1.00000
      5       3.7139      1.00000
      6       4.3225      1.00000
      7       4.4246      1.00000
      8       4.4975      1.00000
      9       5.1228      1.00000
     10       5.1431      1.00000
     11       5.6307      1.00000
     12       5.6775      1.00000
     13       5.8646      1.00000
     14       6.0066      1.00000
     15       6.1214      1.00000
     16       6.4669      1.00056
     17       6.5612      1.00419
     18       8.5060     -0.00000
     19       8.5110     -0.00000
     20      14.6171      0.00000
     21      15.1190      0.00000
     22      15.7942      0.00000
     23      16.9781      0.00000
     24      18.3003      0.00000

 k-point    53 :       0.4444    0.4444    0.0000
  band No.  band energies     occupation 
      1       0.7140      1.00000
      2       1.8229      1.00000
      3       1.9221      1.00000
      4       3.5646      1.00000
      5       3.7038      1.00000
      6       4.3443      1.00000
      7       4.4292      1.00000
      8       4.5041      1.00000
      9       5.0596      1.00000
     10       5.2161      1.00000
     11       5.6862      1.00000
     12       5.7139      1.00000
     13       5.8002      1.00000
     14       5.8998      1.00000
     15       6.1253      1.00000
     16       6.4068      1.00012
     17       6.5483      1.00329
     18       8.2495     -0.00000
     19       8.4897     -0.00000
     20      14.7182      0.00000
     21      15.6929      0.00000
     22      15.9042      0.00000
     23      16.3870      0.00000
     24      18.5734      0.00000

 k-point    54 :       0.5000    0.4444    0.0000
  band No.  band energies     occupation 
      1       0.9152      1.00000
      2       1.6639      1.00000
      3       1.9689      1.00000
      4       3.5268      1.00000
      5       3.7000      1.00000
      6       4.3492      1.00000
      7       4.4635      1.00000
      8       4.4901      1.00000
      9       5.1374      1.00000
     10       5.1430      1.00000
     11       5.6959      1.00000
     12       5.7082      1.00000
     13       5.7798      1.00000
     14       5.8682      1.00000
     15       6.1312      1.00000
     16       6.3766      1.00005
     17       6.5246      1.00204
     18       8.3056     -0.00000
     19       8.3089     -0.00000
     20      15.1127      0.00000
     21      15.4619      0.00000
     22      15.9687      0.00000
     23      16.3020      0.00000
     24      18.6427      0.00000

 k-point    55 :       0.5000    0.5000    0.0000
  band No.  band energies     occupation 
      1       1.1107      1.00000
      2       1.7690      1.00000
      3       1.7690      1.00000
      4       3.4777      1.00000
      5       3.6951      1.00000
      6       4.3588      1.00000
      7       4.4868      1.00000
      8       4.4868      1.00000
      9       5.1430      1.00000
     10       5.1430      1.00000
     11       5.7014      1.00000
     12       5.7428      1.00000
     13       5.7428      1.00000
     14       5.8176      1.00000
     15       6.1345      1.00000
     16       6.3446      1.00002
     17       6.5029      1.00128
     18       8.2436     -0.00000
     19       8.2436     -0.00000
     20      15.5989      0.00000
     21      15.5989      0.00000
     22      15.7556      0.00000
     23      16.0359      0.00000
     24      18.8817      0.00000

 k-point    56 :       0.0556    0.0556    0.0556
  band No.  band energies     occupation 
      1      -3.3786      1.00000
      2       2.3627      1.00000
      3       3.1144      1.00000
      4       3.1144      1.00000
      5       3.6194      1.00000
      6       3.6668      1.00000
      7       3.6668      1.00000
      8       5.5545      1.00000
      9       5.6901      1.00000
     10       5.6901      1.00000
     11       6.5305      1.00231
     12       6.5305      1.00231
     13       6.9572      0.66999
     14       6.9572      0.66998
     15       6.9609      0.65549
     16       7.3440     -0.01734
     17       7.8818     -0.00000
     18       8.2155     -0.00000
     19       8.2155     -0.00000
     20      14.3283      0.00000
     21      14.3283      0.00000
     22      15.3687      0.00000
     23      19.1217      0.00000
     24      19.5953      0.00000

 k-point    57 :       0.1111    0.0556    0.0556
  band No.  band energies     occupation 
      1      -3.2597      1.00000
      2       2.4008      1.00000
      3       3.0387      1.00000
      4       3.1925      1.00000
      5       3.6193      1.00000
      6       3.6839      1.00000
      7       3.7135      1.00000
      8       5.4500      1.00000
      9       5.6195      1.00000
     10       5.7059      1.00000
     11       6.4447      1.00032
     12       6.5314      1.00235
     13       6.6916      1.02614
     14       6.7830      1.03137
     15       6.9189      0.80858
     16       7.3290     -0.02062
     17       7.6328     -0.00003
     18       8.4693     -0.00000
     19       8.5491     -0.00000
     20      14.3122      0.00000
     21      14.6823      0.00000
     22      15.7270      0.00000
     23      18.4577      0.00000
     24      18.7526      0.00000

 k-point    58 :       0.1667    0.0556    0.0556
  band No.  band energies     occupation 
      1      -3.0629      1.00000
      2       2.4275      1.00000
      3       2.9225      1.00000
      4       3.3176      1.00000
      5       3.6323      1.00000
      6       3.7119      1.00000
      7       3.7749      1.00000
      8       5.3322      1.00000
      9       5.5157      1.00000
     10       5.6914      1.00000
     11       6.2382      1.00000
     12       6.4717      1.00063
     13       6.5216      1.00192
     14       6.6030      1.00862
     15       6.8499      0.97369
     16       7.2233     -0.03370
     17       7.3217     -0.02229
     18       8.9129     -0.00000
     19       8.9780     -0.00000
     20      14.2827      0.00000
     21      14.9233      0.00000
     22      16.4761      0.00000
     23      17.6180      0.00000
     24      17.8280      0.00000

 k-point    59 :       0.2222    0.0556    0.0556
  band No.  band energies     occupation 
      1      -2.7906      1.00000
      2       2.3183      1.00000
      3       2.8585      1.00000
      4       3.4804      1.00000
      5       3.6559      1.00000
      6       3.7509      1.00000
      7       3.8477      1.00000
      8       5.2159      1.00000
      9       5.3952      1.00000
     10       5.6497      1.00000
     11       5.9348      1.00000
     12       6.3137      1.00001
     13       6.4018      1.00010
     14       6.5412      1.00286
     15       6.7594      1.03531
     16       6.8665      0.94471
     17       7.3181     -0.02313
     18       9.4227     -0.00000
     19       9.4664     -0.00000
     20      14.2339      0.00000
     21      15.0827      0.00000
     22      16.6720      0.00000
     23      16.9284      0.00000
     24      17.4764      0.00000

 k-point    60 :       0.2778    0.0556    0.0556
  band No.  band energies     occupation 
      1      -2.4463      1.00000
      2       1.9754      1.00000
      3       2.9238      1.00000
      4       3.6560      1.00000
      5       3.6863      1.00000
      6       3.8120      1.00000
      7       3.9258      1.00000
      8       5.1141      1.00000
      9       5.2739      1.00000
     10       5.5788      1.00000
     11       5.6643      1.00000
     12       6.1583      1.00000
     13       6.2517      1.00000
     14       6.5040      1.00131
     15       6.5964      1.00775
     16       6.6715      1.02148
     17       7.3162     -0.02355
     18       9.9808     -0.00000
     19       9.9994     -0.00000
     20      14.1507      0.00000
     21      15.2340      0.00000
     22      15.8181      0.00000
     23      16.0992      0.00000
     24      17.9806      0.00000

 k-point    61 :       0.3333    0.0556    0.0556
  band No.  band energies     occupation 
      1      -2.0362      1.00000
      2       1.4800      1.00000
      3       3.0422      1.00000
      4       3.7183      1.00000
      5       3.7689      1.00000
      6       3.9508      1.00000
      7       4.0007      1.00000
      8       5.0372      1.00000
      9       5.1635      1.00000
     10       5.4320      1.00000
     11       5.5368      1.00000
     12       6.0050      1.00000
     13       6.1271      1.00000
     14       6.3952      1.00009
     15       6.4048      1.00011
     16       6.6299      1.01286
     17       7.3154     -0.02375
     18      10.5678     -0.00000
     19      10.5807     -0.00000
     20      13.9909      0.00000
     21      14.9637      0.00000
     22      15.3956      0.00000
     23      15.4133      0.00000
     24      17.7205      0.00000

 k-point    62 :       0.3889    0.0556    0.0556
  band No.  band energies     occupation 
      1      -1.5713      1.00000
      2       0.9114      1.00000
      3       3.1614      1.00000
      4       3.7450      1.00000
      5       3.8168      1.00000
      6       4.0616      1.00000
      7       4.1413      1.00000
      8       4.9952      1.00000
      9       5.0704      1.00000
     10       5.3036      1.00000
     11       5.4699      1.00000
     12       5.8686      1.00000
     13       6.0378      1.00000
     14       6.2495      1.00000
     15       6.2702      1.00000
     16       6.6206      1.01127
     17       7.3150     -0.02383
     18      11.1616     -0.00000
     19      11.2190     -0.00000
     20      13.6666      0.00000
     21      14.1498      0.00000
     22      14.9155      0.00000
     23      15.6077      0.00000
     24      17.3000      0.00000

 k-point    63 :       0.4444    0.0556    0.0556
  band No.  band energies     occupation 
      1      -1.0832      1.00000
      2       0.3445      1.00000
      3       3.2499      1.00000
      4       3.7611      1.00000
      5       3.8422      1.00000
      6       4.1000      1.00000
      7       4.2995      1.00000
      8       4.9917      1.00000
      9       5.0009      1.00000
     10       5.2172      1.00000
     11       5.4318      1.00000
     12       5.7689      1.00000
     13       5.9924      1.00000
     14       6.1506      1.00000
     15       6.1593      1.00000
     16       6.6195      1.01108
     17       7.3149     -0.02386
     18      11.7585     -0.00000
     19      11.8915     -0.00000
     20      13.1658      0.00000
     21      13.3711      0.00000
     22      14.6931      0.00000
     23      15.8082      0.00000
     24      16.9381      0.00000

 k-point    64 :       0.5000    0.0556    0.0556
  band No.  band energies     occupation 
      1      -0.7705      1.00000
      2       0.0028      1.00000
      3       3.2831      1.00000
      4       3.7660      1.00000
      5       3.8506      1.00000
      6       4.1129      1.00000
      7       4.3638      1.00000
      8       4.9723      1.00000
      9       5.0013      1.00000
     10       5.1796      1.00000
     11       5.4216      1.00000
     12       5.7308      1.00000
     13       5.9845      1.00000
     14       6.0970      1.00000
     15       6.1285      1.00000
     16       6.6196      1.01109
     17       7.3149     -0.02387
     18      12.1643     -0.00000
     19      12.4983      0.00000
     20      12.7289      0.00000
     21      12.7761      0.00000
     22      14.6348      0.00000
     23      15.9145      0.00000
     24      16.7749      0.00000

 k-point    65 :       0.1111    0.1111    0.0556
  band No.  band energies     occupation 
      1      -3.1415      1.00000
      2       2.4424      1.00000
      3       3.0409      1.00000
      4       3.1915      1.00000
      5       3.6069      1.00000
      6       3.7100      1.00000
      7       3.7609      1.00000
      8       5.3294      1.00000
      9       5.5818      1.00000
     10       5.7199      1.00000
     11       6.3484      1.00002
     12       6.4924      1.00101
     13       6.5227      1.00196
     14       6.6586      1.01861
     15       6.8609      0.95527
     16       7.2968     -0.02800
     17       7.7393     -0.00000
     18       8.3439     -0.00000
     19       8.8009     -0.00000
     20      14.4607      0.00000
     21      15.0207      0.00000
     22      15.9582      0.00000
     23      17.6905      0.00000
     24      18.6629      0.00000

 k-point    66 :       0.1667    0.1111    0.0556
  band No.  band energies     occupation 
      1      -2.9458      1.00000
      2       2.4788      1.00000
      3       2.9461      1.00000
      4       3.2876      1.00000
      5       3.6083      1.00000
      6       3.7381      1.00000
      7       3.8308      1.00000
      8       5.2017      1.00000
      9       5.4908      1.00000
     10       5.7254      1.00000
     11       6.0859      1.00000
     12       6.4006      1.00010
     13       6.4591      1.00046
     14       6.5378      1.00267
     15       6.7902      1.02885
     16       7.2712     -0.03299
     17       7.4496     -0.00321
     18       8.5902     -0.00000
     19       9.1910     -0.00000
     20      14.4618      0.00000
     21      15.3749      0.00000
     22      16.5647      0.00000
     23      16.8209      0.00000
     24      17.8785      0.00000

 k-point    67 :       0.2222    0.1111    0.0556
  band No.  band energies     occupation 
      1      -2.6752      1.00000
      2       2.3856      1.00000
      3       2.8791      1.00000
      4       3.4366      1.00000
      5       3.6232      1.00000
      6       3.7781      1.00000
      7       3.9110      1.00000
      8       5.0829      1.00000
      9       5.3803      1.00000
     10       5.6922      1.00000
     11       5.8094      1.00000
     12       6.2696      1.00000
     13       6.3363      1.00001
     14       6.5040      1.00131
     15       6.7036      1.02882
     16       7.0827      0.17575
     17       7.2546     -0.03500
     18       9.0067     -0.00000
     19       9.6540     -0.00000
     20      14.3859      0.00000
     21      15.5738      0.00000
     22      15.9666      0.00000
     23      16.9589      0.00000
     24      17.5486      0.00000

 k-point    68 :       0.2778    0.1111    0.0556
  band No.  band energies     occupation 
      1      -2.3332      1.00000
      2       2.0509      1.00000
      3       2.9469      1.00000
      4       3.5841      1.00000
      5       3.6605      1.00000
      6       3.8446      1.00000
      7       3.9924      1.00000
      8       4.9867      1.00000
      9       5.2590      1.00000
     10       5.5362      1.00000
     11       5.6787      1.00000
     12       6.1198      1.00000
     13       6.2026      1.00000
     14       6.4716      1.00062
     15       6.6146      1.01031
     16       6.7875      1.02988
     17       7.2430     -0.03546
     18       9.4787     -0.00000
     19      10.1711     -0.00000
     20      14.1592      0.00000
     21      15.2981      0.00000
     22      15.7067      0.00000
     23      16.1979      0.00000
     24      18.2171      0.00000

 k-point    69 :       0.3333    0.1111    0.0556
  band No.  band energies     occupation 
      1      -1.9261      1.00000
      2       1.5626      1.00000
      3       3.0703      1.00000
      4       3.6412      1.00000
      5       3.7435      1.00000
      6       3.9756      1.00000
      7       4.0629      1.00000
      8       4.9269      1.00000
      9       5.1270      1.00000
     10       5.3898      1.00000
     11       5.6062      1.00000
     12       5.9622      1.00000
     13       6.0962      1.00000
     14       6.3727      1.00004
     15       6.5394      1.00276
     16       6.6026      1.00857
     17       7.2359     -0.03524
     18       9.9847     -0.00000
     19      10.7308     -0.00000
     20      13.6888      0.00000
     21      14.7791      0.00000
     22      15.4493      0.00000
     23      16.0215      0.00000
     24      18.1256      0.00000

 k-point    70 :       0.3889    0.1111    0.0556
  band No.  band energies     occupation 
      1      -1.4652      1.00000
      2       1.0017      1.00000
      3       3.1970      1.00000
      4       3.6569      1.00000
      5       3.8007      1.00000
      6       4.1061      1.00000
      7       4.1634      1.00000
      8       4.9172      1.00000
      9       5.0042      1.00000
     10       5.2945      1.00000
     11       5.5417      1.00000
     12       5.8153      1.00000
     13       6.0276      1.00000
     14       6.2453      1.00000
     15       6.3903      1.00007
     16       6.5808      1.00596
     17       7.2318     -0.03491
     18      10.5157     -0.00000
     19      11.3182     -0.00000
     20      13.0874      0.00000
     21      14.1534      0.00000
     22      15.2029      0.00000
     23      16.2123      0.00000
     24      17.7495      0.00000

 k-point    71 :       0.4444    0.1111    0.0556
  band No.  band energies     occupation 
      1      -0.9827      1.00000
      2       0.4429      1.00000
      3       3.2960      1.00000
      4       3.6558      1.00000
      5       3.8330      1.00000
      6       4.1278      1.00000
      7       4.3306      1.00000
      8       4.9025      1.00000
      9       4.9618      1.00000
     10       5.2078      1.00000
     11       5.5092      1.00000
     12       5.7025      1.00000
     13       6.0007      1.00000
     14       6.1418      1.00000
     15       6.2787      1.00000
     16       6.5798      1.00586
     17       7.2297     -0.03468
     18      11.0578     -0.00000
     19      11.8524     -0.00000
     20      12.5630      0.00000
     21      13.4584      0.00000
     22      15.1290      0.00000
     23      16.4326      0.00000
     24      17.3943      0.00000

 k-point    72 :       0.5000    0.1111    0.0556
  band No.  band energies     occupation 
      1      -0.6768      1.00000
      2       0.1089      1.00000
      3       3.3355      1.00000
      4       3.6511      1.00000
      5       3.8442      1.00000
      6       4.1327      1.00000
      7       4.4057      1.00000
      8       4.8597      1.00000
      9       5.0005      1.00000
     10       5.1537      1.00000
     11       5.5048      1.00000
     12       5.6563      1.00000
     13       6.0025      1.00000
     14       6.0947      1.00000
     15       6.2374      1.00000
     16       6.5802      1.00590
     17       7.2291     -0.03460
     18      11.4562     -0.00000
     19      11.8290     -0.00000
     20      12.7140      0.00000
     21      12.8768      0.00000
     22      15.1131      0.00000
     23      16.5604      0.00000
     24      17.2191      0.00000

 k-point    73 :       0.1667    0.1667    0.0556
  band No.  band energies     occupation 
      1      -2.7522      1.00000
      2       2.5406      1.00000
      3       2.9127      1.00000
      4       3.2972      1.00000
      5       3.6005      1.00000
      6       3.7639      1.00000
      7       3.9115      1.00000
      8       5.0658      1.00000
      9       5.4298      1.00000
     10       5.7015      1.00000
     11       5.8973      1.00000
     12       6.3462      1.00002
     13       6.3683      1.00004
     14       6.4773      1.00071
     15       6.7064      1.02941
     16       7.2204     -0.03312
     17       7.5129     -0.00083
     18       8.3863     -0.00000
     19       9.5385     -0.00000
     20      14.4432      0.00000
     21      15.9613      0.00000
     22      16.0431      0.00000
     23      16.8660      0.00000
     24      18.0915      0.00000

 k-point    74 :       0.2222    0.1667    0.0556
  band No.  band energies     occupation 
      1      -2.4844      1.00000
      2       2.4899      1.00000
      3       2.8569      1.00000
      4       3.3870      1.00000
      5       3.6123      1.00000
      6       3.8023      1.00000
      7       4.0032      1.00000
      8       4.9418      1.00000
      9       5.3518      1.00000
     10       5.5256      1.00000
     11       5.8317      1.00000
     12       6.2353      1.00000
     13       6.2603      1.00000
     14       6.4478      1.00035
     15       6.6146      1.01031
     16       7.1762     -0.00954
     17       7.2713     -0.03298
     18       8.5680     -0.00000
     19       9.9635     -0.00000
     20      14.1737      0.00000
     21      15.3726      0.00000
     22      16.3985      0.00000
     23      17.1615      0.00000
     24      17.6362      0.00000

 k-point    75 :       0.2778    0.1667    0.0556
  band No.  band energies     occupation 
      1      -2.1464      1.00000
      2       2.1708      1.00000
      3       2.9397      1.00000
      4       3.4932      1.00000
      5       3.6530      1.00000
      6       3.8704      1.00000
      7       4.0924      1.00000
      8       4.8463      1.00000
      9       5.2151      1.00000
     10       5.3907      1.00000
     11       5.7795      1.00000
     12       6.0991      1.00000
     13       6.1441      1.00000
     14       6.4162      1.00015
     15       6.5308      1.00232
     16       6.9661      0.63425
     17       7.1507      0.02043
     18       8.9240     -0.00000
     19      10.4447     -0.00000
     20      13.5927      0.00000
     21      15.1291      0.00000
     22      16.1689      0.00000
     23      16.8215      0.00000
     24      18.2160      0.00000

 k-point    76 :       0.3333    0.1667    0.0556
  band No.  band energies     occupation 
      1      -1.7444      1.00000
      2       1.6951      1.00000
      3       3.0758      1.00000
      4       3.5471      1.00000
      5       3.7205      1.00000
      6       3.9959      1.00000
      7       4.1585      1.00000
      8       4.8032      1.00000
      9       5.0428      1.00000
     10       5.3438      1.00000
     11       5.6904      1.00000
     12       5.9467      1.00000
     13       6.0657      1.00000
     14       6.3214      1.00001
     15       6.5011      1.00123
     16       6.7237      1.03270
     17       7.1277      0.06009
     18       9.3416     -0.00000
     19      10.9609     -0.00000
     20      12.9139      0.00000
     21      14.9274      0.00000
     22      15.5813      0.00000
     23      16.9623      0.00000
     24      18.3621      0.00000

 k-point    77 :       0.3889    0.1667    0.0556
  band No.  band energies     occupation 
      1      -1.2903      1.00000
      2       1.1478      1.00000
      3       3.2162      1.00000
      4       3.5530      1.00000
      5       3.7773      1.00000
      6       4.1561      1.00000
      7       4.2003      1.00000
      8       4.8338      1.00000
      9       4.9003      1.00000
     10       5.2983      1.00000
     11       5.6001      1.00000
     12       5.7947      1.00000
     13       6.0283      1.00000
     14       6.2071      1.00000
     15       6.4886      1.00093
     16       6.5506      1.00343
     17       7.1135      0.09109
     18       9.7964     -0.00000
     19      11.4329     -0.00000
     20      12.3381     -0.00000
     21      14.3790      0.00000
     22      15.3879      0.00000
     23      17.1577      0.00000
     24      18.1140      0.00000

 k-point    78 :       0.4444    0.1667    0.0556
  band No.  band energies     occupation 
      1      -0.8176      1.00000
      2       0.6034      1.00000
      3       3.3407      1.00000
      4       3.5230      1.00000
      5       3.8149      1.00000
      6       4.1700      1.00000
      7       4.3593      1.00000
      8       4.7855      1.00000
      9       4.9266      1.00000
     10       5.2087      1.00000
     11       5.5632      1.00000
     12       5.6681      1.00000
     13       6.0206      1.00000
     14       6.1216      1.00000
     15       6.3997      1.00010
     16       6.5152      1.00167
     17       7.1059      0.10995
     18      10.2788     -0.00000
     19      11.3580     -0.00000
     20      12.3992     -0.00000
     21      13.6924      0.00000
     22      15.3823      0.00000
     23      17.3627      0.00000
     24      17.8227      0.00000

 k-point    79 :       0.5000    0.1667    0.0556
  band No.  band energies     occupation 
      1      -0.5226      1.00000
      2       0.2820      1.00000
      3       3.4168      1.00000
      4       3.4795      1.00000
      5       3.8290      1.00000
      6       4.1642      1.00000
      7       4.4530      1.00000
      8       4.7220      1.00000
      9       5.0121      1.00000
     10       5.1232      1.00000
     11       5.5829      1.00000
     12       5.5925      1.00000
     13       6.0293      1.00000
     14       6.0844      1.00000
     15       6.3531      1.00002
     16       6.5147      1.00166
     17       7.1034      0.11617
     18      10.6700     -0.00000
     19      10.9785     -0.00000
     20      12.8558      0.00000
     21      13.1443      0.00000
     22      15.3904      0.00000
     23      17.5613      0.00000
     24      17.5922      0.00000

 k-point    80 :       0.2222    0.2222    0.0556
  band No.  band energies     occupation 
      1      -2.2209      1.00000
      2       2.5900      1.00000
      3       2.7253      1.00000
      4       3.3968      1.00000
      5       3.6237      1.00000
      6       3.8389      1.00000
      7       4.1097      1.00000
      8       4.8104      1.00000
      9       5.2979      1.00000
     10       5.3332      1.00000
     11       5.8790      1.00000
     12       6.1444      1.00000
     13       6.1888      1.00000
     14       6.3976      1.00009
     15       6.5116      1.00155
     16       7.1079      0.10476
     17       7.2832     -0.03085
     18       8.3697     -0.00000
     19      10.3481     -0.00000
     20      13.5508      0.00000
     21      15.1885      0.00000
     22      17.0932      0.00000
     23      17.2810      0.00000
     24      17.5549      0.00000

 k-point    81 :       0.2778    0.2222    0.0556
  band No.  band energies     occupation 
      1      -1.8885      1.00000
      2       2.3259      1.00000
      3       2.8063      1.00000
      4       3.4589      1.00000
      5       3.6583      1.00000
      6       3.9040      1.00000
      7       4.2129      1.00000
      8       4.7093      1.00000
      9       5.0930      1.00000
     10       5.3274      1.00000
     11       5.8685      1.00000
     12       6.0467      1.00000
     13       6.0865      1.00000
     14       6.3542      1.00003
     15       6.4218      1.00018
     16       7.0387      0.33308
     17       7.0976      0.13205
     18       8.4971     -0.00000
     19      10.7793     -0.00000
     20      12.8107      0.00000
     21      15.1831      0.00000
     22      16.4554      0.00000
     23      17.6070      0.00000
     24      17.8250      0.00000

 k-point    82 :       0.3333    0.2222    0.0556
  band No.  band energies     occupation 
      1      -1.4941      1.00000
      2       1.8688      1.00000
      3       2.9608      1.00000
      4       3.5111      1.00000
      5       3.7094      1.00000
      6       4.0173      1.00000
      7       4.2748      1.00000
      8       4.6805      1.00000
      9       4.9260      1.00000
     10       5.3304      1.00000
     11       5.7569      1.00000
     12       5.9505      1.00000
     13       6.0263      1.00000
     14       6.2529      1.00000
     15       6.4036      1.00011
     16       6.8417      0.98561
     17       7.0133      0.43698
     18       8.7886     -0.00000
     19      11.1756     -0.00000
     20      12.1792     -0.00000
     21      15.1347      0.00000
     22      15.7737      0.00000
     23      17.8640      0.00000
     24      18.1126      0.00000

 k-point    83 :       0.3889    0.2222    0.0556
  band No.  band energies     occupation 
      1      -1.0500      1.00000
      2       1.3425      1.00000
      3       3.1037      1.00000
      4       3.5309      1.00000
      5       3.7581      1.00000
      6       4.1717      1.00000
      7       4.2732      1.00000
      8       4.7451      1.00000
      9       4.8088      1.00000
     10       5.3059      1.00000
     11       5.6350      1.00000
     12       5.8094      1.00000
     13       6.0306      1.00000
     14       6.1508      1.00000
     15       6.4087      1.00012
     16       6.6480      1.01635
     17       6.9805      0.57530
     18       9.1535     -0.00000
     19      11.0893     -0.00000
     20      12.1382     -0.00000
     21      14.6655      0.00000
     22      15.5647      0.00000
     23      17.9317      0.00000
     24      18.4497      0.00000

 k-point    84 :       0.4444    0.2222    0.0556
  band No.  band energies     occupation 
      1      -0.5914      1.00000
      2       0.8198      1.00000
      3       3.2121      1.00000
      4       3.5245      1.00000
      5       3.7937      1.00000
      6       4.2179      1.00000
      7       4.3697      1.00000
      8       4.6762      1.00000
      9       4.9047      1.00000
     10       5.2138      1.00000
     11       5.5704      1.00000
     12       5.6923      1.00000
     13       6.0387      1.00000
     14       6.0891      1.00000
     15       6.4160      1.00015
     16       6.5111      1.00153
     17       6.9622      0.65018
     18       9.5685     -0.00000
     19      10.5809     -0.00000
     20      12.6284      0.00000
     21      13.9951      0.00000
     22      15.5965      0.00000
     23      17.8651      0.00000
     24      18.7041      0.00000

 k-point    85 :       0.5000    0.2222    0.0556
  band No.  band energies     occupation 
      1      -0.3116      1.00000
      2       0.5161      1.00000
      3       3.2560      1.00000
      4       3.5152      1.00000
      5       3.8076      1.00000
      6       4.2050      1.00000
      7       4.4901      1.00000
      8       4.5862      1.00000
      9       5.0290      1.00000
     10       5.1015      1.00000
     11       5.5562      1.00000
     12       5.6421      1.00000
     13       6.0576      1.00000
     14       6.0580      1.00000
     15       6.4226      1.00018
     16       6.4552      1.00042
     17       6.9563      0.67348
     18       9.9490     -0.00000
     19      10.1522     -0.00000
     20      13.0757      0.00000
     21      13.4970      0.00000
     22      15.6202      0.00000
     23      17.8182      0.00000
     24      18.7684      0.00000

 k-point    86 :       0.2778    0.2778    0.0556
  band No.  band energies     occupation 
      1      -1.5640      1.00000
      2       2.4872      1.00000
      3       2.5150      1.00000
      4       3.5005      1.00000
      5       3.6785      1.00000
      6       3.9588      1.00000
      7       4.3411      1.00000
      8       4.5917      1.00000
      9       4.9393      1.00000
     10       5.3300      1.00000
     11       5.9180      1.00000
     12       5.9443      1.00000
     13       6.0374      1.00000
     14       6.2952      1.00000
     15       6.3138      1.00001
     16       6.9605      0.65712
     17       7.0582      0.25865
     18       8.3290     -0.00000
     19      11.0885     -0.00000
     20      12.1229     -0.00000
     21      15.2878      0.00000
     22      16.5979      0.00000
     23      16.9810      0.00000
     24      18.7866      0.00000

 k-point    87 :       0.3333    0.2778    0.0556
  band No.  band energies     occupation 
      1      -1.1799      1.00000
      2       2.0693      1.00000
      3       2.6807      1.00000
      4       3.5569      1.00000
      5       3.7113      1.00000
      6       4.0499      1.00000
      7       4.4000      1.00000
      8       4.5727      1.00000
      9       4.8116      1.00000
     10       5.3427      1.00000
     11       5.7781      1.00000
     12       5.9361      1.00000
     13       6.0067      1.00000
     14       6.1737      1.00000
     15       6.2957      1.00000
     16       6.8684      0.94099
     17       6.9193      0.80721
     18       8.4192     -0.00000
     19      10.9471     -0.00000
     20      12.0048     -0.00000
     21      15.3527      0.00000
     22      16.0015      0.00000
     23      17.2057      0.00000
     24      18.7104      0.00000

 k-point    88 :       0.3889    0.2778    0.0556
  band No.  band energies     occupation 
      1      -0.7495      1.00000
      2       1.5737      1.00000
      3       2.8361      1.00000
      4       3.5923      1.00000
      5       3.7461      1.00000
      6       4.1770      1.00000
      7       4.3453      1.00000
      8       4.6568      1.00000
      9       4.7648      1.00000
     10       5.3191      1.00000
     11       5.6533      1.00000
     12       5.8274      1.00000
     13       6.0314      1.00000
     14       6.0826      1.00000
     15       6.2962      1.00000
     16       6.7101      1.03017
     17       6.8478      0.97691
     18       8.6568     -0.00000
     19      10.3985     -0.00000
     20      12.4247     -0.00000
     21      14.9990      0.00000
     22      15.7488      0.00000
     23      17.5617      0.00000
     24      18.4769      0.00000

 k-point    89 :       0.4444    0.2778    0.0556
  band No.  band energies     occupation 
      1      -0.3100      1.00000
      2       1.0815      1.00000
      3       2.9443      1.00000
      4       3.6055      1.00000
      5       3.7725      1.00000
      6       4.2582      1.00000
      7       4.3620      1.00000
      8       4.5953      1.00000
      9       4.9058      1.00000
     10       5.2232      1.00000
     11       5.5795      1.00000
     12       5.7244      1.00000
     13       6.0118      1.00000
     14       6.0786      1.00000
     15       6.3006      1.00000
     16       6.5802      1.00590
     17       6.8133      1.01554
     18       8.9804     -0.00000
     19       9.8573     -0.00000
     20      12.9582      0.00000
     21      14.3561      0.00000
     22      15.8114      0.00000
     23      17.8771      0.00000
     24      18.2469      0.00000

 k-point    90 :       0.5000    0.2778    0.0556
  band No.  band energies     occupation 
      1      -0.0490      1.00000
      2       0.8007      1.00000
      3       2.9835      1.00000
      4       3.6075      1.00000
      5       3.7827      1.00000
      6       4.2500      1.00000
      7       4.4717      1.00000
      8       4.5076      1.00000
      9       5.0507      1.00000
     10       5.0971      1.00000
     11       5.5556      1.00000
     12       5.6798      1.00000
     13       6.0076      1.00000
     14       6.0842      1.00000
     15       6.3031      1.00001
     16       6.5294      1.00225
     17       6.8020      1.02309
     18       9.3319     -0.00000
     19       9.4312     -0.00000
     20      13.3627      0.00000
     21      13.9083      0.00000
     22      15.8489      0.00000
     23      18.0393      0.00000
     24      18.1279      0.00000

 k-point    91 :       0.3333    0.3333    0.0556
  band No.  band energies     occupation 
      1      -0.8095      1.00000
      2       2.2312      1.00000
      3       2.3347      1.00000
      4       3.6150      1.00000
      5       3.7248      1.00000
      6       4.1085      1.00000
      7       4.4422      1.00000
      8       4.5649      1.00000
      9       4.7334      1.00000
     10       5.3551      1.00000
     11       5.7349      1.00000
     12       5.8848      1.00000
     13       6.0300      1.00000
     14       6.0818      1.00000
     15       6.2127      1.00000
     16       6.7864      1.03025
     17       6.8421      0.98505
     18       8.2862     -0.00000
     19      10.3358     -0.00000
     20      12.3550     -0.00000
     21      15.5429      0.00000
     22      16.0490      0.00000
     23      16.7319      0.00000
     24      18.8404      0.00000

 k-point    92 :       0.3889    0.3333    0.0556
  band No.  band energies     occupation 
      1      -0.3974      1.00000
      2       1.8212      1.00000
      3       2.4807      1.00000
      4       3.6456      1.00000
      5       3.7420      1.00000
      6       4.1984      1.00000
      7       4.3855      1.00000
      8       4.5905      1.00000
      9       4.7838      1.00000
     10       5.3253      1.00000
     11       5.6670      1.00000
     12       5.8172      1.00000
     13       5.9821      1.00000
     14       6.0647      1.00000
     15       6.1772      1.00000
     16       6.6957      1.02707
     17       6.7342      1.03421
     18       8.3543     -0.00000
     19       9.7481     -0.00000
     20      12.8307      0.00000
     21      15.3570      0.00000
     22      15.8813      0.00000
     23      16.9148      0.00000
     24      18.6443      0.00000

 k-point    93 :       0.4444    0.3333    0.0556
  band No.  band energies     occupation 
      1       0.0178      1.00000
      2       1.3707      1.00000
      3       2.6172      1.00000
      4       3.6519      1.00000
      5       3.7537      1.00000
      6       4.2796      1.00000
      7       4.3712      1.00000
      8       4.5449      1.00000
      9       4.9337      1.00000
     10       5.2303      1.00000
     11       5.6144      1.00000
     12       5.7375      1.00000
     13       5.9378      1.00000
     14       6.0929      1.00000
     15       6.1643      1.00000
     16       6.6042      1.00878
     17       6.6692      1.02097
     18       8.5546     -0.00000
     19       9.2519     -0.00000
     20      13.3494      0.00000
     21      14.7545      0.00000
     22      15.9962      0.00000
     23      17.2364      0.00000
     24      18.3533      0.00000

 k-point    94 :       0.5000    0.3333    0.0556
  band No.  band energies     occupation 
      1       0.2568      1.00000
      2       1.1177      1.00000
      3       2.6680      1.00000
      4       3.6509      1.00000
      5       3.7579      1.00000
      6       4.2916      1.00000
      7       4.4116      1.00000
      8       4.5057      1.00000
      9       5.0763      1.00000
     10       5.1069      1.00000
     11       5.5931      1.00000
     12       5.6966      1.00000
     13       5.9356      1.00000
     14       6.1052      1.00000
     15       6.1593      1.00000
     16       6.5640      1.00442
     17       6.6496      1.01670
     18       8.8412     -0.00000
     19       8.8689     -0.00000
     20      13.7130      0.00000
     21      14.3513      0.00000
     22      16.0511      0.00000
     23      17.4107      0.00000
     24      18.1963      0.00000

 k-point    95 :       0.3889    0.3889    0.0556
  band No.  band energies     occupation 
      1      -0.0089      1.00000
      2       2.0052      1.00000
      3       2.1274      1.00000
      4       3.6501      1.00000
      5       3.7411      1.00000
      6       4.2539      1.00000
      7       4.3926      1.00000
      8       4.5461      1.00000
      9       4.8673      1.00000
     10       5.2965      1.00000
     11       5.6813      1.00000
     12       5.7779      1.00000
     13       5.8995      1.00000
     14       6.0772      1.00000
     15       6.0886      1.00000
     16       6.6042      1.00878
     17       6.6612      1.01917
     18       8.2519     -0.00000
     19       9.2065     -0.00000
     20      13.2962      0.00000
     21      15.6367      0.00000
     22      15.7461      0.00000
     23      16.6639      0.00000
     24      18.5779      0.00000

 k-point    96 :       0.4444    0.3889    0.0556
  band No.  band energies     occupation 
      1       0.3763      1.00000
      2       1.6560      1.00000
      3       2.2549      1.00000
      4       3.6226      1.00000
      5       3.7383      1.00000
      6       4.3158      1.00000
      7       4.4009      1.00000
      8       4.5132      1.00000
      9       4.9864      1.00000
     10       5.2213      1.00000
     11       5.6733      1.00000
     12       5.7271      1.00000
     13       5.8536      1.00000
     14       6.0220      1.00000
     15       6.1110      1.00000
     16       6.5364      1.00260
     17       6.5887      1.00682
     18       8.3099     -0.00000
     19       8.7886     -0.00000
     20      13.7894      0.00000
     21      15.1493      0.00000
     22      15.9713      0.00000
     23      16.8119      0.00000
     24      18.3002      0.00000

 k-point    97 :       0.5000    0.3889    0.0556
  band No.  band energies     occupation 
      1       0.5918      1.00000
      2       1.4349      1.00000
      3       2.3237      1.00000
      4       3.6052      1.00000
      5       3.7370      1.00000
      6       4.3353      1.00000
      7       4.4206      1.00000
      8       4.4937      1.00000
      9       5.1032      1.00000
     10       5.1208      1.00000
     11       5.6605      1.00000
     12       5.6943      1.00000
     13       5.8542      1.00000
     14       6.0067      1.00000
     15       6.1200      1.00000
     16       6.5145      1.00165
     17       6.5549      1.00372
     18       8.4914     -0.00000
     19       8.4922     -0.00000
     20      14.1225      0.00000
     21      14.7877      0.00000
     22      16.0695      0.00000
     23      16.9305      0.00000
     24      18.1360      0.00000

 k-point    98 :       0.4444    0.4444    0.0556
  band No.  band energies     occupation 
      1       0.7282      1.00000
      2       1.8520      1.00000
      3       1.9307      1.00000
      4       3.5465      1.00000
      5       3.7271      1.00000
      6       4.3637      1.00000
      7       4.4345      1.00000
      8       4.4927      1.00000
      9       5.0560      1.00000
     10       5.1869      1.00000
     11       5.6971      1.00000
     12       5.7277      1.00000
     13       5.7907      1.00000
     14       5.9197      1.00000
     15       6.1231      1.00000
     16       6.4519      1.00039
     17       6.5425      1.00293
     18       8.2303     -0.00000
     19       8.4708     -0.00000
     20      14.2575      0.00000
     21      15.3815      0.00000
     22      15.6555      0.00000
     23      16.8097      0.00000
     24      18.0255      0.00000

 k-point    99 :       0.5000    0.4444    0.0556
  band No.  band energies     occupation 
      1       0.9222      1.00000
      2       1.6926      1.00000
      3       1.9860      1.00000
      4       3.5045      1.00000
      5       3.7231      1.00000
      6       4.3821      1.00000
      7       4.4568      1.00000
      8       4.4819      1.00000
      9       5.1255      1.00000
     10       5.1310      1.00000
     11       5.6750      1.00000
     12       5.7320      1.00000
     13       5.7877      1.00000
     14       5.8857      1.00000
     15       6.1283      1.00000
     16       6.4222      1.00018
     17       6.5182      1.00178
     18       8.2864     -0.00000
     19       8.2888     -0.00000
     20      14.5813      0.00000
     21      15.1456      0.00000
     22      15.6892      0.00000
     23      16.8668      0.00000
     24      17.8687      0.00000

 k-point   100 :       0.5000    0.5000    0.0556
  band No.  band energies     occupation 
      1       1.1074      1.00000
      2       1.7980      1.00000
      3       1.7980      1.00000
      4       3.4502      1.00000
      5       3.7182      1.00000
      6       4.4010      1.00000
      7       4.4772      1.00000
      8       4.4772      1.00000
      9       5.1346      1.00000
     10       5.1346      1.00000
     11       5.6582      1.00000
     12       5.7646      1.00000
     13       5.7646      1.00000
     14       5.8408      1.00000
     15       6.1308      1.00000
     16       6.3902      1.00007
     17       6.4965      1.00111
     18       8.2230     -0.00000
     19       8.2230     -0.00000
     20      14.9589      0.00000
     21      15.2951      0.00000
     22      15.2951      0.00000
     23      16.9003      0.00000
     24      17.7249      0.00000

 k-point   101 :       0.1111    0.1111    0.1111
  band No.  band energies     occupation 
      1      -3.0239      1.00000
      2       2.4850      1.00000
      3       3.1186      1.00000
      4       3.1186      1.00000
      5       3.5800      1.00000
      6       3.7769      1.00000
      7       3.7769      1.00000
      8       5.2064      1.00000
      9       5.6371      1.00000
     10       5.6371      1.00000
     11       6.3361      1.00001
     12       6.3361      1.00001
     13       6.5006      1.00122
     14       6.5006      1.00122
     15       6.7876      1.02983
     16       7.2822     -0.03104
     17       7.8806     -0.00000
     18       8.5652     -0.00000
     19       8.5652     -0.00000
     20      15.0091      0.00000
     21      15.0091      0.00000
     22      16.1508      0.00000
     23      17.6408      0.00000
     24      17.9938      0.00000

 k-point   102 :       0.1667    0.1111    0.1111
  band No.  band energies     occupation 
      1      -2.8296      1.00000
      2       2.5265      1.00000
      3       2.9969      1.00000
      4       3.2424      1.00000
      5       3.5668      1.00000
      6       3.8039      1.00000
      7       3.8557      1.00000
      8       5.0822      1.00000
      9       5.5195      1.00000
     10       5.6564      1.00000
     11       6.0637      1.00000
     12       6.2912      1.00000
     13       6.3932      1.00008
     14       6.4802      1.00077
     15       6.7081      1.02976
     16       7.2602     -0.03448
     17       7.6490     -0.00002
     18       8.7124     -0.00000
     19       8.8790     -0.00000
     20      14.9618      0.00000
     21      15.4954      0.00000
     22      16.5930      0.00000
     23      16.9326      0.00000
     24      17.1069      0.00000

 k-point   103 :       0.2222    0.1111    0.1111
  band No.  band energies     occupation 
      1      -2.5607      1.00000
      2       2.4475      1.00000
      3       2.9137      1.00000
      4       3.4024      1.00000
      5       3.5668      1.00000
      6       3.8436      1.00000
      7       3.9407      1.00000
      8       4.9752      1.00000
      9       5.3853      1.00000
     10       5.6016      1.00000
     11       5.8322      1.00000
     12       6.2110      1.00000
     13       6.2682      1.00000
     14       6.4713      1.00062
     15       6.6301      1.01290
     16       7.2350     -0.03518
     17       7.2603     -0.03446
     18       9.1102     -0.00000
     19       9.2523     -0.00000
     20      14.8043      0.00000
     21      15.6512      0.00000
     22      16.0465      0.00000
     23      16.3944      0.00000
     24      17.5497      0.00000

 k-point   104 :       0.2778    0.1111    0.1111
  band No.  band energies     occupation 
      1      -2.2211      1.00000
      2       2.1226      1.00000
      3       2.9745      1.00000
      4       3.5756      1.00000
      5       3.5774      1.00000
      6       3.9046      1.00000
      7       4.0227      1.00000
      8       4.8977      1.00000
      9       5.2473      1.00000
     10       5.4367      1.00000
     11       5.7348      1.00000
     12       6.1203      1.00000
     13       6.1220      1.00000
     14       6.4520      1.00039
     15       6.5590      1.00403
     16       6.9180      0.81141
     17       7.2114     -0.03063
     18       9.5871     -0.00000
     19       9.6647     -0.00000
     20      14.4191      0.00000
     21      14.9908      0.00000
     22      15.9898      0.00000
     23      16.0724      0.00000
     24      18.2243      0.00000

 k-point   105 :       0.3333    0.1111    0.1111
  band No.  band energies     occupation 
      1      -1.8171      1.00000
      2       1.6422      1.00000
      3       3.0960      1.00000
      4       3.5849      1.00000
      5       3.7238      1.00000
      6       4.0134      1.00000
      7       4.0887      1.00000
      8       4.8599      1.00000
      9       5.1121      1.00000
     10       5.2834      1.00000
     11       5.6835      1.00000
     12       5.9661      1.00000
     13       6.0427      1.00000
     14       6.3754      1.00005
     15       6.5304      1.00230
     16       6.6510      1.01699
     17       7.1925     -0.02180
     18      10.1017     -0.00000
     19      10.1105     -0.00000
     20      13.8457      0.00000
     21      14.1917      0.00000
     22      15.8605      0.00000
     23      16.2821      0.00000
     24      18.4999      0.00000

 k-point   106 :       0.3889    0.1111    0.1111
  band No.  band energies     occupation 
      1      -1.3604      1.00000
      2       1.0895      1.00000
      3       3.2250      1.00000
      4       3.5825      1.00000
      5       3.8061      1.00000
      6       4.1296      1.00000
      7       4.1829      1.00000
      8       4.8697      1.00000
      9       4.9805      1.00000
     10       5.1848      1.00000
     11       5.6384      1.00000
     12       5.8194      1.00000
     13       5.9958      1.00000
     14       6.2599      1.00000
     15       6.4586      1.00046
     16       6.5293      1.00225
     17       7.1794     -0.01233
     18      10.5456     -0.00000
     19      10.6684     -0.00000
     20      13.2429      0.00000
     21      13.4315      0.00000
     22      15.8524      0.00000
     23      16.5237      0.00000
     24      18.3066      0.00000

 k-point   107 :       0.4444    0.1111    0.1111
  band No.  band energies     occupation 
      1      -0.8840      1.00000
      2       0.5395      1.00000
      3       3.3357      1.00000
      4       3.5595      1.00000
      5       3.8439      1.00000
      6       4.1492      1.00000
      7       4.3609      1.00000
      8       4.8556      1.00000
      9       4.9158      1.00000
     10       5.1219      1.00000
     11       5.6092      1.00000
     12       5.7044      1.00000
     13       5.9915      1.00000
     14       6.1450      1.00000
     15       6.3408      1.00002
     16       6.5320      1.00238
     17       7.1720     -0.00553
     18      10.9503     -0.00000
     19      11.2412     -0.00000
     20      12.7280      0.00000
     21      12.7372      0.00000
     22      15.8752      0.00000
     23      16.7658      0.00000
     24      17.9790      0.00000

 k-point   108 :       0.5000    0.1111    0.1111
  band No.  band energies     occupation 
      1      -0.5849      1.00000
      2       0.2133      1.00000
      3       3.3893      1.00000
      4       3.5367      1.00000
      5       3.8552      1.00000
      6       4.1550      1.00000
      7       4.4543      1.00000
      8       4.7852      1.00000
      9       4.9493      1.00000
     10       5.0911      1.00000
     11       5.6069      1.00000
     12       5.6519      1.00000
     13       6.0165      1.00000
     14       6.0761      1.00000
     15       6.3010      1.00000
     16       6.5333      1.00244
     17       7.1696     -0.00310
     18      11.1510     -0.00000
     19      11.6355     -0.00000
     20      12.3024     -0.00000
     21      12.4889      0.00000
     22      15.8873      0.00000
     23      16.8929      0.00000
     24      17.8130      0.00000

 k-point   109 :       0.1667    0.1667    0.1111
  band No.  band energies     occupation 
      1      -2.6373      1.00000
      2       2.5834      1.00000
      3       2.9918      1.00000
      4       3.2390      1.00000
      5       3.5422      1.00000
      6       3.8482      1.00000
      7       3.9232      1.00000
      8       4.9617      1.00000
      9       5.4658      1.00000
     10       5.5779      1.00000
     11       5.9625      1.00000
     12       6.1818      1.00000
     13       6.3510      1.00002
     14       6.4332      1.00024
     15       6.6083      1.00937
     16       7.2368     -0.03529
     17       7.7118     -0.00000
     18       8.5223     -0.00000
     19       9.0989     -0.00000
     20      15.0426      0.00000
     21      15.9737      0.00000
     22      16.1389      0.00000
     23      16.8100      0.00000
     24      17.2825      0.00000

 k-point   110 :       0.2222    0.1667    0.1111
  band No.  band energies     occupation 
      1      -2.3714      1.00000
      2       2.5404      1.00000
      3       2.9163      1.00000
      4       3.3555      1.00000
      5       3.5386      1.00000
      6       3.8871      1.00000
      7       4.0131      1.00000
      8       4.8608      1.00000
      9       5.3511      1.00000
     10       5.4486      1.00000
     11       5.8642      1.00000
     12       6.1190      1.00000
     13       6.2517      1.00000
     14       6.4177      1.00016
     15       6.5164      1.00172
     16       7.2029     -0.02732
     17       7.4367     -0.00410
     18       8.6830     -0.00000
     19       9.4491     -0.00000
     20      14.5913      0.00000
     21      15.6402      0.00000
     22      16.1550      0.00000
     23      16.7407      0.00000
     24      17.2389      0.00000

 k-point   111 :       0.2778    0.1667    0.1111
  band No.  band energies     occupation 
      1      -2.0360      1.00000
      2       2.2353      1.00000
      3       2.9739      1.00000
      4       3.4895      1.00000
      5       3.5747      1.00000
      6       3.9421      1.00000
      7       4.0989      1.00000
      8       4.7931      1.00000
      9       5.1986      1.00000
     10       5.3128      1.00000
     11       5.8047      1.00000
     12       6.0585      1.00000
     13       6.1209      1.00000
     14       6.3972      1.00009
     15       6.4489      1.00036
     16       7.0805      0.18281
     17       7.1713     -0.00482
     18       9.0275     -0.00000
     19       9.8489     -0.00000
     20      13.8811      0.00000
     21      15.0314      0.00000
     22      16.0524      0.00000
     23      16.9051      0.00000
     24      17.5671      0.00000

 k-point   112 :       0.3333    0.1667    0.1111
  band No.  band energies     occupation 
      1      -1.6374      1.00000
      2       1.7691      1.00000
      3       3.0916      1.00000
      4       3.5275      1.00000
      5       3.6980      1.00000
      6       4.0349      1.00000
      7       4.1614      1.00000
      8       4.7745      1.00000
      9       5.0389      1.00000
     10       5.2143      1.00000
     11       5.7508      1.00000
     12       5.9733      1.00000
     13       6.0151      1.00000
     14       6.3148      1.00001
     15       6.4420      1.00030
     16       6.7887      1.02942
     17       7.1340      0.04792
     18       9.4290     -0.00000
     19      10.2780     -0.00000
     20      13.1692      0.00000
     21      14.3007      0.00000
     22      16.1077      0.00000
     23      17.1231      0.00000
     24      17.9366      0.00000

 k-point   113 :       0.3889    0.1667    0.1111
  band No.  band energies     occupation 
      1      -1.1879      1.00000
      2       1.2313      1.00000
      3       3.2134      1.00000
      4       3.5270      1.00000
      5       3.7946      1.00000
      6       4.1635      1.00000
      7       4.2134      1.00000
      8       4.8131      1.00000
      9       4.8959      1.00000
     10       5.1371      1.00000
     11       5.6990      1.00000
     12       5.8409      1.00000
     13       5.9894      1.00000
     14       6.2137      1.00000
     15       6.4480      1.00035
     16       6.5704      1.00496
     17       7.1071      0.10687
     18       9.8557     -0.00000
     19      10.6986     -0.00000
     20      12.5574      0.00000
     21      13.5923      0.00000
     22      16.2120      0.00000
     23      17.3593      0.00000
     24      18.2696      0.00000

 k-point   114 :       0.4444    0.1667    0.1111
  band No.  band energies     occupation 
      1      -0.7219      1.00000
      2       0.6968      1.00000
      3       3.3187      1.00000
      4       3.5014      1.00000
      5       3.8433      1.00000
      6       4.1885      1.00000
      7       4.3795      1.00000
      8       4.7540      1.00000
      9       4.8914      1.00000
     10       5.0702      1.00000
     11       5.6579      1.00000
     12       5.7425      1.00000
     13       5.9976      1.00000
     14       6.1183      1.00000
     15       6.4287      1.00021
     16       6.4566      1.00043
     17       7.0906      0.15172
     18      10.2786     -0.00000
     19      10.9748     -0.00000
     20      12.2009     -0.00000
     21      12.9581      0.00000
     22      16.3048      0.00000
     23      17.5946      0.00000
     24      18.3593      0.00000

 k-point   115 :       0.5000    0.1667    0.1111
  band No.  band energies     occupation 
      1      -0.4343      1.00000
      2       0.3839      1.00000
      3       3.3747      1.00000
      4       3.4726      1.00000
      5       3.8583      1.00000
      6       4.1911      1.00000
      7       4.5083      1.00000
      8       4.6459      1.00000
      9       4.9480      1.00000
     10       5.0240      1.00000
     11       5.6408      1.00000
     12       5.7057      1.00000
     13       6.0411      1.00000
     14       6.0447      1.00000
     15       6.3818      1.00006
     16       6.4570      1.00044
     17       7.0852      0.16809
     18      10.5409     -0.00000
     19      10.9541     -0.00000
     20      12.2572     -0.00000
     21      12.5623      0.00000
     22      16.3423      0.00000
     23      17.7281      0.00000
     24      18.2640      0.00000

 k-point   116 :       0.2222    0.2222    0.1111
  band No.  band energies     occupation 
      1      -2.1100      1.00000
      2       2.6154      1.00000
      3       2.8074      1.00000
      4       3.3814      1.00000
      5       3.5433      1.00000
      6       3.9211      1.00000
      7       4.1122      1.00000
      8       4.7595      1.00000
      9       5.2549      1.00000
     10       5.3033      1.00000
     11       5.8904      1.00000
     12       6.0459      1.00000
     13       6.2020      1.00000
     14       6.3718      1.00004
     15       6.4010      1.00010
     16       7.1589      0.00918
     17       7.4453     -0.00348
     18       8.4388     -0.00000
     19       9.7617     -0.00000
     20      13.8458      0.00000
     21      15.7051      0.00000
     22      16.2608      0.00000
     23      16.5675      0.00000
     24      17.5565      0.00000

 k-point   117 :       0.2778    0.2222    0.1111
  band No.  band energies     occupation 
      1      -1.7806      1.00000
      2       2.3781      1.00000
      3       2.8452      1.00000
      4       3.4712      1.00000
      5       3.5869      1.00000
      6       3.9663      1.00000
      7       4.2084      1.00000
      8       4.6885      1.00000
      9       5.0754      1.00000
     10       5.2479      1.00000
     11       5.8722      1.00000
     12       6.0000      1.00000
     13       6.1069      1.00000
     14       6.2996      1.00000
     15       6.3542      1.00003
     16       7.1013      0.12182
     17       7.2124     -0.03097
     18       8.5527     -0.00000
     19      10.1088     -0.00000
     20      13.0791      0.00000
     21      15.3271      0.00000
     22      16.1006      0.00000
     23      16.7761      0.00000
     24      17.9598      0.00000

 k-point   118 :       0.3333    0.2222    0.1111
  band No.  band energies     occupation 
      1      -1.3901      1.00000
      2       1.9344      1.00000
      3       2.9657      1.00000
      4       3.5317      1.00000
      5       3.6857      1.00000
      6       4.0416      1.00000
      7       4.2686      1.00000
      8       4.6784      1.00000
      9       4.9258      1.00000
     10       5.1945      1.00000
     11       5.8002      1.00000
     12       5.9899      1.00000
     13       5.9949      1.00000
     14       6.2110      1.00000
     15       6.3512      1.00002
     16       6.9035      0.85561
     17       7.0705      0.21539
     18       8.8371     -0.00000
     19      10.4401     -0.00000
     20      12.4271     -0.00000
     21      14.6018      0.00000
     22      16.2326      0.00000
     23      17.1335      0.00000
     24      18.2133      0.00000

 k-point   119 :       0.3889    0.2222    0.1111
  band No.  band energies     occupation 
      1      -0.9512      1.00000
      2       1.4195      1.00000
      3       3.0721      1.00000
      4       3.5605      1.00000
      5       3.7800      1.00000
      6       4.1589      1.00000
      7       4.2867      1.00000
      8       4.7237      1.00000
      9       4.8248      1.00000
     10       5.1323      1.00000
     11       5.7218      1.00000
     12       5.8859      1.00000
     13       5.9915      1.00000
     14       6.1362      1.00000
     15       6.3528      1.00002
     16       6.6719      1.02159
     17       7.0248      0.38908
     18       9.1870     -0.00000
     19      10.6125     -0.00000
     20      12.0507     -0.00000
     21      13.8912      0.00000
     22      16.3981      0.00000
     23      17.5252      0.00000
     24      18.4172      0.00000

 k-point   120 :       0.4444    0.2222    0.1111
  band No.  band energies     occupation 
      1      -0.5003      1.00000
      2       0.9084      1.00000
      3       3.1446      1.00000
      4       3.5711      1.00000
      5       3.8348      1.00000
      6       4.2334      1.00000
      7       4.3660      1.00000
      8       4.6564      1.00000
      9       4.8782      1.00000
     10       5.0587      1.00000
     11       5.6587      1.00000
     12       5.8068      1.00000
     13       5.9948      1.00000
     14       6.0876      1.00000
     15       6.3552      1.00003
     16       6.5172      1.00175
     17       6.9966      0.50722
     18       9.5707     -0.00000
     19      10.4331     -0.00000
     20      12.1423     -0.00000
     21      13.2525      0.00000
     22      16.5338      0.00000
     23      17.9033      0.00000
     24      18.5169      0.00000

 k-point   121 :       0.5000    0.2222    0.1111
  band No.  band energies     occupation 
      1      -0.2286      1.00000
      2       0.6143      1.00000
      3       3.1707      1.00000
      4       3.5725      1.00000
      5       3.8527      1.00000
      6       4.2375      1.00000
      7       4.4985      1.00000
      8       4.5425      1.00000
      9       4.9654      1.00000
     10       4.9843      1.00000
     11       5.6334      1.00000
     12       5.7736      1.00000
     13       6.0039      1.00000
     14       6.0682      1.00000
     15       6.3565      1.00003
     16       6.4608      1.00048
     17       6.9870      0.54779
     18       9.8728     -0.00000
     19      10.1556     -0.00000
     20      12.4042     -0.00000
     21      12.8511      0.00000
     22      16.5880      0.00000
     23      18.1252      0.00000
     24      18.4624      0.00000

 k-point   122 :       0.2778    0.2778    0.1111
  band No.  band energies     occupation 
      1      -1.4595      1.00000
      2       2.5100      1.00000
      3       2.5721      1.00000
      4       3.5323      1.00000
      5       3.6241      1.00000
      6       3.9967      1.00000
      7       4.3243      1.00000
      8       4.5998      1.00000
      9       4.9364      1.00000
     10       5.2196      1.00000
     11       5.9223      1.00000
     12       5.9297      1.00000
     13       6.0657      1.00000
     14       6.1831      1.00000
     15       6.3039      1.00001
     16       7.0389      0.33217
     17       7.1705     -0.00398
     18       8.3456     -0.00000
     19      10.3539     -0.00000
     20      12.3803     -0.00000
     21      15.6168      0.00000
     22      15.7408      0.00000
     23      16.5290      0.00000
     24      18.8961      0.00000

 k-point   123 :       0.3333    0.2778    0.1111
  band No.  band energies     occupation 
      1      -1.0799      1.00000
      2       2.1234      1.00000
      3       2.6927      1.00000
      4       3.5946      1.00000
      5       3.6988      1.00000
      6       4.0501      1.00000
      7       4.3888      1.00000
      8       4.5799      1.00000
      9       4.8307      1.00000
     10       5.1911      1.00000
     11       5.8301      1.00000
     12       5.9536      1.00000
     13       6.0113      1.00000
     14       6.0916      1.00000
     15       6.2787      1.00000
     16       6.9356      0.75156
     17       7.0073      0.46199
     18       8.4253     -0.00000
     19      10.4373     -0.00000
     20      11.9669     -0.00000
     21      14.9519      0.00000
     22      16.0242      0.00000
     23      16.7071      0.00000
     24      19.1966      0.00000

 k-point   124 :       0.3889    0.2778    0.1111
  band No.  band energies     occupation 
      1      -0.6559      1.00000
      2       1.6419      1.00000
      3       2.8172      1.00000
      4       3.6338      1.00000
      5       3.7754      1.00000
      6       4.1407      1.00000
      7       4.3718      1.00000
      8       4.6194      1.00000
      9       4.8043      1.00000
     10       5.1434      1.00000
     11       5.7366      1.00000
     12       5.9096      1.00000
     13       5.9712      1.00000
     14       6.0665      1.00000
     15       6.2630      1.00000
     16       6.7326      1.03402
     17       6.9328      0.76133
     18       8.6579     -0.00000
     19      10.1925     -0.00000
     20      12.0139     -0.00000
     21      14.2419      0.00000
     22      16.3476      0.00000
     23      16.9840      0.00000
     24      18.9552      0.00000

 k-point   125 :       0.4444    0.2778    0.1111
  band No.  band energies     occupation 
      1      -0.2254      1.00000
      2       1.1639      1.00000
      3       2.8981      1.00000
      4       3.6541      1.00000
      5       3.8232      1.00000
      6       4.2409      1.00000
      7       4.3652      1.00000
      8       4.5829      1.00000
      9       4.8905      1.00000
     10       5.0746      1.00000
     11       5.6665      1.00000
     12       5.8276      1.00000
     13       5.9617      1.00000
     14       6.0828      1.00000
     15       6.2494      1.00000
     16       6.5780      1.00568
     17       6.8916      0.88795
     18       8.9681     -0.00000
     19       9.7778     -0.00000
     20      12.3537     -0.00000
     21      13.6073      0.00000
     22      16.5807      0.00000
     23      17.3124      0.00000
     24      18.5583      0.00000

 k-point   126 :       0.5000    0.2778    0.1111
  band No.  band energies     occupation 
      1       0.0260      1.00000
      2       0.8944      1.00000
      3       2.9261      1.00000
      4       3.6596      1.00000
      5       3.8395      1.00000
      6       4.2752      1.00000
      7       4.3935      1.00000
      8       4.5410      1.00000
      9       4.9901      1.00000
     10       4.9925      1.00000
     11       5.6417      1.00000
     12       5.7845      1.00000
     13       5.9678      1.00000
     14       6.0913      1.00000
     15       6.2431      1.00000
     16       6.5209      1.00189
     17       6.8774      0.92214
     18       9.2717     -0.00000
     19       9.4271     -0.00000
     20      12.6501      0.00000
     21      13.2253      0.00000
     22      16.6661      0.00000
     23      17.5179      0.00000
     24      18.3229      0.00000

 k-point   127 :       0.3333    0.3333    0.1111
  band No.  band energies     occupation 
      1      -0.7151      1.00000
      2       2.3143      1.00000
      3       2.3172      1.00000
      4       3.6433      1.00000
      5       3.7469      1.00000
      6       4.0802      1.00000
      7       4.4958      1.00000
      8       4.4968      1.00000
      9       4.7842      1.00000
     10       5.1839      1.00000
     11       5.8354      1.00000
     12       5.8833      1.00000
     13       5.9707      1.00000
     14       6.0504      1.00000
     15       6.2292      1.00000
     16       6.8815      0.91277
     17       6.9023      0.85898
     18       8.2648     -0.00000
     19      10.1124     -0.00000
     20      11.9690     -0.00000
     21      15.2688      0.00000
     22      15.4106      0.00000
     23      16.8329      0.00000
     24      19.1201      0.00000

 k-point   128 :       0.3889    0.3333    0.1111
  band No.  band energies     occupation 
      1      -0.3108      1.00000
      2       1.8792      1.00000
      3       2.4848      1.00000
      4       3.6650      1.00000
      5       3.7924      1.00000
      6       4.1491      1.00000
      7       4.4414      1.00000
      8       4.5404      1.00000
      9       4.8247      1.00000
     10       5.1561      1.00000
     11       5.7596      1.00000
     12       5.8524      1.00000
     13       5.9110      1.00000
     14       6.0683      1.00000
     15       6.1923      1.00000
     16       6.7323      1.03398
     17       6.8216      1.00850
     18       8.3250     -0.00000
     19       9.6396     -0.00000
     20      12.2679     -0.00000
     21      14.6285      0.00000
     22      15.7510      0.00000
     23      17.0537      0.00000
     24      18.6203      0.00000

 k-point   129 :       0.4444    0.3333    0.1111
  band No.  band energies     occupation 
      1       0.0928      1.00000
      2       1.4459      1.00000
      3       2.6019      1.00000
      4       3.6732      1.00000
      5       3.8147      1.00000
      6       4.2331      1.00000
      7       4.4143      1.00000
      8       4.5278      1.00000
      9       4.9281      1.00000
     10       5.1029      1.00000
     11       5.6917      1.00000
     12       5.7780      1.00000
     13       5.9243      1.00000
     14       6.0894      1.00000
     15       6.1573      1.00000
     16       6.5983      1.00800
     17       6.7711      1.03410
     18       8.5211     -0.00000
     19       9.1905     -0.00000
     20      12.6778      0.00000
     21      14.0062      0.00000
     22      16.0967      0.00000
     23      17.2872      0.00000
     24      18.1194      0.00000

 k-point   130 :       0.5000    0.3333    0.1111
  band No.  band energies     occupation 
      1       0.3203      1.00000
      2       1.2066      1.00000
      3       2.6439      1.00000
      4       3.6744      1.00000
      5       3.8217      1.00000
      6       4.2736      1.00000
      7       4.4072      1.00000
      8       4.5140      1.00000
      9       5.0269      1.00000
     10       5.0287      1.00000
     11       5.6739      1.00000
     12       5.7323      1.00000
     13       5.9372      1.00000
     14       6.1079      1.00000
     15       6.1332      1.00000
     16       6.5480      1.00326
     17       6.7527      1.03546
     18       8.7836     -0.00000
     19       8.8434     -0.00000
     20      12.9702      0.00000
     21      13.6456      0.00000
     22      16.2497      0.00000
     23      17.4538      0.00000
     24      17.8343      0.00000

 k-point   131 :       0.3889    0.3889    0.1111
  band No.  band energies     occupation 
      1       0.0675      1.00000
      2       2.0911      1.00000
      3       2.1149      1.00000
      4       3.6418      1.00000
      5       3.8047      1.00000
      6       4.2115      1.00000
      7       4.4725      1.00000
      8       4.4967      1.00000
      9       4.8910      1.00000
     10       5.1544      1.00000
     11       5.7438      1.00000
     12       5.8002      1.00000
     13       5.8512      1.00000
     14       6.0922      1.00000
     15       6.1307      1.00000
     16       6.6703      1.02123
     17       6.7073      1.02960
     18       8.2060     -0.00000
     19       9.1336     -0.00000
     20      12.6436      0.00000
     21      14.9153      0.00000
     22      15.1937      0.00000
     23      17.2511      0.00000
     24      18.0916      0.00000

 k-point   132 :       0.4444    0.3889    0.1111
  band No.  band energies     occupation 
      1       0.4374      1.00000
      2       1.7244      1.00000
      3       2.2717      1.00000
      4       3.6008      1.00000
      5       3.8048      1.00000
      6       4.2901      1.00000
      7       4.4646      1.00000
      8       4.4891      1.00000
      9       4.9840      1.00000
     10       5.1264      1.00000
     11       5.6767      1.00000
     12       5.7589      1.00000
     13       5.8677      1.00000
     14       6.0657      1.00000
     15       6.1122      1.00000
     16       6.5745      1.00533
     17       6.6463      1.01602
     18       8.2589     -0.00000
     19       8.7298     -0.00000
     20      13.0699      0.00000
     21      14.4180      0.00000
     22      15.4485      0.00000
     23      17.3419      0.00000
     24      17.7106      0.00000

 k-point   133 :       0.5000    0.3889    0.1111
  band No.  band energies     occupation 
      1       0.6379      1.00000
      2       1.5200      1.00000
      3       2.3360      1.00000
      4       3.5805      1.00000
      5       3.8040      1.00000
      6       4.3252      1.00000
      7       4.4640      1.00000
      8       4.4825      1.00000
      9       5.0654      1.00000
     10       5.0727      1.00000
     11       5.6533      1.00000
     12       5.7295      1.00000
     13       5.8879      1.00000
     14       6.0369      1.00000
     15       6.1174      1.00000
     16       6.5357      1.00256
     17       6.6242      1.01187
     18       8.4325     -0.00000
     19       8.4443     -0.00000
     20      13.3545      0.00000
     21      14.0773      0.00000
     22      15.6139      0.00000
     23      17.2555      0.00000
     24      17.6641      0.00000

 k-point   134 :       0.4444    0.4444    0.1111
  band No.  band energies     occupation 
      1       0.7675      1.00000
      2       1.9375      1.00000
      3       1.9590      1.00000
      4       3.4962      1.00000
      5       3.7949      1.00000
      6       4.3720      1.00000
      7       4.4625      1.00000
      8       4.5001      1.00000
      9       5.0481      1.00000
     10       5.1291      1.00000
     11       5.6113      1.00000
     12       5.8053      1.00000
     13       5.8184      1.00000
     14       5.9899      1.00000
     15       6.1177      1.00000
     16       6.5250      1.00206
     17       6.5589      1.00402
     18       8.1712     -0.00000
     19       8.4107     -0.00000
     20      13.4988      0.00000
     21      14.6974      0.00000
     22      14.9400      0.00000
     23      16.9714      0.00000
     24      17.7954      0.00000

 k-point   135 :       0.5000    0.4444    0.1111
  band No.  band energies     occupation 
      1       0.9406      1.00000
      2       1.7769      1.00000
      3       2.0389      1.00000
      4       3.4453      1.00000
      5       3.7911      1.00000
      6       4.4088      1.00000
      7       4.4598      1.00000
      8       4.5064      1.00000
      9       5.1001      1.00000
     10       5.1041      1.00000
     11       5.5845      1.00000
     12       5.7912      1.00000
     13       5.8381      1.00000
     14       5.9503      1.00000
     15       6.1204      1.00000
     16       6.4983      1.00116
     17       6.5305      1.00230
     18       8.2265     -0.00000
     19       8.2267     -0.00000
     20      13.7872      0.00000
     21      14.4542      0.00000
     22      15.0072      0.00000
     23      16.7706      0.00000
     24      17.8679      0.00000

 k-point   136 :       0.5000    0.5000    0.1111
  band No.  band energies     occupation 
      1       1.0980      1.00000
      2       1.8833      1.00000
      3       1.8833      1.00000
      4       3.3789      1.00000
      5       3.7864      1.00000
      6       4.4517      1.00000
      7       4.4517      1.00000
      8       4.5177      1.00000
      9       5.1151      1.00000
     10       5.1151      1.00000
     11       5.5565      1.00000
     12       5.8206      1.00000
     13       5.8206      1.00000
     14       5.9070      1.00000
     15       6.1201      1.00000
     16       6.4767      1.00070
     17       6.4985      1.00116
     18       8.1597     -0.00000
     19       8.1597     -0.00000
     20      14.1107      0.00000
     21      14.6237      0.00000
     22      14.6237      0.00000
     23      16.5630      0.00000
     24      17.9526      0.00000

 k-point   137 :       0.1667    0.1667    0.1667
  band No.  band energies     occupation 
      1      -2.4472      1.00000
      2       2.6351      1.00000
      3       3.1184      1.00000
      4       3.1184      1.00000
      5       3.5044      1.00000
      6       3.9432      1.00000
      7       3.9432      1.00000
      8       4.8565      1.00000
      9       5.4433      1.00000
     10       5.4433      1.00000
     11       6.0028      1.00000
     12       6.0028      1.00000
     13       6.3569      1.00003
     14       6.3569      1.00003
     15       6.4948      1.00107
     16       7.2349     -0.03517
     17       7.8358     -0.00000
     18       8.7283     -0.00000
     19       8.7283     -0.00000
     20      15.6095      0.00000
     21      15.6095      0.00000
     22      15.9732      0.00000
     23      16.7639      0.00000
     24      16.7639      0.00000

 k-point   138 :       0.2222    0.1667    0.1667
  band No.  band energies     occupation 
      1      -2.1847      1.00000
      2       2.6089      1.00000
      3       2.9849      1.00000
      4       3.2834      1.00000
      5       3.4948      1.00000
      6       3.9727      1.00000
      7       4.0407      1.00000
      8       4.7736      1.00000
      9       5.3028      1.00000
     10       5.3359      1.00000
     11       5.8947      1.00000
     12       6.0158      1.00000
     13       6.2540      1.00000
     14       6.3620      1.00003
     15       6.3910      1.00008
     16       7.2118     -0.03077
     17       7.6160     -0.00006
     18       8.7855     -0.00000
     19       8.9830     -0.00000
     20      14.8871      0.00000
     21      15.0959      0.00000
     22      16.1612      0.00000
     23      16.6917      0.00000
     24      17.0436      0.00000

 k-point   139 :       0.2778    0.1667    0.1667
  band No.  band energies     occupation 
      1      -1.8538      1.00000
      2       2.3332      1.00000
      3       2.9936      1.00000
      4       3.4716      1.00000
      5       3.5070      1.00000
      6       4.0156      1.00000
      7       4.1265      1.00000
      8       4.7276      1.00000
      9       5.1602      1.00000
     10       5.1955      1.00000
     11       5.8418      1.00000
     12       6.0030      1.00000
     13       6.1333      1.00000
     14       6.3071      1.00001
     15       6.3653      1.00004
     16       7.1737     -0.00718
     17       7.2412     -0.03544
     18       9.1191     -0.00000
     19       9.2682     -0.00000
     20      14.1078      0.00000
     21      14.2796      0.00000
     22      16.5670      0.00000
     23      16.7847      0.00000
     24      17.2770      0.00000

 k-point   140 :       0.3333    0.1667    0.1667
  band No.  band energies     occupation 
      1      -1.4612      1.00000
      2       1.8858      1.00000
      3       3.0729      1.00000
      4       3.5302      1.00000
      5       3.6556      1.00000
      6       4.0836      1.00000
      7       4.1835      1.00000
      8       4.7322      1.00000
      9       5.0167      1.00000
     10       5.0842      1.00000
     11       5.8008      1.00000
     12       5.9774      1.00000
     13       6.0109      1.00000
     14       6.2369      1.00000
     15       6.3678      1.00004
     16       6.9046      0.85231
     17       7.1302      0.05512
     18       9.5400     -0.00000
     19       9.5676     -0.00000
     20      13.3937      0.00000
     21      13.5023      0.00000
     22      16.9285      0.00000
     23      16.9793      0.00000
     24      17.5221      0.00000

 k-point   141 :       0.3889    0.1667    0.1667
  band No.  band energies     occupation 
      1      -1.0197      1.00000
      2       1.3654      1.00000
      3       3.1519      1.00000
      4       3.5505      1.00000
      5       3.7940      1.00000
      6       4.1988      1.00000
      7       4.2121      1.00000
      8       4.7860      1.00000
      9       4.8699      1.00000
     10       5.0140      1.00000
     11       5.7508      1.00000
     12       5.9119      1.00000
     13       5.9602      1.00000
     14       6.1680      1.00000
     15       6.3701      1.00004
     16       6.6462      1.01599
     17       7.0913      0.14980
     18       9.8599     -0.00000
     19       9.9967     -0.00000
     20      12.7940      0.00000
     21      12.7946      0.00000
     22      17.0783      0.00000
     23      17.3839      0.00000
     24      17.8010      0.00000

 k-point   142 :       0.4444    0.1667    0.1667
  band No.  band energies     occupation 
      1      -0.5650      1.00000
      2       0.8484      1.00000
      3       3.2084      1.00000
      4       3.5587      1.00000
      5       3.8654      1.00000
      6       4.2288      1.00000
      7       4.3611      1.00000
      8       4.7157      1.00000
      9       4.8591      1.00000
     10       4.9674      1.00000
     11       5.6986      1.00000
     12       5.8538      1.00000
     13       5.9651      1.00000
     14       6.1008      1.00000
     15       6.3720      1.00004
     16       6.4810      1.00078
     17       7.0650      0.23438
     18      10.1004     -0.00000
     19      10.4374     -0.00000
     20      12.2041     -0.00000
     21      12.3652     -0.00000
     22      17.1942      0.00000
     23      17.7109      0.00000
     24      18.1291      0.00000

 k-point   143 :       0.5000    0.1667    0.1667
  band No.  band energies     occupation 
      1      -0.2899      1.00000
      2       0.5500      1.00000
      3       3.2293      1.00000
      4       3.5593      1.00000
      5       3.8859      1.00000
      6       4.2361      1.00000
      7       4.5077      1.00000
      8       4.5782      1.00000
      9       4.9174      1.00000
     10       4.9254      1.00000
     11       5.6759      1.00000
     12       5.8348      1.00000
     13       5.9791      1.00000
     14       6.0637      1.00000
     15       6.3728      1.00004
     16       6.4236      1.00019
     17       7.0559      0.26737
     18      10.2016     -0.00000
     19      10.6718     -0.00000
     20      11.9199     -0.00000
     21      12.2007     -0.00000
     22      17.2386      0.00000
     23      17.8399      0.00000
     24      18.4267      0.00000

 k-point   144 :       0.2222    0.2222    0.1667
  band No.  band energies     occupation 
      1      -1.9270      1.00000
      2       2.6428      1.00000
      3       2.9393      1.00000
      4       3.2948      1.00000
      5       3.4986      1.00000
      6       4.0202      1.00000
      7       4.1168      1.00000
      8       4.7018      1.00000
      9       5.1891      1.00000
     10       5.2226      1.00000
     11       5.9069      1.00000
     12       5.9685      1.00000
     13       6.2205      1.00000
     14       6.2693      1.00000
     15       6.3171      1.00001
     16       7.1949     -0.02326
     17       7.6397     -0.00003
     18       8.5499     -0.00000
     19       9.1358     -0.00000
     20      14.1488      0.00000
     21      15.3258      0.00000
     22      15.3564      0.00000
     23      16.9403      0.00000
     24      17.6718      0.00000

 k-point   145 :       0.2778    0.2222    0.1667
  band No.  band energies     occupation 
      1      -1.6027      1.00000
      2       2.4459      1.00000
      3       2.9055      1.00000
      4       3.4417      1.00000
      5       3.5334      1.00000
      6       4.0525      1.00000
      7       4.2040      1.00000
      8       4.6617      1.00000
      9       5.0460      1.00000
     10       5.1295      1.00000
     11       5.8824      1.00000
     12       5.9645      1.00000
     13       6.1327      1.00000
     14       6.1716      1.00000
     15       6.3090      1.00001
     16       7.1558      0.01322
     17       7.3684     -0.01258
     18       8.6399     -0.00000
     19       9.4006     -0.00000
     20      13.3600      0.00000
     21      14.5172      0.00000
     22      15.7126      0.00000
     23      17.1208      0.00000
     24      18.1280      0.00000

 k-point   146 :       0.3333    0.2222    0.1667
  band No.  band energies     occupation 
      1      -1.2189      1.00000
      2       2.0335      1.00000
      3       2.9578      1.00000
      4       3.5831      1.00000
      5       3.6211      1.00000
      6       4.0953      1.00000
      7       4.2596      1.00000
      8       4.6736      1.00000
      9       4.9249      1.00000
     10       5.0455      1.00000
     11       5.8339      1.00000
     12       5.9567      1.00000
     13       6.0427      1.00000
     14       6.1113      1.00000
     15       6.3049      1.00001
     16       7.0158      0.42625
     17       7.1153      0.08700
     18       8.9086     -0.00000
     19       9.6819     -0.00000
     20      12.6758      0.00000
     21      13.7561      0.00000
     22      16.1172      0.00000
     23      17.3215      0.00000
     24      18.4093      0.00000

 k-point   147 :       0.3889    0.2222    0.1667
  band No.  band energies     occupation 
      1      -0.7893      1.00000
      2       1.5415      1.00000
      3       3.0086      1.00000
      4       3.6289      1.00000
      5       3.7791      1.00000
      6       4.1644      1.00000
      7       4.2857      1.00000
      8       4.7192      1.00000
      9       4.8314      1.00000
     10       4.9818      1.00000
     11       5.7705      1.00000
     12       5.9283      1.00000
     13       5.9824      1.00000
     14       6.0908      1.00000
     15       6.2947      1.00000
     16       6.7327      1.03404
     17       7.0625      0.24342
     18       9.2220     -0.00000
     19       9.9323     -0.00000
     20      12.1558     -0.00000
     21      13.0822      0.00000
     22      16.5377      0.00000
     23      17.5260      0.00000
     24      18.6067      0.00000

 k-point   148 :       0.4444    0.2222    0.1667
  band No.  band energies     occupation 
      1      -0.3516      1.00000
      2       1.0518      1.00000
      3       3.0413      1.00000
      4       3.6550      1.00000
      5       3.8761      1.00000
      6       4.2561      1.00000
      7       4.3140      1.00000
      8       4.6765      1.00000
      9       4.8328      1.00000
     10       4.9441      1.00000
     11       5.7166      1.00000
     12       5.8914      1.00000
     13       5.9624      1.00000
     14       6.0888      1.00000
     15       6.2817      1.00000
     16       6.5398      1.00278
     17       7.0268      0.38089
     18       9.5219     -0.00000
     19      10.0631     -0.00000
     20      11.8948     -0.00000
     21      12.5336      0.00000
     22      16.9192      0.00000
     23      17.7066      0.00000
     24      18.5350      0.00000

 k-point   149 :       0.5000    0.2222    0.1667
  band No.  band energies     occupation 
      1      -0.0939      1.00000
      2       0.7743      1.00000
      3       3.0525      1.00000
      4       3.6623      1.00000
      5       3.9059      1.00000
      6       4.2902      1.00000
      7       4.3548      1.00000
      8       4.6213      1.00000
      9       4.8525      1.00000
     10       4.9332      1.00000
     11       5.6970      1.00000
     12       5.8724      1.00000
     13       5.9623      1.00000
     14       6.0894      1.00000
     15       6.2756      1.00000
     16       6.4696      1.00060
     17       7.0139      0.43418
     18       9.6823     -0.00000
     19      10.0581     -0.00000
     20      11.8885     -0.00000
     21      12.2579     -0.00000
     22      17.0992      0.00000
     23      17.8064      0.00000
     24      18.3531      0.00000

 k-point   150 :       0.2778    0.2778    0.1667
  band No.  band energies     occupation 
      1      -1.2874      1.00000
      2       2.4955      1.00000
      3       2.7086      1.00000
      4       3.5064      1.00000
      5       3.5950      1.00000
      6       4.0684      1.00000
      7       4.2994      1.00000
      8       4.6097      1.00000
      9       4.9299      1.00000
     10       5.0830      1.00000
     11       5.9162      1.00000
     12       5.9283      1.00000
     13       6.0378      1.00000
     14       6.1121      1.00000
     15       6.2740      1.00000
     16       7.1144      0.08904
     17       7.3319     -0.01996
     18       8.3737     -0.00000
     19       9.5986     -0.00000
     20      12.6338      0.00000
     21      14.8351      0.00000
     22      14.9231      0.00000
     23      17.3387      0.00000
     24      19.0498      0.00000

 k-point   151 :       0.3333    0.2778    0.1667
  band No.  band energies     occupation 
      1      -0.9159      1.00000
      2       2.1926      1.00000
      3       2.7256      1.00000
      4       3.6067      1.00000
      5       3.6867      1.00000
      6       4.0879      1.00000
      7       4.3580      1.00000
      8       4.6040      1.00000
      9       4.8523      1.00000
     10       5.0384      1.00000
     11       5.8563      1.00000
     12       5.9278      1.00000
     13       5.9704      1.00000
     14       6.0735      1.00000
     15       6.2595      1.00000
     16       7.0375      0.33781
     17       7.1069      0.10739
     18       8.4343     -0.00000
     19       9.7463     -0.00000
     20      12.0880     -0.00000
     21      14.1083      0.00000
     22      15.2851      0.00000
     23      17.5601      0.00000
     24      19.0691      0.00000

 k-point   152 :       0.3889    0.2778    0.1667
  band No.  band energies     occupation 
      1      -0.5029      1.00000
      2       1.7461      1.00000
      3       2.7916      1.00000
      4       3.6889      1.00000
      5       3.7932      1.00000
      6       4.1246      1.00000
      7       4.3724      1.00000
      8       4.6229      1.00000
      9       4.8339      1.00000
     10       4.9959      1.00000
     11       5.7765      1.00000
     12       5.8619      1.00000
     13       5.9932      1.00000
     14       6.0642      1.00000
     15       6.2413      1.00000
     16       6.7917      1.02824
     17       7.0144      0.43239
     18       8.6518     -0.00000
     19       9.7499     -0.00000
     20      11.8259     -0.00000
     21      13.4241      0.00000
     22      15.7103      0.00000
     23      17.7613      0.00000
     24      18.5277      0.00000

 k-point   153 :       0.4444    0.2778    0.1667
  band No.  band energies     occupation 
      1      -0.0887      1.00000
      2       1.2961      1.00000
      3       2.8330      1.00000
      4       3.7298      1.00000
      5       3.8818      1.00000
      6       4.1746      1.00000
      7       4.3832      1.00000
      8       4.6043      1.00000
      9       4.8663      1.00000
     10       4.9648      1.00000
     11       5.7264      1.00000
     12       5.7999      1.00000
     13       6.0170      1.00000
     14       6.0870      1.00000
     15       6.2101      1.00000
     16       6.5856      1.00647
     17       6.9695      0.62067
     18       8.9247     -0.00000
     19       9.5709     -0.00000
     20      11.8820     -0.00000
     21      12.8483      0.00000
     22      16.1075      0.00000
     23      17.7993      0.00000
     24      18.1564      0.00000

 k-point   154 :       0.5000    0.2778    0.1667
  band No.  band energies     occupation 
      1       0.1466      1.00000
      2       1.0466      1.00000
      3       2.8466      1.00000
      4       3.7402      1.00000
      5       3.9158      1.00000
      6       4.2010      1.00000
      7       4.3915      1.00000
      8       4.5867      1.00000
      9       4.8816      1.00000
     10       4.9573      1.00000
     11       5.7183      1.00000
     12       5.7662      1.00000
     13       6.0294      1.00000
     14       6.1090      1.00000
     15       6.1865      1.00000
     16       6.5070      1.00140
     17       6.9532      0.68562
     18       9.1391     -0.00000
     19       9.3724     -0.00000
     20      12.0406     -0.00000
     21      12.5324      0.00000
     22      16.3049      0.00000
     23      17.6545      0.00000
     24      18.1336      0.00000

 k-point   155 :       0.3333    0.3333    0.1667
  band No.  band energies     occupation 
      1      -0.5610      1.00000
      2       2.2832      1.00000
      3       2.4554      1.00000
      4       3.6249      1.00000
      5       3.7911      1.00000
      6       4.0922      1.00000
      7       4.4244      1.00000
      8       4.5641      1.00000
      9       4.8298      1.00000
     10       5.0331      1.00000
     11       5.8211      1.00000
     12       5.8930      1.00000
     13       5.8959      1.00000
     14       6.0811      1.00000
     15       6.2379      1.00000
     16       6.9869      0.54833
     17       7.0080      0.45931
     18       8.2274     -0.00000
     19       9.6533     -0.00000
     20      11.7983     -0.00000
     21      14.4223      0.00000
     22      14.5996      0.00000
     23      17.7546      0.00000
     24      18.5237      0.00000

 k-point   156 :       0.3889    0.3333    0.1667
  band No.  band energies     occupation 
      1      -0.1707      1.00000
      2       1.9575      1.00000
      3       2.5099      1.00000
      4       3.6582      1.00000
      5       3.8633      1.00000
      6       4.1286      1.00000
      7       4.4345      1.00000
      8       4.5655      1.00000
      9       4.8626      1.00000
     10       5.0221      1.00000
     11       5.7261      1.00000
     12       5.8288      1.00000
     13       5.9324      1.00000
     14       6.0895      1.00000
     15       6.2198      1.00000
     16       6.7916      1.02829
     17       6.9304      0.76988
     18       8.2725     -0.00000
     19       9.3857     -0.00000
     20      11.8352     -0.00000
     21      13.8090      0.00000
     22      14.9470      0.00000
     23      17.6187      0.00000
     24      18.2632      0.00000

 k-point   157 :       0.4444    0.3333    0.1667
  band No.  band energies     occupation 
      1       0.2123      1.00000
      2       1.5641      1.00000
      3       2.5866      1.00000
      4       3.6866      1.00000
      5       3.9012      1.00000
      6       4.1716      1.00000
      7       4.4550      1.00000
      8       4.5488      1.00000
      9       4.9234      1.00000
     10       5.0049      1.00000
     11       5.6669      1.00000
     12       5.7747      1.00000
     13       5.9791      1.00000
     14       6.1035      1.00000
     15       6.1865      1.00000
     16       6.5979      1.00794
     17       6.8826      0.91030
     18       8.4553     -0.00000
     19       9.0496     -0.00000
     20      12.0835     -0.00000
     21      13.2243      0.00000
     22      15.3453      0.00000
     23      17.1596      0.00000
     24      18.3798      0.00000

 k-point   158 :       0.5000    0.3333    0.1667
  band No.  band energies     occupation 
      1       0.4201      1.00000
      2       1.3502      1.00000
      3       2.6135      1.00000
      4       3.6965      1.00000
      5       3.9154      1.00000
      6       4.1864      1.00000
      7       4.4877      1.00000
      8       4.5209      1.00000
      9       4.9558      1.00000
     10       4.9924      1.00000
     11       5.6503      1.00000
     12       5.7522      1.00000
     13       6.0036      1.00000
     14       6.1187      1.00000
     15       6.1577      1.00000
     16       6.5209      1.00189
     17       6.8644      0.94883
     18       8.6706     -0.00000
     19       8.7790     -0.00000
     20      12.3025     -0.00000
     21      12.9008      0.00000
     22      15.5467      0.00000
     23      16.9227      0.00000
     24      18.4467      0.00000

 k-point   159 :       0.3889    0.3889    0.1667
  band No.  band energies     occupation 
      1       0.1891      1.00000
      2       2.1007      1.00000
      3       2.2288      1.00000
      4       3.6029      1.00000
      5       3.8967      1.00000
      6       4.1976      1.00000
      7       4.4372      1.00000
      8       4.5748      1.00000
      9       4.9175      1.00000
     10       5.0438      1.00000
     11       5.6329      1.00000
     12       5.8586      1.00000
     13       5.8662      1.00000
     14       6.1051      1.00000
     15       6.2050      1.00000
     16       6.7036      1.02880
     17       6.8290      1.00099
     18       8.1256     -0.00000
     19       8.9726     -0.00000
     20      12.0644     -0.00000
     21      14.1204      0.00000
     22      14.3617      0.00000
     23      17.0316      0.00000
     24      18.4591      0.00000

 k-point   160 :       0.4444    0.3889    0.1667
  band No.  band energies     occupation 
      1       0.5313      1.00000
      2       1.8271      1.00000
      3       2.3128      1.00000
      4       3.5549      1.00000
      5       3.9057      1.00000
      6       4.2620      1.00000
      7       4.4460      1.00000
      8       4.5879      1.00000
      9       4.9837      1.00000
     10       5.0493      1.00000
     11       5.5667      1.00000
     12       5.8158      1.00000
     13       5.9070      1.00000
     14       6.1134      1.00000
     15       6.1694      1.00000
     16       6.5638      1.00440
     17       6.7717      1.03399
     18       8.1685     -0.00000
     19       8.6119     -0.00000
     20      12.4012     -0.00000
     21      13.6307      0.00000
     22      14.6560      0.00000
     23      16.4983      0.00000
     24      18.6599      0.00000

 k-point   161 :       0.5000    0.3889    0.1667
  band No.  band energies     occupation 
      1       0.7068      1.00000
      2       1.6564      1.00000
      3       2.3632      1.00000
      4       3.5356      1.00000
      5       3.9080      1.00000
      6       4.2789      1.00000
      7       4.4657      1.00000
      8       4.5866      1.00000
      9       5.0274      1.00000
     10       5.0349      1.00000
     11       5.5439      1.00000
     12       5.8035      1.00000
     13       5.9287      1.00000
     14       6.1186      1.00000
     15       6.1402      1.00000
     16       6.5025      1.00127
     17       6.7524      1.03545
     18       8.3237     -0.00000
     19       8.3556     -0.00000
     20      12.6445      0.00000
     21      13.3090      0.00000
     22      14.8523      0.00000
     23      16.2505      0.00000
     24      18.7429      0.00000

 k-point   162 :       0.4444    0.4444    0.1667
  band No.  band energies     occupation 
      1       0.8231      1.00000
      2       2.0134      1.00000
      3       2.0741      1.00000
      4       3.4225      1.00000
      5       3.9019      1.00000
      6       4.3536      1.00000
      7       4.4240      1.00000
      8       4.6428      1.00000
      9       5.0405      1.00000
     10       5.0780      1.00000
     11       5.4926      1.00000
     12       5.8619      1.00000
     13       5.8676      1.00000
     14       6.1133      1.00000
     15       6.1134      1.00000
     16       6.4977      1.00114
     17       6.6879      1.02528
     18       8.0682     -0.00000
     19       8.3004     -0.00000
     20      12.7801      0.00000
     21      13.9370      0.00000
     22      14.1390      0.00000
     23      15.9550      0.00000
     24      18.8850      0.00000

 k-point   163 :       0.5000    0.4444    0.1667
  band No.  band energies     occupation 
      1       0.9637      1.00000
      2       1.9114      1.00000
      3       2.1308      1.00000
      4       3.3641      1.00000
      5       3.8998      1.00000
      6       4.3778      1.00000
      7       4.4314      1.00000
      8       4.6625      1.00000
      9       5.0759      1.00000
     10       5.0769      1.00000
     11       5.4653      1.00000
     12       5.8615      1.00000
     13       5.8870      1.00000
     14       6.0694      1.00000
     15       6.1106      1.00000
     16       6.4635      1.00051
     17       6.6611      1.01915
     18       8.1173     -0.00000
     19       8.1216     -0.00000
     20      13.0431      0.00000
     21      13.6906      0.00000
     22      14.2424      0.00000
     23      15.7102      0.00000
     24      18.9750      0.00000

 k-point   164 :       0.5000    0.5000    0.1667
  band No.  band energies     occupation 
      1       1.0837      1.00000
      2       2.0195      1.00000
      3       2.0195      1.00000
      4       3.2849      1.00000
      5       3.8963      1.00000
      6       4.4199      1.00000
      7       4.4199      1.00000
      8       4.6905      1.00000
      9       5.0945      1.00000
     10       5.0945      1.00000
     11       5.4354      1.00000
     12       5.8910      1.00000
     13       5.8910      1.00000
     14       6.0078      1.00000
     15       6.1039      1.00000
     16       6.4418      1.00030
     17       6.6297      1.01283
     18       8.0499     -0.00000
     19       8.0499     -0.00000
     20      13.3396      0.00000
     21      13.8755      0.00000
     22      13.8755      0.00000
     23      15.4723      0.00000
     24      19.0670      0.00000

 k-point   165 :       0.2222    0.2222    0.2222
  band No.  band energies     occupation 
      1      -1.6747      1.00000
      2       2.6372      1.00000
      3       3.1132      1.00000
      4       3.1132      1.00000
      5       3.5280      1.00000
      6       4.1242      1.00000
      7       4.1242      1.00000
      8       4.6545      1.00000
      9       5.1068      1.00000
     10       5.1068      1.00000
     11       5.9266      1.00000
     12       5.9266      1.00000
     13       6.1394      1.00000
     14       6.2409      1.00000
     15       6.2409      1.00000
     16       7.2006     -0.02627
     17       7.7355     -0.00000
     18       8.6937     -0.00000
     19       8.6937     -0.00000
     20      14.4383      0.00000
     21      14.4383      0.00000
     22      14.5643      0.00000
     23      17.8380      0.00000
     24      17.8380      0.00000

 k-point   166 :       0.2778    0.2222    0.2222
  band No.  band energies     occupation 
      1      -1.3579      1.00000
      2       2.4952      1.00000
      3       2.9576      1.00000
      4       3.3171      1.00000
      5       3.5940      1.00000
      6       4.1341      1.00000
      7       4.2135      1.00000
      8       4.6340      1.00000
      9       5.0017      1.00000
     10       5.0142      1.00000
     11       5.8972      1.00000
     12       5.9419      1.00000
     13       6.0329      1.00000
     14       6.1576      1.00000
     15       6.2557      1.00000
     16       7.1766     -0.00983
     17       7.5141     -0.00081
     18       8.6877     -0.00000
     19       8.8573     -0.00000
     20      13.6422      0.00000
     21      13.7087      0.00000
     22      14.8500      0.00000
     23      18.0387      0.00000
     24      18.4461      0.00000

 k-point   167 :       0.3333    0.2222    0.2222
  band No.  band energies     occupation 
      1      -0.9842      1.00000
      2       2.1480      1.00000
      3       2.9123      1.00000
      4       3.5334      1.00000
      5       3.6710      1.00000
      6       4.1458      1.00000
      7       4.2705      1.00000
      8       4.6577      1.00000
      9       4.9173      1.00000
     10       4.9359      1.00000
     11       5.8552      1.00000
     12       5.9014      1.00000
     13       6.0087      1.00000
     14       6.0918      1.00000
     15       6.2593      1.00000
     16       7.1317      0.05233
     17       7.1445      0.02985
     18       8.9529     -0.00000
     19       9.0257     -0.00000
     20      12.9663      0.00000
     21      12.9667      0.00000
     22      15.2557      0.00000
     23      18.2556      0.00000
     24      18.6594      0.00000

 k-point   168 :       0.3889    0.2222    0.2222
  band No.  band energies     occupation 
      1      -0.5685      1.00000
      2       1.6977      1.00000
      3       2.9086      1.00000
      4       3.7325      1.00000
      5       3.7374      1.00000
      6       4.1570      1.00000
      7       4.3117      1.00000
      8       4.7047      1.00000
      9       4.8236      1.00000
     10       4.9119      1.00000
     11       5.7982      1.00000
     12       5.8358      1.00000
     13       6.0421      1.00000
     14       6.0632      1.00000
     15       6.2460      1.00000
     16       6.8134      1.01541
     17       7.0804      0.18314
     18       9.1803     -0.00000
     19       9.2855     -0.00000
     20      12.3232     -0.00000
     21      12.4397     -0.00000
     22      15.6883      0.00000
     23      18.3259      0.00000
     24      18.4604      0.00000

 k-point   169 :       0.4444    0.2222    0.2222
  band No.  band energies     occupation 
      1      -0.1508      1.00000
      2       1.2427      1.00000
      3       2.9114      1.00000
      4       3.7642      1.00000
      5       3.8942      1.00000
      6       4.1646      1.00000
      7       4.3574      1.00000
      8       4.7264      1.00000
      9       4.7471      1.00000
     10       4.9212      1.00000
     11       5.7534      1.00000
     12       5.7925      1.00000
     13       6.0672      1.00000
     14       6.0866      1.00000
     15       6.2155      1.00000
     16       6.5747      1.00536
     17       7.0400      0.32804
     18       9.2950     -0.00000
     19       9.5888     -0.00000
     20      11.8382     -0.00000
     21      12.0975     -0.00000
     22      16.0997      0.00000
     23      17.8381      0.00000
     24      18.6130      0.00000

 k-point   170 :       0.5000    0.2222    0.2222
  band No.  band energies     occupation 
      1       0.0871      1.00000
      2       0.9897      1.00000
      3       2.9128      1.00000
      4       3.7725      1.00000
      5       3.9563      1.00000
      6       4.1668      1.00000
      7       4.3813      1.00000
      8       4.7150      1.00000
      9       4.7263      1.00000
     10       4.9314      1.00000
     11       5.7384      1.00000
     12       5.7777      1.00000
     13       6.0781      1.00000
     14       6.1166      1.00000
     15       6.1901      1.00000
     16       6.4804      1.00077
     17       7.0247      0.38961
     18       9.3386     -0.00000
     19       9.7254     -0.00000
     20      11.6413     -0.00000
     21      11.9772     -0.00000
     22      16.3115      0.00000
     23      17.5926      0.00000
     24      18.6705      0.00000

 k-point   171 :       0.2778    0.2778    0.2222
  band No.  band energies     occupation 
      1      -1.0515      1.00000
      2       2.4633      1.00000
      3       2.8890      1.00000
      4       3.3272      1.00000
      5       3.6859      1.00000
      6       4.1569      1.00000
      7       4.2696      1.00000
      8       4.6175      1.00000
      9       4.9187      1.00000
     10       4.9664      1.00000
     11       5.9002      1.00000
     12       5.9132      1.00000
     13       5.9285      1.00000
     14       6.1478      1.00000
     15       6.2279      1.00000
     16       7.1624      0.00495
     17       7.5022     -0.00106
     18       8.4120     -0.00000
     19       8.9210     -0.00000
     20      12.9262      0.00000
     21      13.9888      0.00000
     22      14.0840      0.00000
     23      18.4076      0.00000
     24      18.9949      0.00000

 k-point   172 :       0.3333    0.2778    0.2222
  band No.  band energies     occupation 
      1      -0.6922      1.00000
      2       2.2448      1.00000
      3       2.7953      1.00000
      4       3.4794      1.00000
      5       3.7814      1.00000
      6       4.1519      1.00000
      7       4.3213      1.00000
      8       4.6327      1.00000
      9       4.8716      1.00000
     10       4.9289      1.00000
     11       5.7990      1.00000
     12       5.8715      1.00000
     13       5.9523      1.00000
     14       6.1186      1.00000
     15       6.2292      1.00000
     16       7.1185      0.07963
     17       7.2259     -0.03415
     18       8.4429     -0.00000
     19       9.0528     -0.00000
     20      12.3136     -0.00000
     21      13.3072      0.00000
     22      14.4414      0.00000
     23      18.2172      0.00000
     24      18.7783      0.00000

 k-point   173 :       0.3889    0.2778    0.2222
  band No.  band energies     occupation 
      1      -0.2961      1.00000
      2       1.8703      1.00000
      3       2.7661      1.00000
      4       3.6607      1.00000
      5       3.8535      1.00000
      6       4.1365      1.00000
      7       4.3698      1.00000
      8       4.6535      1.00000
      9       4.8488      1.00000
     10       4.9163      1.00000
     11       5.7185      1.00000
     12       5.8181      1.00000
     13       5.9957      1.00000
     14       6.1152      1.00000
     15       6.2204      1.00000
     16       6.8791      0.91826
     17       7.0734      0.20597
     18       8.6249     -0.00000
     19       9.1578     -0.00000
     20      11.8815     -0.00000
     21      12.6926      0.00000
     22      14.8733      0.00000
     23      17.5895      0.00000
     24      18.9815      0.00000

 k-point   174 :       0.4444    0.2778    0.2222
  band No.  band energies     occupation 
      1       0.0934      1.00000
      2       1.4695      1.00000
      3       2.7581      1.00000
      4       3.8006      1.00000
      5       3.9140      1.00000
      6       4.0955      1.00000
      7       4.4420      1.00000
      8       4.6372      1.00000
      9       4.8286      1.00000
     10       4.9358      1.00000
     11       5.6689      1.00000
     12       5.7808      1.00000
     13       6.0510      1.00000
     14       6.1390      1.00000
     15       6.1957      1.00000
     16       6.6087      1.00942
     17       7.0280      0.37594
     18       8.8122     -0.00000
     19       9.1993     -0.00000
     20      11.6695     -0.00000
     21      12.2303     -0.00000
     22      15.2905      0.00000
     23      17.0349      0.00000
     24      19.1546      0.00000

 k-point   175 :       0.5000    0.2778    0.2222
  band No.  band energies     occupation 
      1       0.3053      1.00000
      2       1.2505      1.00000
      3       2.7563      1.00000
      4       3.8370      1.00000
      5       3.9973      1.00000
      6       4.0308      1.00000
      7       4.4920      1.00000
      8       4.6106      1.00000
      9       4.8183      1.00000
     10       4.9486      1.00000
     11       5.6525      1.00000
     12       5.7696      1.00000
     13       6.0935      1.00000
     14       6.1368      1.00000
     15       6.1968      1.00000
     16       6.4881      1.00092
     17       7.0106      0.44801
     18       8.9038     -0.00000
     19       9.1926     -0.00000
     20      11.6360     -0.00000
     21      12.0311     -0.00000
     22      15.5099      0.00000
     23      16.7684      0.00000
     24      19.2220      0.00000

 k-point   176 :       0.3333    0.3333    0.2222
  band No.  band energies     occupation 
      1      -0.3525      1.00000
      2       2.2451      1.00000
      3       2.6370      1.00000
      4       3.5005      1.00000
      5       3.8868      1.00000
      6       4.1500      1.00000
      7       4.3584      1.00000
      8       4.6361      1.00000
      9       4.8677      1.00000
     10       4.9345      1.00000
     11       5.6913      1.00000
     12       5.8816      1.00000
     13       5.9119      1.00000
     14       6.1224      1.00000
     15       6.2286      1.00000
     16       7.0769      0.19435
     17       7.1471      0.02580
     18       8.1733     -0.00000
     19       9.0530     -0.00000
     20      11.8620     -0.00000
     21      13.6330      0.00000
     22      13.7684      0.00000
     23      17.5148      0.00000
     24      19.0552      0.00000

 k-point   177 :       0.3889    0.3333    0.2222
  band No.  band energies     occupation 
      1       0.0161      1.00000
      2       2.0288      1.00000
      3       2.5796      1.00000
      4       3.5758      1.00000
      5       3.9552      1.00000
      6       4.1555      1.00000
      7       4.3921      1.00000
      8       4.6556      1.00000
      9       4.8933      1.00000
     10       4.9445      1.00000
     11       5.6042      1.00000
     12       5.8400      1.00000
     13       5.9366      1.00000
     14       6.1289      1.00000
     15       6.2330      1.00000
     16       6.8859      0.90225
     17       7.0275      0.37787
     18       8.1934     -0.00000
     19       8.9613     -0.00000
     20      11.6597     -0.00000
     21      13.0534      0.00000
     22      14.1316      0.00000
     23      16.8359      0.00000
     24      19.3160      0.00000

 k-point   178 :       0.4444    0.3333    0.2222
  band No.  band energies     occupation 
      1       0.3670      1.00000
      2       1.7143      1.00000
      3       2.5825      1.00000
      4       3.6517      1.00000
      5       3.9979      1.00000
      6       4.1358      1.00000
      7       4.4645      1.00000
      8       4.6474      1.00000
      9       4.9135      1.00000
     10       4.9655      1.00000
     11       5.5488      1.00000
     12       5.8113      1.00000
     13       5.9799      1.00000
     14       6.1415      1.00000
     15       6.2418      1.00000
     16       6.6187      1.01095
     17       6.9803      0.57590
     18       8.3441     -0.00000
     19       8.7904     -0.00000
     20      11.6905     -0.00000
     21      12.5395      0.00000
     22      14.5451      0.00000
     23      16.2642      0.00000
     24      19.5174      0.00000

 k-point   179 :       0.5000    0.3333    0.2222
  band No.  band energies     occupation 
      1       0.5465      1.00000
      2       1.5409      1.00000
      3       2.5862      1.00000
      4       3.6820      1.00000
      5       4.0249      1.00000
      6       4.1109      1.00000
      7       4.5172      1.00000
      8       4.6257      1.00000
      9       4.9162      1.00000
     10       4.9786      1.00000
     11       5.5301      1.00000
     12       5.8061      1.00000
     13       6.0038      1.00000
     14       6.1415      1.00000
     15       6.2722      1.00000
     16       6.4823      1.00080
     17       6.9619      0.65154
     18       8.4849     -0.00000
     19       8.6412     -0.00000
     20      11.7935     -0.00000
     21      12.2811     -0.00000
     22      14.7666      0.00000
     23      15.9898      0.00000
     24      19.5962      0.00000

 k-point   180 :       0.3889    0.3889    0.2222
  band No.  band energies     occupation 
      1       0.3465      1.00000
      2       2.0936      1.00000
      3       2.4084      1.00000
      4       3.5117      1.00000
      5       4.0056      1.00000
      6       4.2213      1.00000
      7       4.3832      1.00000
      8       4.7095      1.00000
      9       4.9424      1.00000
     10       4.9791      1.00000
     11       5.5087      1.00000
     12       5.8661      1.00000
     13       5.8876      1.00000
     14       6.1307      1.00000
     15       6.2504      1.00000
     16       6.7800      1.03221
     17       6.9462      0.71242
     18       8.0077     -0.00000
     19       8.6872     -0.00000
     20      11.6877     -0.00000
     21      13.3814      0.00000
     22      13.5529      0.00000
     23      16.1438      0.00000
     24      19.6050      0.00000

 k-point   181 :       0.4444    0.3889    0.2222
  band No.  band energies     occupation 
      1       0.6458      1.00000
      2       1.9480      1.00000
      3       2.3939      1.00000
      4       3.4778      1.00000
      5       4.0293      1.00000
      6       4.2472      1.00000
      7       4.4183      1.00000
      8       4.7504      1.00000
      9       4.9854      1.00000
     10       5.0061      1.00000
     11       5.4455      1.00000
     12       5.8536      1.00000
     13       5.9155      1.00000
     14       6.1318      1.00000
     15       6.2637      1.00000
     16       6.5760      1.00548
     17       6.8937      0.88254
     18       8.0338     -0.00000
     19       8.4120     -0.00000
     20      11.8841     -0.00000
     21      12.9128      0.00000
     22      13.8803      0.00000
     23      15.5678      0.00000
     24      19.8249      0.00000

 k-point   182 :       0.5000    0.3889    0.2222
  band No.  band energies     occupation 
      1       0.7872      1.00000
      2       1.8354      1.00000
      3       2.4117      1.00000
      4       3.4681      1.00000
      5       4.0385      1.00000
      6       4.2432      1.00000
      7       4.4493      1.00000
      8       4.7625      1.00000
      9       4.9998      1.00000
     10       5.0180      1.00000
     11       5.4236      1.00000
     12       5.8569      1.00000
     13       5.9336      1.00000
     14       6.1300      1.00000
     15       6.2877      1.00000
     16       6.4539      1.00041
     17       6.8755      0.92625
     18       8.1573     -0.00000
     19       8.2112     -0.00000
     20      12.0605     -0.00000
     21      12.6271      0.00000
     22      14.0963      0.00000
     23      15.2922      0.00000
     24      19.9108      0.00000

 k-point   183 :       0.4444    0.4444    0.2222
  band No.  band energies     occupation 
      1       0.8822      1.00000
      2       2.1009      1.00000
      3       2.2515      1.00000
      4       3.3341      1.00000
      5       4.0395      1.00000
      6       4.3400      1.00000
      7       4.3919      1.00000
      8       4.8355      1.00000
      9       5.0358      1.00000
     10       5.0451      1.00000
     11       5.3729      1.00000
     12       5.8936      1.00000
     13       5.9056      1.00000
     14       6.1162      1.00000
     15       6.2438      1.00000
     16       6.4731      1.00065
     17       6.8165      1.01292
     18       7.9184     -0.00000
     19       8.1289     -0.00000
     20      12.1789     -0.00000
     21      13.2321      0.00000
     22      13.3785      0.00000
     23      14.9957      0.00000
     24      20.0558      0.00000

 k-point   184 :       0.5000    0.4444    0.2222
  band No.  band energies     occupation 
      1       0.9845      1.00000
      2       2.0859      1.00000
      3       2.2612      1.00000
      4       3.2745      1.00000
      5       4.0420      1.00000
      6       4.3522      1.00000
      7       4.4092      1.00000
      8       4.8655      1.00000
      9       5.0573      1.00000
     10       5.0587      1.00000
     11       5.3461      1.00000
     12       5.9182      1.00000
     13       5.9208      1.00000
     14       6.1048      1.00000
     15       6.2153      1.00000
     16       6.4115      1.00013
     17       6.7914      1.02835
     18       7.9572     -0.00000
     19       7.9658     -0.00000
     20      12.4002     -0.00000
     21      12.9892      0.00000
     22      13.5185      0.00000
     23      14.7264      0.00000
     24      20.1456      0.00000

 k-point   185 :       0.5000    0.5000    0.2222
  band No.  band energies     occupation 
      1       1.0666      1.00000
      2       2.1960      1.00000
      3       2.1960      1.00000
      4       3.1854      1.00000
      5       4.0421      1.00000
      6       4.3961      1.00000
      7       4.3961      1.00000
      8       4.9022      1.00000
      9       5.0780      1.00000
     10       5.0780      1.00000
     11       5.3162      1.00000
     12       5.9551      1.00000
     13       5.9551      1.00000
     14       6.0841      1.00000
     15       6.1326      1.00000
     16       6.3897      1.00007
     17       6.7614      1.03520
     18       7.8912     -0.00000
     19       7.8912     -0.00000
     20      12.6571      0.00000
     21      13.1827      0.00000
     22      13.1827      0.00000
     23      14.4660      0.00000
     24      20.2365      0.00000

 k-point   186 :       0.2778    0.2778    0.2778
  band No.  band energies     occupation 
      1      -0.7577      1.00000
      2       2.3963      1.00000
      3       3.1010      1.00000
      4       3.1010      1.00000
      5       3.7964      1.00000
      6       4.2365      1.00000
      7       4.2365      1.00000
      8       4.6305      1.00000
      9       4.9027      1.00000
     10       4.9027      1.00000
     11       5.7802      1.00000
     12       5.9119      1.00000
     13       5.9119      1.00000
     14       6.1814      1.00000
     15       6.1814      1.00000
     16       7.1731     -0.00655
     17       7.5681     -0.00021
     18       8.4572     -0.00000
     19       8.4572     -0.00000
     20      13.2474      0.00000
     21      13.2474      0.00000
     22      13.3160      0.00000
     23      18.2110      0.00000
     24      19.4775      0.00000

 k-point   187 :       0.3333    0.2778    0.2778
  band No.  band energies     occupation 
      1      -0.4157      1.00000
      2       2.2526      1.00000
      3       2.8816      1.00000
      4       3.3272      1.00000
      5       3.9004      1.00000
      6       4.1997      1.00000
      7       4.2985      1.00000
      8       4.6644      1.00000
      9       4.8839      1.00000
     10       4.8921      1.00000
     11       5.6756      1.00000
     12       5.8732      1.00000
     13       5.9288      1.00000
     14       6.1563      1.00000
     15       6.2021      1.00000
     16       7.1483      0.02385
     17       7.3324     -0.01985
     18       8.4074     -0.00000
     19       8.5029     -0.00000
     20      12.5905      0.00000
     21      12.6406      0.00000
     22      13.6624      0.00000
     23      17.4652      0.00000
     24      19.7211      0.00000

 k-point   188 :       0.3889    0.2778    0.2778
  band No.  band energies     occupation 
      1      -0.0443      1.00000
      2       1.9897      1.00000
      3       2.7413      1.00000
      4       3.5437      1.00000
      5       3.9643      1.00000
      6       4.1564      1.00000
      7       4.3773      1.00000
      8       4.6944      1.00000
      9       4.8656      1.00000
     10       4.9154      1.00000
     11       5.5957      1.00000
     12       5.8294      1.00000
     13       5.9623      1.00000
     14       6.1673      1.00000
     15       6.2023      1.00000
     16       6.9654      0.63720
     17       7.1022      0.11954
     18       8.5421     -0.00000
     19       8.5836     -0.00000
     20      12.0119     -0.00000
     21      12.1913     -0.00000
     22      14.0890      0.00000
     23      16.7735      0.00000
     24      19.9471      0.00000

 k-point   189 :       0.4444    0.2778    0.2778
  band No.  band energies     occupation 
      1       0.3096      1.00000
      2       1.6707      1.00000
      3       2.6791      1.00000
      4       3.7189      1.00000
      5       3.9856      1.00000
      6       4.1054      1.00000
      7       4.4857      1.00000
      8       4.6797      1.00000
      9       4.8522      1.00000
     10       4.9461      1.00000
     11       5.5450      1.00000
     12       5.8066      1.00000
     13       6.0071      1.00000
     14       6.1808      1.00000
     15       6.2270      1.00000
     16       6.6450      1.01574
     17       7.0583      0.25863
     18       8.5683     -0.00000
     19       8.7658     -0.00000
     20      11.6095     -0.00000
     21      11.9158     -0.00000
     22      14.5100      0.00000
     23      16.1917      0.00000
     24      20.1132      0.00000

 k-point   190 :       0.5000    0.2778    0.2778
  band No.  band energies     occupation 
      1       0.4908      1.00000
      2       1.4959      1.00000
      3       2.6621      1.00000
      4       3.7966      1.00000
      5       3.9889      1.00000
      6       4.0733      1.00000
      7       4.5670      1.00000
      8       4.6354      1.00000
      9       4.8473      1.00000
     10       4.9583      1.00000
     11       5.5274      1.00000
     12       5.8031      1.00000
     13       6.0345      1.00000
     14       6.1616      1.00000
     15       6.3121      1.00001
     16       6.4642      1.00052
     17       7.0403      0.32672
     18       8.5775     -0.00000
     19       8.8432     -0.00000
     20      11.4605     -0.00000
     21      11.8231     -0.00000
     22      14.7394      0.00000
     23      15.9085      0.00000
     24      20.1752      0.00000

 k-point   191 :       0.3333    0.3333    0.2778
  band No.  band energies     occupation 
      1      -0.0984      1.00000
      2       2.2030      1.00000
      3       2.8477      1.00000
      4       3.3035      1.00000
      5       4.0073      1.00000
      6       4.2123      1.00000
      7       4.3032      1.00000
      8       4.7189      1.00000
      9       4.8985      1.00000
     10       4.9035      1.00000
     11       5.5676      1.00000
     12       5.8717      1.00000
     13       5.9002      1.00000
     14       6.1632      1.00000
     15       6.2079      1.00000
     16       7.1350      0.04607
     17       7.2837     -0.03075
     18       8.1063     -0.00000
     19       8.4613     -0.00000
     20      12.0715     -0.00000
     21      12.9536      0.00000
     22      13.0065      0.00000
     23      16.6983      0.00000
     24      20.2033      0.00000

 k-point   192 :       0.3889    0.3333    0.2778
  band No.  band energies     occupation 
      1       0.2379      1.00000
      2       2.0753      1.00000
      3       2.6993      1.00000
      4       3.4260      1.00000
      5       4.0652      1.00000
      6       4.1982      1.00000
      7       4.3627      1.00000
      8       4.7775      1.00000
      9       4.9118      1.00000
     10       4.9367      1.00000
     11       5.4835      1.00000
     12       5.8431      1.00000
     13       5.9141      1.00000
     14       6.1702      1.00000
     15       6.2225      1.00000
     16       6.9949      0.51437
     17       7.0962      0.13580
     18       8.0887     -0.00000
     19       8.4474     -0.00000
     20      11.7046     -0.00000
     21      12.4227     -0.00000
     22      13.3888      0.00000
     23      15.9972      0.00000
     24      20.4853      0.00000

 k-point   193 :       0.4444    0.3333    0.2778
  band No.  band energies     occupation 
      1       0.5425      1.00000
      2       1.8809      1.00000
      3       2.5990      1.00000
      4       3.5450      1.00000
      5       4.0918      1.00000
      6       4.1644      1.00000
      7       4.4545      1.00000
      8       4.8043      1.00000
      9       4.9187      1.00000
     10       4.9694      1.00000
     11       5.4294      1.00000
     12       5.8322      1.00000
     13       5.9450      1.00000
     14       6.1754      1.00000
     15       6.2700      1.00000
     16       6.6710      1.02138
     17       7.0517      0.28295
     18       8.1772     -0.00000
     19       8.4199     -0.00000
     20      11.5201     -0.00000
     21      12.0314     -0.00000
     22      13.8012      0.00000
     23      15.4082      0.00000
     24      20.6808      0.00000

 k-point   194 :       0.5000    0.3333    0.2778
  band No.  band energies     occupation 
      1       0.6860      1.00000
      2       1.7677      1.00000
      3       2.5692      1.00000
      4       3.5917      1.00000
      5       4.1124      1.00000
      6       4.1362      1.00000
      7       4.4995      1.00000
      8       4.8069      1.00000
      9       4.9205      1.00000
     10       4.9807      1.00000
     11       5.4106      1.00000
     12       5.8354      1.00000
     13       5.9625      1.00000
     14       6.1680      1.00000
     15       6.4031      1.00011
     16       6.4324      1.00023
     17       7.0332      0.35509
     18       8.2287     -0.00000
     19       8.3980     -0.00000
     20      11.4770     -0.00000
     21      11.8786     -0.00000
     22      14.0334      0.00000
     23      15.1171      0.00000
     24      20.7537      0.00000

 k-point   195 :       0.3889    0.3889    0.2778
  band No.  band energies     occupation 
      1       0.5244      1.00000
      2       2.1048      1.00000
      3       2.6139      1.00000
      4       3.3702      1.00000
      5       4.1222      1.00000
      6       4.2686      1.00000
      7       4.3476      1.00000
      8       4.8820      1.00000
      9       4.9606      1.00000
     10       4.9651      1.00000
     11       5.3928      1.00000
     12       5.8605      1.00000
     13       5.8791      1.00000
     14       6.1614      1.00000
     15       6.2469      1.00000
     16       6.8887      0.89541
     17       7.0449      0.30881
     18       7.8557     -0.00000
     19       8.2906     -0.00000
     20      11.5419     -0.00000
     21      12.7546      0.00000
     22      12.8261      0.00000
     23      15.2951      0.00000
     24      20.8127      0.00000

 k-point   196 :       0.4444    0.3889    0.2778
  band No.  band energies     occupation 
      1       0.7645      1.00000
      2       2.0752      1.00000
      3       2.5206      1.00000
      4       3.3710      1.00000
      5       4.1601      1.00000
      6       4.2631      1.00000
      7       4.4076      1.00000
      8       4.9532      1.00000
      9       4.9866      1.00000
     10       5.0006      1.00000
     11       5.3327      1.00000
     12       5.8671      1.00000
     13       5.8976      1.00000
     14       6.1554      1.00000
     15       6.2850      1.00000
     16       6.6425      1.01525
     17       6.9985      0.49932
     18       7.8565     -0.00000
     19       8.1235     -0.00000
     20      11.5602     -0.00000
     21      12.3241     -0.00000
     22      13.1816      0.00000
     23      14.7074      0.00000
     24      21.0359      0.00000

 k-point   197 :       0.5000    0.3889    0.2778
  band No.  band energies     occupation 
      1       0.8663      1.00000
      2       2.0434      1.00000
      3       2.4844      1.00000
      4       3.3788      1.00000
      5       4.1813      1.00000
      6       4.2442      1.00000
      7       4.4438      1.00000
      8       4.9783      1.00000
      9       4.9937      1.00000
     10       5.0123      1.00000
     11       5.3114      1.00000
     12       5.8803      1.00000
     13       5.9115      1.00000
     14       6.1492      1.00000
     15       6.3881      1.00007
     16       6.4337      1.00024
     17       6.9806      0.57486
     18       7.9364     -0.00000
     19       8.0002     -0.00000
     20      11.6333     -0.00000
     21      12.1052     -0.00000
     22      13.4079      0.00000
     23      14.4150      0.00000
     24      21.1195      0.00000

 k-point   198 :       0.4444    0.4444    0.2778
  band No.  band energies     occupation 
      1       0.9336      1.00000
      2       2.2229      1.00000
      3       2.4528      1.00000
      4       3.2378      1.00000
      5       4.1949      1.00000
      6       4.3513      1.00000
      7       4.3830      1.00000
      8       5.0274      1.00000
      9       5.0339      1.00000
     10       5.0654      1.00000
     11       5.2646      1.00000
     12       5.9007      1.00000
     13       5.9152      1.00000
     14       6.1260      1.00000
     15       6.2891      1.00000
     16       6.5131      1.00160
     17       6.9327      0.76191
     18       7.7266     -0.00000
     19       7.8946     -0.00000
     20      11.7306     -0.00000
     21      12.6399      0.00000
     22      12.7069      0.00000
     23      14.1269      0.00000
     24      21.2747      0.00000

 k-point   199 :       0.5000    0.4444    0.2778
  band No.  band energies     occupation 
      1       0.9989      1.00000
      2       2.2838      1.00000
      3       2.4205      1.00000
      4       3.1859      1.00000
      5       4.2069      1.00000
      6       4.3534      1.00000
      7       4.4095      1.00000
      8       5.0467      1.00000
      9       5.0472      1.00000
     10       5.0982      1.00000
     11       5.2388      1.00000
     12       5.9311      1.00000
     13       5.9419      1.00000
     14       6.1062      1.00000
     15       6.3403      1.00002
     16       6.3643      1.00003
     17       6.9094      0.83825
     18       7.7517     -0.00000
     19       7.7614     -0.00000
     20      11.8818     -0.00000
     21      12.4111     -0.00000
     22      12.8854      0.00000
     23      13.8401      0.00000
     24      21.3637      0.00000

 k-point   200 :       0.5000    0.5000    0.2778
  band No.  band energies     occupation 
      1       1.0487      1.00000
      2       2.3957      1.00000
      3       2.3957      1.00000
      4       3.0918      1.00000
      5       4.2149      1.00000
      6       4.3982      1.00000
      7       4.3982      1.00000
      8       5.0661      1.00000
      9       5.0661      1.00000
     10       5.1340      1.00000
     11       5.2097      1.00000
     12       5.9922      1.00000
     13       5.9922      1.00000
     14       6.0631      1.00000
     15       6.2720      1.00000
     16       6.3186      1.00001
     17       6.8812      0.91347
     18       7.6900     -0.00001
     19       7.6900     -0.00001
     20      12.0744     -0.00000
     21      12.6025      0.00000
     22      12.6025      0.00000
     23      13.5615      0.00000
     24      21.4545      0.00000

 k-point   201 :       0.3333    0.3333    0.3333
  band No.  band energies     occupation 
      1       0.1866      1.00000
      2       2.1580      1.00000
      3       3.0655      1.00000
      4       3.0655      1.00000
      5       4.1205      1.00000
      6       4.2635      1.00000
      7       4.2635      1.00000
      8       4.8242      1.00000
      9       4.9229      1.00000
     10       4.9229      1.00000
     11       5.4611      1.00000
     12       5.8689      1.00000
     13       5.8689      1.00000
     14       6.1920      1.00000
     15       6.1920      1.00000
     16       7.1506      0.02058
     17       7.3114     -0.02466
     18       8.0376     -0.00000
     19       8.0376     -0.00000
     20      12.3084     -0.00000
     21      12.4135     -0.00000
     22      12.4135     -0.00000
     23      15.9219      0.00000
     24      21.2703      0.00000

 k-point   202 :       0.3889    0.3333    0.3333
  band No.  band energies     occupation 
      1       0.4761      1.00000
      2       2.1072      1.00000
      3       2.8238      1.00000
      4       3.2599      1.00000
      5       4.1755      1.00000
      6       4.2420      1.00000
      7       4.3450      1.00000
      8       4.9294      1.00000
      9       4.9414      1.00000
     10       4.9599      1.00000
     11       5.3776      1.00000
     12       5.8426      1.00000
     13       5.8774      1.00000
     14       6.2002      1.00000
     15       6.2003      1.00000
     16       7.0647      0.23555
     17       7.1262      0.06309
     18       7.9585     -0.00000
     19       7.9831     -0.00000
     20      11.8151     -0.00000
     21      12.0277     -0.00000
     22      12.7511      0.00000
     23      15.2190      0.00000
     24      21.5066      0.00000

 k-point   203 :       0.4444    0.3333    0.3333
  band No.  band energies     occupation 
      1       0.7185      1.00000
      2       2.0488      1.00000
      3       2.6363      1.00000
      4       3.3950      1.00000
      5       4.1850      1.00000
      6       4.2366      1.00000
      7       4.4371      1.00000
      8       4.9536      1.00000
      9       4.9800      1.00000
     10       5.0029      1.00000
     11       5.3230      1.00000
     12       5.8450      1.00000
     13       5.8948      1.00000
     14       6.1891      1.00000
     15       6.2619      1.00000
     16       6.7269      1.03322
     17       7.0874      0.16139
     18       7.9517     -0.00000
     19       8.0277     -0.00000
     20      11.4694     -0.00000
     21      11.7990     -0.00000
     22      13.1430      0.00000
     23      14.6274      0.00000
     24      21.6780      0.00000

 k-point   204 :       0.5000    0.3333    0.3333
  band No.  band energies     occupation 
      1       0.8210      1.00000
      2       2.0150      1.00000
      3       2.5661      1.00000
      4       3.4433      1.00000
      5       4.1856      1.00000
      6       4.2373      1.00000
      7       4.4771      1.00000
      8       4.9580      1.00000
      9       4.9902      1.00000
     10       5.0194      1.00000
     11       5.3036      1.00000
     12       5.8551      1.00000
     13       5.9053      1.00000
     14       6.1793      1.00000
     15       6.3715      1.00004
     16       6.5069      1.00140
     17       7.0692      0.21996
     18       7.9420     -0.00000
     19       8.0648     -0.00000
     20      11.3467     -0.00000
     21      11.7236     -0.00000
     22      13.3765      0.00000
     23      14.3278      0.00000
     24      21.7416      0.00000

 k-point   205 :       0.3889    0.3889    0.3333
  band No.  band energies     occupation 
      1       0.7012      1.00000
      2       2.1474      1.00000
      3       2.8209      1.00000
      4       3.1940      1.00000
      5       4.2409      1.00000
      6       4.3192      1.00000
      7       4.3415      1.00000
      8       4.9763      1.00000
      9       4.9860      1.00000
     10       5.0844      1.00000
     11       5.2929      1.00000
     12       5.8459      1.00000
     13       5.8512      1.00000
     14       6.1816      1.00000
     15       6.2140      1.00000
     16       6.9821      0.56854
     17       7.1123      0.09402
     18       7.6900     -0.00001
     19       7.8652     -0.00000
     20      11.5764     -0.00000
     21      12.2236     -0.00000
     22      12.2668     -0.00000
     23      14.5219      0.00000
     24      22.0101      0.00000

 k-point   206 :       0.4444    0.3889    0.3333
  band No.  band energies     occupation 
      1       0.8695      1.00000
      2       2.2119      1.00000
      3       2.6710      1.00000
      4       3.2441      1.00000
      5       4.2781      1.00000
      6       4.3225      1.00000
      7       4.4220      1.00000
      8       4.9974      1.00000
      9       5.0090      1.00000
     10       5.1871      1.00000
     11       5.2357      1.00000
     12       5.8561      1.00000
     13       5.8636      1.00000
     14       6.1689      1.00000
     15       6.2423      1.00000
     16       6.7279      1.03337
     17       7.0757      0.19821
     18       7.6568     -0.00002
     19       7.7827     -0.00000
     20      11.4144     -0.00000
     21      11.9062     -0.00000
     22      12.5908      0.00000
     23      13.9378      0.00000
     24      22.2407      0.00000

 k-point   207 :       0.5000    0.3889    0.3333
  band No.  band energies     occupation 
      1       0.9331      1.00000
      2       2.2630      1.00000
      3       2.5750      1.00000
      4       3.2722      1.00000
      5       4.2944      1.00000
      6       4.3197      1.00000
      7       4.4602      1.00000
      8       5.0062      1.00000
      9       5.0144      1.00000
     10       5.2148      1.00000
     11       5.2179      1.00000
     12       5.8632      1.00000
     13       5.8827      1.00000
     14       6.1597      1.00000
     15       6.3041      1.00001
     16       6.5531      1.00360
     17       7.0579      0.25982
     18       7.6900     -0.00001
     19       7.7334     -0.00000
     20      11.3690     -0.00000
     21      11.7822     -0.00000
     22      12.8133      0.00000
     23      13.6371      0.00000
     24      22.3195      0.00000

 k-point   208 :       0.4444    0.4444    0.3333
  band No.  band energies     occupation 
      1       0.9711      1.00000
      2       2.3709      1.00000
      3       2.6528      1.00000
      4       3.1379      1.00000
      5       4.3465      1.00000
      6       4.4058      1.00000
      7       4.4137      1.00000
      8       5.0280      1.00000
      9       5.0339      1.00000
     10       5.1739      1.00000
     11       5.3080      1.00000
     12       5.8770      1.00000
     13       5.8959      1.00000
     14       6.1265      1.00000
     15       6.2329      1.00000
     16       6.6142      1.01024
     17       7.0284      0.37425
     18       7.5147     -0.00080
     19       7.6217     -0.00005
     20      11.4409     -0.00000
     21      12.1608     -0.00000
     22      12.1850     -0.00000
     23      13.3673      0.00000
     24      22.5192      0.00000

 k-point   209 :       0.5000    0.4444    0.3333
  band No.  band energies     occupation 
      1       1.0067      1.00000
      2       2.4826      1.00000
      3       2.5876      1.00000
      4       3.1045      1.00000
      5       4.3775      1.00000
      6       4.3990      1.00000
      7       4.4500      1.00000
      8       5.0406      1.00000
      9       5.0431      1.00000
     10       5.1497      1.00000
     11       5.3380      1.00000
     12       5.9045      1.00000
     13       5.9305      1.00000
     14       6.1025      1.00000
     15       6.2495      1.00000
     16       6.4995      1.00119
     17       7.0071      0.46296
     18       7.5264     -0.00061
     19       7.5282     -0.00058
     20      11.4964     -0.00000
     21      11.9862     -0.00000
     22      12.3700     -0.00000
     23      13.0729      0.00000
     24      22.6127      0.00000

 k-point   210 :       0.5000    0.5000    0.3333
  band No.  band energies     occupation 
      1       1.0322      1.00000
      2       2.5934      1.00000
      3       2.5934      1.00000
      4       3.0122      1.00000
      5       4.4010      1.00000
      6       4.4448      1.00000
      7       4.4448      1.00000
      8       5.0564      1.00000
      9       5.0564      1.00000
     10       5.1219      1.00000
     11       5.3607      1.00000
     12       5.9806      1.00000
     13       5.9806      1.00000
     14       6.0436      1.00000
     15       6.2298      1.00000
     16       6.4177      1.00016
     17       6.9815      0.57109
     18       7.4714     -0.00207
     19       7.4714     -0.00207
     20      11.6036     -0.00000
     21      12.1587     -0.00000
     22      12.1587     -0.00000
     23      12.7833      0.00000
     24      22.7111      0.00000

 k-point   211 :       0.3889    0.3889    0.3889
  band No.  band energies     occupation 
      1       0.8503      1.00000
      2       2.2337      1.00000
      3       2.9977      1.00000
      4       2.9977      1.00000
      5       4.3474      1.00000
      6       4.3692      1.00000
      7       4.3692      1.00000
      8       5.0050      1.00000
      9       5.0050      1.00000
     10       5.2131      1.00000
     11       5.2820      1.00000
     12       5.8281      1.00000
     13       5.8281      1.00000
     14       6.1792      1.00000
     15       6.1792      1.00000
     16       6.9633      0.64591
     17       7.1335      0.04878
     18       7.5543     -0.00030
     19       7.5543     -0.00030
     20      11.5858     -0.00000
     21      11.9263     -0.00000
     22      11.9263     -0.00000
     23      13.8393      0.00000
     24      23.1008      0.00000

 k-point   212 :       0.4444    0.3889    0.3889
  band No.  band energies     occupation 
      1       0.9479      1.00000
      2       2.3645      1.00000
      3       2.7981      1.00000
      4       3.1143      1.00000
      5       4.3805      1.00000
      6       4.4152      1.00000
      7       4.4581      1.00000
      8       5.0208      1.00000
      9       5.0212      1.00000
     10       5.1583      1.00000
     11       5.4117      1.00000
     12       5.8122      1.00000
     13       5.8506      1.00000
     14       6.1585      1.00000
     15       6.1766      1.00000
     16       6.7622      1.03514
     17       7.1124      0.09383
     18       7.4697     -0.00214
     19       7.4867     -0.00149
     20      11.3496     -0.00000
     21      11.7281     -0.00000
     22      12.1349     -0.00000
     23      13.2728      0.00000
     24      23.2801      0.00000

 k-point   213 :       0.5000    0.3889    0.3889
  band No.  band energies     occupation 
      1       0.9814      1.00000
      2       2.4740      1.00000
      3       2.6659      1.00000
      4       3.1543      1.00000
      5       4.3892      1.00000
      6       4.4392      1.00000
      7       4.4989      1.00000
      8       5.0226      1.00000
      9       5.0279      1.00000
     10       5.1375      1.00000
     11       5.4470      1.00000
     12       5.8053      1.00000
     13       5.8800      1.00000
     14       6.1456      1.00000
     15       6.2071      1.00000
     16       6.6202      1.01119
     17       7.0957      0.13730
     18       7.4680     -0.00222
     19       7.4709     -0.00209
     20      11.2499     -0.00000
     21      11.6634     -0.00000
     22      12.3315     -0.00000
     23      12.9749      0.00000
     24      23.3461      0.00000

 k-point   214 :       0.4444    0.4444    0.3889
  band No.  band energies     occupation 
      1       0.9945      1.00000
      2       2.5279      1.00000
      3       2.8205      1.00000
      4       3.0356      1.00000
      5       4.4709      1.00000
      6       4.4919      1.00000
      7       4.5076      1.00000
      8       5.0345      1.00000
      9       5.0346      1.00000
     10       5.1042      1.00000
     11       5.5428      1.00000
     12       5.8234      1.00000
     13       5.8490      1.00000
     14       6.1050      1.00000
     15       6.1485      1.00000
     16       6.6854      1.02470
     17       7.0966      0.13464
     18       7.3271     -0.02105
     19       7.3703     -0.01224
     20      11.2711     -0.00000
     21      11.7961     -0.00000
     22      11.8713     -0.00000
     23      12.7341      0.00000
     24      23.7479      0.00000

 k-point   215 :       0.5000    0.4444    0.3889
  band No.  band energies     occupation 
      1       1.0097      1.00000
      2       2.6570      1.00000
      3       2.7335      1.00000
      4       3.0322      1.00000
      5       4.4961      1.00000
      6       4.5248      1.00000
      7       4.5457      1.00000
      8       5.0346      1.00000
      9       5.0425      1.00000
     10       5.0822      1.00000
     11       5.5579      1.00000
     12       5.8319      1.00000
     13       5.8883      1.00000
     14       6.0808      1.00000
     15       6.1462      1.00000
     16       6.6031      1.00863
     17       7.0785      0.18922
     18       7.3126     -0.02440
     19       7.3282     -0.02081
     20      11.2378     -0.00000
     21      11.7254     -0.00000
     22      11.9898     -0.00000
     23      12.4496     -0.00000
     24      23.8556      0.00000

 k-point   216 :       0.5000    0.5000    0.3889
  band No.  band energies     occupation 
      1       1.0190      1.00000
      2       2.7585      1.00000
      3       2.7585      1.00000
      4       2.9517      1.00000
      5       4.5473      1.00000
      6       4.5473      1.00000
      7       4.5789      1.00000
      8       5.0447      1.00000
      9       5.0447      1.00000
     10       5.0568      1.00000
     11       5.5512      1.00000
     12       5.9037      1.00000
     13       5.9037      1.00000
     14       6.0277      1.00000
     15       6.1323      1.00000
     16       6.5580      1.00395
     17       7.0568      0.26401
     18       7.2805     -0.03138
     19       7.2805     -0.03138
     20      11.2569     -0.00000
     21      11.8539     -0.00000
     22      11.8539     -0.00000
     23      12.1678     -0.00000
     24      23.9843      0.00000

 k-point   217 :       0.4444    0.4444    0.4444
  band No.  band energies     occupation 
      1       1.0067      1.00000
      2       2.6762      1.00000
      3       2.9293      1.00000
      4       2.9293      1.00000
      5       4.5835      1.00000
      6       4.5951      1.00000
      7       4.5951      1.00000
      8       5.0347      1.00000
      9       5.0347      1.00000
     10       5.0567      1.00000
     11       5.7078      1.00000
     12       5.7805      1.00000
     13       5.7805      1.00000
     14       6.0757      1.00000
     15       6.0757      1.00000
     16       6.6830      1.02415
     17       7.1229      0.07005
     18       7.2188     -0.03274
     19       7.2188     -0.03274
     20      11.1482     -0.00000
     21      11.6903     -0.00000
     22      11.6903     -0.00000
     23      12.2478     -0.00000
     24      24.8384      0.00000

 k-point   218 :       0.5000    0.4444    0.4444
  band No.  band energies     occupation 
      1       1.0104      1.00000
      2       2.7899      1.00000
      3       2.8312      1.00000
      4       2.9664      1.00000
      5       4.6200      1.00000
      6       4.6476      1.00000
      7       4.6493      1.00000
      8       5.0274      1.00000
      9       5.0354      1.00000
     10       5.0369      1.00000
     11       5.7108      1.00000
     12       5.7416      1.00000
     13       5.8222      1.00000
     14       6.0489      1.00000
     15       6.0634      1.00000
     16       6.6569      1.01824
     17       7.1132      0.09188
     18       7.1792     -0.01213
     19       7.2010     -0.02643
     20      11.0914     -0.00000
     21      11.6315     -0.00000
     22      11.7569     -0.00000
     23      11.9966     -0.00000
     24      24.9141      0.00000

 k-point   219 :       0.5000    0.5000    0.4444
  band No.  band energies     occupation 
      1       1.0104      1.00000
      2       2.8651      1.00000
      3       2.8651      1.00000
      4       2.9141      1.00000
      5       4.6864      1.00000
      6       4.6864      1.00000
      7       4.7156      1.00000
      8       5.0168      1.00000
      9       5.0240      1.00000
     10       5.0240      1.00000
     11       5.6765      1.00000
     12       5.7847      1.00000
     13       5.7847      1.00000
     14       6.0175      1.00000
     15       6.0486      1.00000
     16       6.6679      1.02067
     17       7.1034      0.11621
     18       7.1590      0.00911
     19       7.1590      0.00911
     20      11.0443     -0.00000
     21      11.6785     -0.00000
     22      11.6785     -0.00000
     23      11.7639     -0.00000
     24      25.1978      0.00000

 k-point   220 :       0.5000    0.5000    0.5000
  band No.  band energies     occupation 
      1       1.0075      1.00000
      2       2.9014      1.00000
      3       2.9014      1.00000
      4       2.9014      1.00000
      5       4.7687      1.00000
      6       4.7687      1.00000
      7       4.7687      1.00000
      8       5.0033      1.00000
      9       5.0033      1.00000
     10       5.0033      1.00000
     11       5.7198      1.00000
     12       5.7198      1.00000
     13       5.7198      1.00000
     14       6.0139      1.00000
     15       6.0139      1.00000
     16       6.7110      1.03035
     17       7.1192      0.07798
     18       7.1192      0.07798
     19       7.1192      0.07798
     20      10.9727     -0.00000
     21      11.6216     -0.00000
     22      11.6216     -0.00000
     23      11.6216     -0.00000
     24      25.8952      0.00000


--------------------------------------------------------------------------------------------------------


 soft charge-density along one line, spin component           1
         0         1         2         3         4         5         6         7         8         9
 total charge-density along one line
 
 soft charge-density along one line, spin component           2
         0         1         2         3         4         5         6         7         8         9
 total charge-density along one line
 
 pseudopotential strength for first ion, spin component:           1
  8.456  -0.006   0.000   0.000   0.000   0.000   0.000  -0.000
 -0.006   0.000   0.000   0.000  -0.000  -0.000  -0.000   0.000
  0.000   0.000   1.996   0.000   0.000  -0.028  -0.000  -0.000
  0.000   0.000   0.000   1.996   0.000  -0.000  -0.028  -0.000
  0.000  -0.000   0.000   0.000   1.996  -0.000  -0.000  -0.028
  0.000  -0.000  -0.028  -0.000  -0.000  -0.012  -0.000  -0.000
  0.000  -0.000  -0.000  -0.028  -0.000  -0.000  -0.012  -0.000
 -0.000   0.000  -0.000  -0.000  -0.028  -0.000  -0.000  -0.012
 pseudopotential strength for first ion, spin component:           2
  8.457  -0.006   0.000   0.000   0.000   0.000   0.000  -0.000
 -0.006   0.000   0.000   0.000  -0.000  -0.000  -0.000   0.000
  0.000   0.000   1.996   0.000   0.000  -0.028  -0.000  -0.000
  0.000   0.000   0.000   1.996   0.000  -0.000  -0.028  -0.000
  0.000  -0.000   0.000   0.000   1.996  -0.000  -0.000  -0.028
  0.000  -0.000  -0.028  -0.000  -0.000  -0.012  -0.000  -0.000
  0.000  -0.000  -0.000  -0.028  -0.000  -0.000  -0.012  -0.000
 -0.000   0.000  -0.000  -0.000  -0.028  -0.000  -0.000  -0.012
 total augmentation occupancy for first ion, spin component:           1
  1.233  -0.928   0.000   0.000   0.000   0.000   0.000   0.000
 -0.928   0.852   0.000   0.000   0.000   0.000   0.000   0.000
  0.000   0.000   0.905   0.000  -0.000  -0.229   0.000   0.000
  0.000   0.000  -0.000   0.905   0.000  -0.000  -0.229  -0.000
  0.000   0.000  -0.000  -0.000   0.905   0.000   0.000  -0.229
  0.000   0.000  -0.229  -0.000  -0.000   0.061  -0.000  -0.000
  0.000   0.000  -0.000  -0.229   0.000   0.000   0.061   0.000
  0.000   0.000   0.000   0.000  -0.229  -0.000  -0.000   0.061
 total augmentation occupancy for first ion, spin component:           2
 -0.000   0.011   0.000   0.000   0.000   0.000   0.000   0.000
  0.011  -0.012   0.000   0.000   0.000   0.000   0.000   0.000
  0.000   0.000  -0.017  -0.000   0.000   0.004   0.000   0.000
  0.000   0.000   0.000  -0.017   0.000   0.000   0.004  -0.000
  0.000   0.000  -0.000  -0.000  -0.017   0.000  -0.000   0.004
  0.000   0.000   0.004   0.000   0.000  -0.001  -0.000  -0.000
  0.000   0.000   0.000   0.004   0.000  -0.000  -0.001   0.000
  0.000   0.000   0.000   0.000   0.004  -0.000   0.000  -0.001


------------------------ aborting loop because EDIFF is reached ----------------------------------------


    CHARGE:  cpu time      0.1600: real time      0.1589
    FORLOC:  cpu time      0.0010: real time      0.0007
    FORNL :  cpu time      0.4579: real time      0.4581
    STRESS:  cpu time      1.0648: real time      1.0641
    FORCOR:  cpu time      0.0120: real time      0.0124
    FORHAR:  cpu time      0.0020: real time      0.0017
    MIXING:  cpu time      0.0010: real time      0.0014
    OFIELD:  cpu time      0.0000: real time      0.0002

  FORCE on cell =-STRESS in cart. coord.  units (eV):
  Direction    XX          YY          ZZ          XY          YZ          ZX
  --------------------------------------------------------------------------------------
  Alpha Z   237.99578   237.99578   237.99578
  Ewald    -920.62657  -920.62657  -920.62657    -0.00000     0.00000     0.00000
  Hartree   275.06002   275.06002   275.06002    -0.00000    -0.00000    -0.00000
  E(xc)    -175.70247  -175.70247  -175.70247    -0.00000    -0.00000    -0.00000
  Local     256.06593   256.06593   256.06593     0.00000    -0.00000     0.00000
  n-local   -76.43339   -80.54256   -80.80155     0.65463     1.34379     0.66727
  augment   154.51722   154.51722   154.51722     0.00000     0.00000     0.00000
  Kinetic   263.96475   256.25932   250.27963    -1.58167    -0.67219    -1.07521
  Fock        0.00000     0.00000     0.00000     0.00000     0.00000     0.00000
  -------------------------------------------------------------------------------------
  Total       4.88531     4.88531     4.88531     0.00000    -0.00000     0.00000
  in kB     187.33286   187.33286   187.33286     0.00000    -0.00000     0.00000
  external pressure =      187.33 kB  Pullay stress =        0.00 kB


 VOLUME and BASIS-vectors are now :
 -----------------------------------------------------------------------------
  energy-cutoff  :      600.00
  volume of cell :       41.78
      direct lattice vectors                 reciprocal lattice vectors
     3.470000000  0.000000000  0.000000000     0.288184438  0.000000000  0.000000000
     0.000000000  3.470000000  0.000000000     0.000000000  0.288184438  0.000000000
     0.000000000  0.000000000  3.470000000     0.000000000  0.000000000  0.288184438

  length of vectors
     3.470000000  3.470000000  3.470000000     0.288184438  0.288184438  0.288184438


 FORCES acting on ions
    electron-ion (+dipol)            ewald-force                    non-local-force                 convergence-correction
 -----------------------------------------------------------------------------------------------
   -.124E-13 -.131E-13 -.108E-13   -.508E-14 0.232E-14 -.315E-14   0.000E+00 0.000E+00 0.000E+00   -.211E-15 0.198E-15 0.316E-14
   0.394E-12 -.437E-13 0.692E-11   0.120E-13 0.468E-14 0.424E-14   0.000E+00 0.000E+00 0.000E+00   0.585E-14 -.869E-14 -.550E-13
   0.394E-12 0.333E-11 0.230E-11   0.992E-15 -.261E-14 -.468E-14   0.000E+00 0.000E+00 0.000E+00   -.108E-13 -.522E-14 0.520E-15
   -.506E-13 0.399E-12 0.399E-12   -.102E-13 -.489E-14 0.461E-14   0.000E+00 0.000E+00 0.000E+00   0.773E-15 -.579E-14 -.679E-13
 -----------------------------------------------------------------------------------------------
   0.725E-12 0.367E-11 0.960E-11   -.233E-14 -.507E-15 0.102E-14   0.000E+00 0.000E+00 0.000E+00   -.437E-14 -.195E-13 -.119E-12
 
 
 POSITION                                       TOTAL-FORCE (eV/Angst)
 -----------------------------------------------------------------------------------
      0.00000      0.00000      0.00000         0.000000      0.000000      0.000000
      1.73500      0.00000      1.73500         0.000000      0.000000      0.000000
      1.73500      1.73500      0.00000         0.000000      0.000000      0.000000
      0.00000      1.73500      1.73500         0.000000      0.000000      0.000000
 -----------------------------------------------------------------------------------
    total drift:                                0.000000      0.000000      0.000000


--------------------------------------------------------------------------------------------------------



  FREE ENERGIE OF THE ION-ELECTRON SYSTEM (eV)
  ---------------------------------------------------
  free  energy   TOTEN  =       -22.01201136 eV

  energy  without entropy=      -22.01380406  energy(sigma->0) =      -22.01260893
 


--------------------------------------------------------------------------------------------------------


    POTLOK:  cpu time      0.5569: real time      0.5564


--------------------------------------------------------------------------------------------------------




--------------------------------------------------------------------------------------------------------


  
 reached required accuracy - stopping structural energy minimisation
     LOOP+:  cpu time     83.6753: real time     85.8416
    4ORBIT:  cpu time      0.0000: real time      0.0000

 total amount of memory used by VASP MPI-rank0    66608. kBytes
=======================================================================

   base      :      30000. kBytes
   nonl-proj :      23213. kBytes
   fftplans  :       1332. kBytes
   grid      :       1219. kBytes
   one-center:         31. kBytes
   wavefun   :      10813. kBytes
 
  
  
 General timing and accounting informations for this job:
 ========================================================
  
                  Total CPU time used (sec):       87.224
                            User time (sec):       79.408
                          System time (sec):        7.816
                         Elapsed time (sec):       89.508
  
                   Maximum memory used (kb):      128204.
                   Average memory used (kb):          N/A
  
                          Minor page faults:        85498
                          Major page faults:            6
                 Voluntary context switches:         1323
