
     Program PWSCF v.6.7MaX starts on  4Aug2026 at 12:47:22 

     This program is part of the open-source Quantum ESPRESSO suite
     for quantum simulation of materials; please cite
         "P. Giannozzi et al., J. Phys.:Condens. Matter 21 395502 (2009);
         "P. Giannozzi et al., J. Phys.:Condens. Matter 29 465901 (2017);
          URL http://www.quantum-espresso.org", 
     in publications or presentations arising from this work. More details at
     http://www.quantum-espresso.org/quote

     Parallel version (MPI), running on     1 processors

     MPI processes distributed on     1 nodes
     Reading input from espresso.pwi
Warning: card &CELL ignored
Warning: card    CELL_DYNAMICS    = 'BFGS' ignored
Warning: card    PRESS_CONV_THR   = 0.1 ignored
Warning: card / ignored
Warning: card &FCP ignored
Warning: card / ignored
Warning: card &RISM ignored
Warning: card / ignored

     Current dimensions of program PWSCF are:
     Max number of different atomic species (ntypx) = 10
     Max number of k-points (npk) =  40000
     Max angular momentum in pseudopotentials (lmaxx) =  3
     file Al.pbe-n-kjpaw_psl.1.0.0.UPF: wavefunction(s)  3S 3P renormalized
     file Ni.pbe-spn-kjpaw_psl.1.0.0.UPF: wavefunction(s)  3P 3D renormalized

     IMPORTANT: XC functional enforced from input :
     Exchange-correlation= PBE
                           (   1   4   3   4   0   0   0)
     Any further DFT definition will be discarded
     Please, verify this is what you really want


     Subspace diagonalization in iterative solution of the eigenvalue problem:
     a serial algorithm will be used

     Message from routine setup:
     using ibrav=0 with symmetry is DISCOURAGED, use correct ibrav instead

     G-vector sticks info
     --------------------
     sticks:   dense  smooth     PW     G-vecs:    dense   smooth      PW
     Sum        1793    1153    349                57777    29423    4801



     bravais-lattice index     =            0
     lattice parameter (alat)  =       6.7463  a.u.
     unit-cell volume          =     307.0444 (a.u.)^3
     number of atoms/cell      =            4
     number of atomic types    =            2
     number of electrons       =        57.00
     number of Kohn-Sham states=           35
     kinetic-energy cutoff     =      80.0000  Ry
     charge density cutoff     =     500.0000  Ry
     scf convergence threshold =      1.0E-08
     mixing beta               =       0.7000
     number of iterations used =            8  local-TF  mixing
     energy convergence thresh.=      1.0E-04
     force convergence thresh. =      1.0E-03
     Exchange-correlation= PBE
                           (   1   4   3   4   0   0   0)
     nstep                     =           50


     celldm(1)=   6.746322  celldm(2)=   0.000000  celldm(3)=   0.000000
     celldm(4)=   0.000000  celldm(5)=   0.000000  celldm(6)=   0.000000

     crystal axes: (cart. coord. in units of alat)
               a(1) = (   1.000000   0.000000   0.000000 )  
               a(2) = (   0.000000   1.000000   0.000000 )  
               a(3) = (   0.000000   0.000000   1.000000 )  

     reciprocal axes: (cart. coord. in units 2 pi/alat)
               b(1) = (  1.000000  0.000000  0.000000 )  
               b(2) = (  0.000000  1.000000  0.000000 )  
               b(3) = (  0.000000  0.000000  1.000000 )  


     PseudoPot. # 1 for Al read from file:
     /content/Al.pbe-n-kjpaw_psl.1.0.0.UPF
     MD5 check sum: 502b6b27b9c6270cab5dd1084b96fa6d
     Pseudo is Projector augmented-wave + core cor, Zval =  3.0
     Generated using &quot;atomic&quot; code by A. Dal Corso  v.6.3
     Shape of augmentation charge: PSQ
     Using radial grid of 1135 points,  6 beta functions with: 
                l(1) =   0
                l(2) =   0
                l(3) =   1
                l(4) =   1
                l(5) =   2
                l(6) =   2
     Q(r) pseudized with 0 coefficients 


     PseudoPot. # 2 for Ni read from file:
     /content/Ni.pbe-spn-kjpaw_psl.1.0.0.UPF
     MD5 check sum: 6e86b733589c3ad8389697b807d86aa7
     Pseudo is Projector augmented-wave + core cor, Zval = 18.0
     Generated using &quot;atomic&quot; code by A. Dal Corso  v.6.3
     Shape of augmentation charge: PSQ
     Using radial grid of 1195 points,  6 beta functions with: 
                l(1) =   0
                l(2) =   0
                l(3) =   1
                l(4) =   1
                l(5) =   2
                l(6) =   2
     Q(r) pseudized with 0 coefficients 


     atomic species   valence    mass     pseudopotential
        Al             3.00    26.98154     Al( 1.00)
        Ni            18.00    58.69340     Ni( 1.00)

     Starting magnetic structure 
     atomic species   magnetization
        Al           0.000
        Ni           0.000

     48 Sym. Ops., with inversion, found



   Cartesian axes

     site n.     atom                  positions (alat units)
         1           Al  tau(   1) = (   0.0000000   0.0000000   0.0000000  )
         2           Ni  tau(   2) = (   0.5000000   0.0000000   0.5000000  )
         3           Ni  tau(   3) = (   0.5000000   0.5000000   0.0000000  )
         4           Ni  tau(   4) = (   0.0000000   0.5000000   0.5000000  )

     number of k points=    35  Methfessel-Paxton smearing, width (Ry)=  0.0150
                       cart. coord. in units 2pi/alat
        k(    1) = (   0.0000000   0.0000000   0.0000000), wk =   0.0019531
        k(    2) = (   0.0000000   0.0000000   0.1250000), wk =   0.0117188
        k(    3) = (   0.0000000   0.0000000   0.2500000), wk =   0.0117188
        k(    4) = (   0.0000000   0.0000000   0.3750000), wk =   0.0117188
        k(    5) = (   0.0000000   0.0000000  -0.5000000), wk =   0.0058594
        k(    6) = (   0.0000000   0.1250000   0.1250000), wk =   0.0234375
        k(    7) = (   0.0000000   0.1250000   0.2500000), wk =   0.0468750
        k(    8) = (   0.0000000   0.1250000   0.3750000), wk =   0.0468750
        k(    9) = (   0.0000000   0.1250000  -0.5000000), wk =   0.0234375
        k(   10) = (   0.0000000   0.2500000   0.2500000), wk =   0.0234375
        k(   11) = (   0.0000000   0.2500000   0.3750000), wk =   0.0468750
        k(   12) = (   0.0000000   0.2500000  -0.5000000), wk =   0.0234375
        k(   13) = (   0.0000000   0.3750000   0.3750000), wk =   0.0234375
        k(   14) = (   0.0000000   0.3750000  -0.5000000), wk =   0.0234375
        k(   15) = (   0.0000000  -0.5000000  -0.5000000), wk =   0.0058594
        k(   16) = (   0.1250000   0.1250000   0.1250000), wk =   0.0156250
        k(   17) = (   0.1250000   0.1250000   0.2500000), wk =   0.0468750
        k(   18) = (   0.1250000   0.1250000   0.3750000), wk =   0.0468750
        k(   19) = (   0.1250000   0.1250000  -0.5000000), wk =   0.0234375
        k(   20) = (   0.1250000   0.2500000   0.2500000), wk =   0.0468750
        k(   21) = (   0.1250000   0.2500000   0.3750000), wk =   0.0937500
        k(   22) = (   0.1250000   0.2500000  -0.5000000), wk =   0.0468750
        k(   23) = (   0.1250000   0.3750000   0.3750000), wk =   0.0468750
        k(   24) = (   0.1250000   0.3750000  -0.5000000), wk =   0.0468750
        k(   25) = (   0.1250000  -0.5000000  -0.5000000), wk =   0.0117188
        k(   26) = (   0.2500000   0.2500000   0.2500000), wk =   0.0156250
        k(   27) = (   0.2500000   0.2500000   0.3750000), wk =   0.0468750
        k(   28) = (   0.2500000   0.2500000  -0.5000000), wk =   0.0234375
        k(   29) = (   0.2500000   0.3750000   0.3750000), wk =   0.0468750
        k(   30) = (   0.2500000   0.3750000  -0.5000000), wk =   0.0468750
        k(   31) = (   0.2500000  -0.5000000  -0.5000000), wk =   0.0117188
        k(   32) = (   0.3750000   0.3750000   0.3750000), wk =   0.0156250
        k(   33) = (   0.3750000   0.3750000  -0.5000000), wk =   0.0234375
        k(   34) = (   0.3750000  -0.5000000  -0.5000000), wk =   0.0117188
        k(   35) = (  -0.5000000  -0.5000000  -0.5000000), wk =   0.0019531

     Dense  grid:    57777 G-vectors     FFT dimensions: (  50,  50,  50)

     Smooth grid:    29423 G-vectors     FFT dimensions: (  40,  40,  40)

     Estimated max dynamical RAM per process >     383.42 MB
     Generating pointlists ...
     new r_m :   0.2917 (alat units)  1.9678 (a.u.) for type    1
     new r_m :   0.2917 (alat units)  1.9678 (a.u.) for type    2

     Initial potential from superposition of free atoms

     starting charge   56.99696, renormalised to   57.00000
     Starting wfcs are   34 randomized atomic wfcs +    1 random wfcs
     Checking if some PAW data can be deallocated... 

     total cpu time spent up to now is        7.4 secs

     Self-consistent Calculation

     iteration #  1     ecut=    80.00 Ry     beta= 0.70
     Davidson diagonalization with overlap
     ethr =  1.00E-02,  avg # of iterations =  3.2

     Threshold (ethr) on eigenvalues was too large:
     Diagonalizing with lowered threshold

     Davidson diagonalization with overlap
     ethr =  3.32E-04,  avg # of iterations =  1.6

     total cpu time spent up to now is       48.1 secs

     total energy              =   -1327.06143691 Ry
     estimated scf accuracy    <       0.19114036 Ry

     total magnetization       =    -0.02 Bohr mag/cell
     absolute magnetization    =     0.03 Bohr mag/cell

     iteration #  2     ecut=    80.00 Ry     beta= 0.70
     Davidson diagonalization with overlap
     ethr =  3.35E-04,  avg # of iterations =  2.0

     total cpu time spent up to now is       67.9 secs

     total energy              =   -1327.08504075 Ry
     estimated scf accuracy    <       0.11680306 Ry

     total magnetization       =    -0.02 Bohr mag/cell
     absolute magnetization    =     0.03 Bohr mag/cell

     iteration #  3     ecut=    80.00 Ry     beta= 0.70
     Davidson diagonalization with overlap
     ethr =  2.05E-04,  avg # of iterations =  2.1

     total cpu time spent up to now is       87.1 secs

     total energy              =   -1327.09946602 Ry
     estimated scf accuracy    <       0.00817800 Ry

     total magnetization       =    -0.03 Bohr mag/cell
     absolute magnetization    =     0.03 Bohr mag/cell

     iteration #  4     ecut=    80.00 Ry     beta= 0.70
     Davidson diagonalization with overlap
     ethr =  1.43E-05,  avg # of iterations =  2.3

     total cpu time spent up to now is      106.7 secs

     total energy              =   -1327.10069628 Ry
     estimated scf accuracy    <       0.00019644 Ry

     total magnetization       =    -0.04 Bohr mag/cell
     absolute magnetization    =     0.04 Bohr mag/cell

     iteration #  5     ecut=    80.00 Ry     beta= 0.70
     Davidson diagonalization with overlap
     ethr =  3.45E-07,  avg # of iterations =  2.7

     total cpu time spent up to now is      127.9 secs

     total energy              =   -1327.10074355 Ry
     estimated scf accuracy    <       0.00004858 Ry

     total magnetization       =    -0.05 Bohr mag/cell
     absolute magnetization    =     0.06 Bohr mag/cell

     iteration #  6     ecut=    80.00 Ry     beta= 0.70
     Davidson diagonalization with overlap
     ethr =  8.52E-08,  avg # of iterations =  1.5

     total cpu time spent up to now is      146.3 secs

     total energy              =   -1327.10073163 Ry
     estimated scf accuracy    <       0.00000654 Ry

     total magnetization       =    -0.07 Bohr mag/cell
     absolute magnetization    =     0.08 Bohr mag/cell

     iteration #  7     ecut=    80.00 Ry     beta= 0.70
     Davidson diagonalization with overlap
     ethr =  1.15E-08,  avg # of iterations =  2.5

     total cpu time spent up to now is      165.4 secs

     total energy              =   -1327.10073558 Ry
     estimated scf accuracy    <       0.00000703 Ry

     total magnetization       =    -0.03 Bohr mag/cell
     absolute magnetization    =     0.03 Bohr mag/cell

     iteration #  8     ecut=    80.00 Ry     beta= 0.70
     Davidson diagonalization with overlap
     ethr =  1.15E-08,  avg # of iterations =  1.9

     total cpu time spent up to now is      184.7 secs

     total energy              =   -1327.10074233 Ry
     estimated scf accuracy    <       0.00000019 Ry

     total magnetization       =    -0.00 Bohr mag/cell
     absolute magnetization    =     0.00 Bohr mag/cell

     iteration #  9     ecut=    80.00 Ry     beta= 0.70
     Davidson diagonalization with overlap
     ethr =  3.29E-10,  avg # of iterations =  2.7

     total cpu time spent up to now is      207.0 secs

     total energy              =   -1327.10074239 Ry
     estimated scf accuracy    <       0.00000003 Ry

     total magnetization       =     0.00 Bohr mag/cell
     absolute magnetization    =     0.00 Bohr mag/cell

     iteration # 10     ecut=    80.00 Ry     beta= 0.70
     Davidson diagonalization with overlap
     ethr =  5.44E-11,  avg # of iterations =  2.0

     Magnetic moment per site:
     atom:    1    charge:    1.3027    magn:    0.0000    constr:    0.0000
     atom:    2    charge:   16.8289    magn:   -0.0001    constr:    0.0000
     atom:    3    charge:   16.8289    magn:   -0.0001    constr:    0.0000
     atom:    4    charge:   16.8289    magn:   -0.0001    constr:    0.0000

     total cpu time spent up to now is      225.8 secs

     End of self-consistent calculation

 ------ SPIN UP ------------


          k = 0.0000 0.0000 0.0000 (  3743 PWs)   bands (ev):

   -87.4426 -87.4146 -87.4146 -47.8791 -47.8791 -47.8791 -47.8164 -47.8164
   -47.8164 -47.7421 -47.7421 -47.7421   5.5520  11.2840  11.9976  11.9976
    12.4119  12.4119  12.4119  14.2911  14.2911  14.2911  15.0710  15.0710
    15.4315  15.6760  15.6760  15.6760  16.3345  16.3345  16.3345  22.0622
    22.0622  22.7219  27.6175

          k = 0.0000 0.0000 0.1250 (  3755 PWs)   bands (ev):

   -87.4416 -87.4156 -87.4146 -47.8765 -47.8765 -47.8750 -47.8173 -47.8173
   -47.8170 -47.7464 -47.7441 -47.7441   5.7418  11.3296  11.8716  12.1176
    12.4384  12.4384  12.4574  14.1820  14.1820  14.2415  14.9536  15.0724
    15.2678  15.2678  15.3620  15.6700  15.6762  16.9941  16.9941  22.0505
    22.4293  23.5328  26.7012

          k = 0.0000 0.0000 0.2500 (  3719 PWs)   bands (ev):

   -87.4390 -87.4181 -87.4146 -47.8689 -47.8689 -47.8620 -47.8195 -47.8195
   -47.8167 -47.7591 -47.7487 -47.7487   6.3011  11.0025  11.7756  12.4461
    12.5083  12.5083  12.5796  13.9363  13.9363  14.1093  14.4533  14.8530
    14.8530  14.9410  15.0446  15.1895  15.6765  18.1177  18.1177  22.0178
    22.6434  24.7218  24.7218

          k = 0.0000 0.0000 0.3750 (  3715 PWs)   bands (ev):

   -87.4354 -87.4217 -87.4146 -47.8600 -47.8600 -47.8464 -47.8234 -47.8234
   -47.8169 -47.7759 -47.7537 -47.7537   7.1903   9.8636  12.0066  12.5879
    12.5879  12.7282  12.8668  13.7198  13.7198  13.9509  14.0446  14.5855
    14.5855  14.6064  14.8077  15.1357  15.6765  19.4726  19.4726  21.9759
    22.7895  22.7895  22.9181

          k = 0.0000 0.0000-0.5000 (  3668 PWs)   bands (ev):

   -87.4331 -87.4238 -87.4146 -47.8551 -47.8551 -47.8354 -47.8255 -47.8255
   -47.8172 -47.7856 -47.7552 -47.7552   8.0651   8.8365  12.1353  12.6247
    12.6247  12.8030  13.0978  13.6383  13.6383  13.8726  13.9598  14.4544
    14.4880  14.4880  14.6311  15.1360  15.6766  20.9948  20.9948  21.0722
    21.0722  21.9549  23.1407

          k = 0.0000 0.1250 0.1250 (  3731 PWs)   bands (ev):

   -87.4407 -87.4160 -87.4151 -47.8773 -47.8739 -47.8672 -47.8216 -47.8178
   -47.8130 -47.7545 -47.7461 -47.7413   5.9298  11.3907  11.8659  12.1066
    12.4200  12.4577  12.5512  13.9546  14.0961  14.3449  14.7231  14.9744
    15.0226  15.1111  15.3012  15.5919  16.0094  16.5954  17.4464  22.2142
    23.2254  23.8182  25.0076

          k = 0.0000 0.1250 0.2500 (  3711 PWs)   bands (ev):

   -87.4381 -87.4183 -87.4153 -47.8725 -47.8661 -47.8548 -47.8265 -47.8199
   -47.8092 -47.7686 -47.7510 -47.7434   6.4838  11.1184  11.7909  12.3368
    12.4621  12.5444  12.7075  13.6797  13.9107  14.1800  14.3102  14.7280
    14.7837  14.9897  15.1177  15.3623  15.5483  17.3238  18.4441  22.1211
    23.1714  23.7444  24.9216

          k = 0.0000 0.1250 0.3750 (  3706 PWs)   bands (ev):

   -87.4346 -87.4217 -87.4153 -47.8630 -47.8568 -47.8457 -47.8299 -47.8232
   -47.8057 -47.7842 -47.7566 -47.7479   7.3626  10.0071  12.0489  12.4557
    12.5490  12.8267  12.8787  13.5542  13.6265  14.0316  14.0757  14.4085
    14.5814  14.7565  14.9386  15.0811  15.5397  18.3769  19.7344  21.0231
    22.6550  22.9970  24.1226

          k = 0.0000 0.1250-0.5000 (  3694 PWs)   bands (ev):

   -87.4324 -87.4239 -87.4153 -47.8536 -47.8515 -47.8493 -47.8267 -47.8256
   -47.8035 -47.7931 -47.7590 -47.7503   8.2177   9.0070  12.2117  12.4439
    12.6104  12.8309  13.1485  13.4701  13.6464  13.8373  14.0713  14.2268
    14.5309  14.6380  14.7561  15.0799  15.5386  19.4384  19.7864  21.1636
    21.3575  22.6614  24.4895

          k = 0.0000 0.2500 0.2500 (  3724 PWs)   bands (ev):

   -87.4358 -87.4192 -87.4166 -47.8735 -47.8586 -47.8442 -47.8352 -47.8212
   -47.8002 -47.7842 -47.7574 -47.7400   7.0208  11.4164  11.4344  12.2935
    12.4637  12.6338  12.9311  13.3733  13.7194  13.9504  14.4820  14.5481
    14.6596  14.8880  14.9433  15.3507  15.5609  16.5987  19.2758  20.7675
    22.7623  25.3424  25.6058

          k = 0.0000 0.2500 0.3750 (  3710 PWs)   bands (ev):

   -87.4326 -87.4218 -87.4172 -47.8699 -47.8486 -47.8451 -47.8325 -47.8236
   -47.7992 -47.7910 -47.7644 -47.7402   7.8660  10.4045  11.7811  12.3828
    12.5218  12.8868  13.0020  13.3583  13.4291  14.0459  14.1503  14.4046
    14.5848  14.6825  14.8962  15.1956  15.2473  17.0374  19.1576  20.4380
    22.9628  23.5683  25.6738

          k = 0.0000 0.2500-0.5000 (  3712 PWs)   bands (ev):

   -87.4304 -87.4239 -87.4173 -47.8661 -47.8507 -47.8430 -47.8270 -47.8257
   -47.8065 -47.7873 -47.7677 -47.7412   8.6606   9.4924  11.9567  12.3880
    12.5733  12.9056  13.2090  13.2165  13.6707  13.7767  14.1287  14.1906
    14.6045  14.6120  14.9126  14.9889  15.2190  17.8463  17.9877  21.6661
    22.1069  23.1027  25.3202

          k = 0.0000 0.3750 0.3750 (  3690 PWs)   bands (ev):

   -87.4296 -87.4225 -87.4194 -47.8753 -47.8448 -47.8378 -47.8304 -47.8242
   -47.8118 -47.7801 -47.7738 -47.7357   8.6447  10.8645  10.9976  12.4535
    12.5255  12.9753  13.0362  13.2784  13.4285  14.0139  14.1635  14.3845
    14.5336  14.6314  14.6557  15.0009  15.1855  16.5303  17.7019  21.4581
    23.3775  24.0868  24.7823

          k = 0.0000 0.3750-0.5000 (  3698 PWs)   bands (ev):

   -87.4274 -87.4238 -87.4203 -47.8774 -47.8449 -47.8319 -47.8268 -47.8256
   -47.8193 -47.7786 -47.7761 -47.7345   9.3371  10.1751  11.2308  12.4058
    12.5336  12.9927  13.1172  13.2062  13.7066  13.7392  14.2281  14.2579
    14.4605  14.6064  14.6724  14.9041  15.0746  16.8306  16.8323  22.4910
    23.0679  23.6268  25.0498

          k = 0.0000-0.5000-0.5000 (  3676 PWs)   bands (ev):

   -87.4238 -87.4238 -87.4238 -47.8812 -47.8396 -47.8265 -47.8265 -47.8256
   -47.8256 -47.7850 -47.7718 -47.7318   9.9329  10.6089  10.6089  12.2154
    12.5165  13.0330  13.1909  13.1909  13.7284  13.7284  14.2803  14.3421
    14.3421  14.3988  14.6934  14.7691  15.0384  16.5024  16.5024  23.6025
    23.6445  23.6445  23.9321

          k = 0.1250 0.1250 0.1250 (  3725 PWs)   bands (ev):

   -87.4398 -87.4160 -87.4160 -47.8800 -47.8651 -47.8651 -47.8213 -47.8213
   -47.8103 -47.7634 -47.7430 -47.7430   6.1161  11.4522  11.9852  11.9852
    12.3598  12.5748  12.5748  13.7446  14.1978  14.1978  14.7240  14.7240
    14.9677  14.9677  15.1681  15.5916  16.2870  16.9097  16.9097  23.2405
    23.2405  24.0751  25.0304

          k = 0.1250 0.1250 0.2500 (  3714 PWs)   bands (ev):

   -87.4373 -87.4184 -87.4159 -47.8771 -47.8594 -47.8535 -47.8270 -47.8201
   -47.8060 -47.7786 -47.7475 -47.7439   6.6643  11.2223  11.8316  12.2985
    12.3536  12.6523  12.7412  13.5284  13.9087  14.0363  14.3719  14.6250
    14.7370  14.9583  15.0088  15.5399  15.5868  17.5024  17.6190  22.7875
    23.1429  24.0116  24.0132

          k = 0.1250 0.1250 0.3750 (  3706 PWs)   bands (ev):

   -87.4340 -87.4217 -87.4159 -47.8686 -47.8514 -47.8486 -47.8339 -47.8150
   -47.8023 -47.7935 -47.7521 -47.7482   7.5318  10.1439  12.0647  12.3694
    12.5768  12.8463  12.8889  13.4868  13.6137  13.7846  14.2782  14.4338
    14.5159  14.7848  14.9971  15.0285  15.4863  18.4848  18.5749  21.3605
    21.4291  24.0819  24.4856

          k = 0.1250 0.1250-0.5000 (  3710 PWs)   bands (ev):

   -87.4318 -87.4239 -87.4159 -47.8608 -47.8519 -47.8437 -47.8410 -47.8090
   -47.8018 -47.8011 -47.7540 -47.7511   8.3654   9.1736  12.2672  12.2921
    12.6380  12.8663  13.2151  13.3558  13.5699  13.7117  14.2281  14.2648
    14.5428  14.6013  14.8428  15.0054  15.4678  19.1127  19.6149  20.1744
    20.4903  24.2359  24.8714

          k = 0.1250 0.2500 0.2500 (  3717 PWs)   bands (ev):

   -87.4351 -87.4192 -87.4173 -47.8783 -47.8563 -47.8484 -47.8281 -47.8172
   -47.7988 -47.7957 -47.7507 -47.7409   7.1939  11.4309  11.5648  12.3027
    12.3651  12.7178  12.9244  13.3328  13.6918  13.8403  14.4773  14.4967
    14.6838  14.7565  14.8586  15.4680  15.7712  16.6701  18.1373  21.1757
    23.5669  23.7319  24.3413

          k = 0.1250 0.2500 0.3750 (  3716 PWs)   bands (ev):

   -87.4320 -87.4218 -87.4177 -47.8735 -47.8575 -47.8468 -47.8283 -47.8134
   -47.8078 -47.7909 -47.7563 -47.7410   8.0243  10.5183  11.7533  12.4406
    12.5493  12.8364  13.0196  13.3338  13.4708  13.7368  14.3466  14.4949
    14.5252  14.6170  14.8280  15.2310  15.3765  17.0829  18.5880  19.9819
    22.0140  24.3977  24.8364

          k = 0.1250 0.2500-0.5000 (  3702 PWs)   bands (ev):

   -87.4299 -87.4238 -87.4178 -47.8661 -47.8628 -47.8469 -47.8282 -47.8171
   -47.8058 -47.7870 -47.7590 -47.7418   8.7912   9.6472  11.8524  12.4709
    12.6459  12.9581  13.0753  13.2704  13.5923  13.6022  14.2657  14.3676
    14.5158  14.6164  14.8124  14.9888  15.3153  17.7698  18.0171  20.3432
    20.9066  24.7827  25.4461

          k = 0.1250 0.3750 0.3750 (  3710 PWs)   bands (ev):

   -87.4292 -87.4225 -87.4198 -47.8762 -47.8606 -47.8463 -47.8305 -47.8143
   -47.8083 -47.7802 -47.7636 -47.7360   8.7794  10.9849  11.0006  12.4353
    12.6108  12.9002  13.1708  13.1846  13.4923  13.7455  14.3211  14.3960
    14.4486  14.6365  14.7103  15.1699  15.2187  16.4757  17.5949  20.3072
    22.7746  22.9610  25.1983

          k = 0.1250 0.3750-0.5000 (  3710 PWs)   bands (ev):

   -87.4271 -87.4238 -87.4206 -47.8775 -47.8595 -47.8474 -47.8360 -47.8124
   -47.8054 -47.7761 -47.7674 -47.7347   9.4267  10.3134  11.2450  12.3667
    12.6256  13.0183  13.1457  13.1950  13.6580  13.6666  14.2216  14.3309
    14.4865  14.6172  14.6676  15.0476  15.0887  16.7536  16.7808  21.0362
    21.7890  23.5256  24.9951

          k = 0.1250-0.5000-0.5000 (  3688 PWs)   bands (ev):

   -87.4238 -87.4238 -87.4238 -47.8811 -47.8522 -47.8472 -47.8472 -47.8053
   -47.8053 -47.7725 -47.7721 -47.7321   9.9354  10.7449  10.7449  12.1006
    12.6113  13.1533  13.1533  13.2357  13.7084  13.7084  14.1114  14.4196
    14.4196  14.4929  14.6776  14.9473  15.0092  16.4128  16.4128  21.8146
    22.4373  22.4373  24.1291

          k = 0.2500 0.2500 0.2500 (  3728 PWs)   bands (ev):

   -87.4332 -87.4192 -87.4192 -47.8825 -47.8558 -47.8558 -47.8162 -47.8121
   -47.8121 -47.7944 -47.7437 -47.7437   7.6994  11.3856  11.9193  11.9193
    12.4774  12.9082  12.9082  13.2770  13.6118  13.6118  14.4812  14.4845
    14.4845  14.7383  14.7383  15.5324  16.0740  16.8716  16.8716  21.8056
    21.8056  21.8297  26.4893

          k = 0.2500 0.2500 0.3750 (  3703 PWs)   bands (ev):

   -87.4304 -87.4219 -87.4192 -47.8796 -47.8610 -47.8597 -47.8322 -47.8097
   -47.7967 -47.7881 -47.7468 -47.7415   8.4795  10.7977  11.6427  12.3738
    12.6518  12.8736  13.0375  13.3325  13.5073  13.5427  14.2884  14.4241
    14.5443  14.6532  14.7528  15.4227  15.4591  17.1215  17.1643  20.2621
    20.4207  22.6802  25.5758

          k = 0.2500 0.2500-0.5000 (  3708 PWs)   bands (ev):

   -87.4284 -87.4238 -87.4192 -47.8731 -47.8675 -47.8633 -47.8372 -47.8094
   -47.7900 -47.7855 -47.7483 -47.7419   9.1555  10.0829  11.6141  12.6836
    12.6839  12.7745  13.1687  13.3301  13.4525  13.5803  14.2184  14.3781
    14.6637  14.6700  14.7015  14.9864  15.3932  17.2507  17.5997  19.4975
    19.8927  23.4017  24.6096

          k = 0.2500 0.3750 0.3750 (  3708 PWs)   bands (ev):

   -87.4281 -87.4225 -87.4209 -47.8809 -47.8704 -47.8623 -47.8493 -47.7964
   -47.7921 -47.7800 -47.7482 -47.7370   9.1493  10.9685  11.3660  12.2152
    12.8106  12.9676  13.0703  13.4149  13.5637  13.5881  14.0691  14.4559
    14.4739  14.6844  14.7682  15.3983  15.4016  16.2917  16.9414  19.5633
    21.0865  21.1612  23.9197

          k = 0.2500 0.3750-0.5000 (  3720 PWs)   bands (ev):

   -87.4263 -87.4238 -87.4213 -47.8776 -47.8758 -47.8654 -47.8554 -47.7943
   -47.7881 -47.7761 -47.7503 -47.7352   9.6455  10.6901  11.3093  12.2266
    12.8603  12.9502  13.1688  13.4939  13.6089  13.6335  13.9812  14.4487
    14.5184  14.6871  14.8626  14.9599  15.3304  16.4444  16.5435  19.7189
    20.2519  21.8339  22.9136

          k = 0.2500-0.5000-0.5000 (  3700 PWs)   bands (ev):

   -87.4238 -87.4238 -87.4238 -47.8813 -47.8729 -47.8652 -47.8652 -47.7878
   -47.7878 -47.7721 -47.7523 -47.7321   9.9397  11.1067  11.1067  11.9009
    12.8802  13.1106  13.1106  13.6858  13.6858  13.6918  13.8678  14.5433
    14.5433  14.6406  14.7368  14.9088  15.2141  16.1168  16.1168  20.2777
    20.8611  20.8611  21.9251

          k = 0.3750 0.3750 0.3750 (  3704 PWs)   bands (ev):

   -87.4265 -87.4224 -87.4224 -47.8859 -47.8730 -47.8730 -47.8667 -47.7819
   -47.7819 -47.7784 -47.7381 -47.7381   9.6175  11.0165  11.7929  11.7929
    13.0379  13.0568  13.0568  13.6160  13.6160  13.7952  13.8699  14.4350
    14.4350  14.7298  14.7298  15.4934  15.5555  16.0258  16.0258  19.6771
    19.9962  19.9962  22.2470

          k = 0.3750 0.3750-0.5000 (  3696 PWs)   bands (ev):

   -87.4252 -87.4238 -87.4224 -47.8854 -47.8779 -47.8766 -47.8712 -47.7808
   -47.7768 -47.7750 -47.7386 -47.7345   9.8590  11.1762  11.4370  11.9830
    13.0667  13.1144  13.1903  13.6427  13.6430  13.7872  13.9850  14.4265
    14.4713  14.7115  14.8039  15.0982  15.4519  15.9280  15.9861  19.2181
    19.6425  20.5089  21.2338

          k = 0.3750-0.5000-0.5000 (  3700 PWs)   bands (ev):

   -87.4238 -87.4238 -87.4238 -47.8882 -47.8814 -47.8772 -47.8772 -47.7760
   -47.7760 -47.7720 -47.7373 -47.7321   9.9418  11.5168  11.5168  11.7479
    13.2278  13.2278  13.2469  13.6720  13.6720  13.6967  14.1517  14.5155
    14.5155  14.6040  14.7248  15.0754  15.4084  15.6789  15.6789  19.2636
    19.8836  19.8836  20.2645

          k =-0.5000-0.5000-0.5000 (  3648 PWs)   bands (ev):

   -87.4237 -87.4237 -87.4237 -47.8931 -47.8809 -47.8809 -47.8809 -47.7714
   -47.7714 -47.7714 -47.7315 -47.7315   9.9421  11.6923  11.6923  11.6923
    13.4620  13.4620  13.4620  13.6365  13.6365  13.6365  14.3327  14.3327
    14.3327  14.5895  14.5895  15.2991  15.4792  15.4792  15.4792  18.9062
    19.5796  19.5796  19.5796

 ------ SPIN DOWN ----------


          k = 0.0000 0.0000 0.0000 (  3743 PWs)   bands (ev):

   -87.4426 -87.4147 -87.4147 -47.8791 -47.8791 -47.8791 -47.8164 -47.8164
   -47.8164 -47.7421 -47.7421 -47.7421   5.5520  11.2840  11.9976  11.9976
    12.4119  12.4119  12.4119  14.2911  14.2911  14.2911  15.0710  15.0710
    15.4315  15.6759  15.6759  15.6759  16.3345  16.3345  16.3345  22.0621
    22.0621  22.7219  27.6175

          k = 0.0000 0.0000 0.1250 (  3755 PWs)   bands (ev):

   -87.4417 -87.4157 -87.4147 -47.8766 -47.8766 -47.8750 -47.8173 -47.8173
   -47.8171 -47.7465 -47.7441 -47.7441   5.7418  11.3296  11.8716  12.1176
    12.4383  12.4383  12.4573  14.1819  14.1819  14.2415  14.9536  15.0723
    15.2677  15.2677  15.3619  15.6700  15.6761  16.9940  16.9940  22.0505
    22.4293  23.5327  26.7012

          k = 0.0000 0.0000 0.2500 (  3719 PWs)   bands (ev):

   -87.4390 -87.4182 -87.4147 -47.8690 -47.8690 -47.8621 -47.8196 -47.8196
   -47.8168 -47.7592 -47.7488 -47.7488   6.3011  11.0025  11.7756  12.4460
    12.5082  12.5082  12.5795  13.9362  13.9362  14.1093  14.4532  14.8530
    14.8530  14.9410  15.0446  15.1895  15.6764  18.1177  18.1177  22.0178
    22.6434  24.7218  24.7218

          k = 0.0000 0.0000 0.3750 (  3715 PWs)   bands (ev):

   -87.4354 -87.4218 -87.4147 -47.8600 -47.8600 -47.8464 -47.8235 -47.8235
   -47.8170 -47.7759 -47.7538 -47.7538   7.1903   9.8636  12.0066  12.5878
    12.5878  12.7281  12.8668  13.7197  13.7197  13.9509  14.0446  14.5854
    14.5854  14.6064  14.8076  15.1357  15.6764  19.4726  19.4726  21.9759
    22.7894  22.7894  22.9181

          k = 0.0000 0.0000-0.5000 (  3668 PWs)   bands (ev):

   -87.4331 -87.4239 -87.4147 -47.8552 -47.8552 -47.8355 -47.8256 -47.8256
   -47.8173 -47.7856 -47.7552 -47.7552   8.0651   8.8365  12.1353  12.6246
    12.6246  12.8029  13.0978  13.6383  13.6383  13.8726  13.9598  14.4543
    14.4879  14.4879  14.6311  15.1360  15.6765  20.9948  20.9948  21.0722
    21.0722  21.9549  23.1407

          k = 0.0000 0.1250 0.1250 (  3731 PWs)   bands (ev):

   -87.4407 -87.4160 -87.4152 -47.8773 -47.8740 -47.8673 -47.8216 -47.8178
   -47.8130 -47.7546 -47.7461 -47.7413   5.9298  11.3907  11.8659  12.1066
    12.4200  12.4577  12.5512  13.9545  14.0960  14.3449  14.7230  14.9744
    15.0226  15.1110  15.3012  15.5918  16.0094  16.5953  17.4464  22.2142
    23.2254  23.8182  25.0076

          k = 0.0000 0.1250 0.2500 (  3711 PWs)   bands (ev):

   -87.4382 -87.4183 -87.4153 -47.8725 -47.8662 -47.8549 -47.8266 -47.8200
   -47.8093 -47.7687 -47.7511 -47.7435   6.4838  11.1184  11.7909  12.3368
    12.4620  12.5444  12.7075  13.6796  13.9106  14.1799  14.3102  14.7280
    14.7836  14.9897  15.1177  15.3622  15.5482  17.3238  18.4441  22.1211
    23.1713  23.7444  24.9216

          k = 0.0000 0.1250 0.3750 (  3706 PWs)   bands (ev):

   -87.4347 -87.4218 -87.4153 -47.8631 -47.8569 -47.8457 -47.8299 -47.8233
   -47.8057 -47.7843 -47.7567 -47.7480   7.3626  10.0071  12.0489  12.4556
    12.5489  12.8266  12.8787  13.5541  13.6264  14.0316  14.0756  14.4084
    14.5813  14.7565  14.9385  15.0811  15.5397  18.3769  19.7344  21.0230
    22.6549  22.9969  24.1226

          k = 0.0000 0.1250-0.5000 (  3694 PWs)   bands (ev):

   -87.4325 -87.4239 -87.4153 -47.8537 -47.8516 -47.8493 -47.8268 -47.8257
   -47.8036 -47.7932 -47.7590 -47.7503   8.2177   9.0070  12.2116  12.4439
    12.6104  12.8308  13.1485  13.4701  13.6464  13.8372  14.0712  14.2267
    14.5308  14.6380  14.7561  15.0799  15.5385  19.4383  19.7864  21.1636
    21.3574  22.6614  24.8183

          k = 0.0000 0.2500 0.2500 (  3724 PWs)   bands (ev):

   -87.4359 -87.4193 -87.4167 -47.8736 -47.8587 -47.8442 -47.8352 -47.8213
   -47.8002 -47.7843 -47.7575 -47.7401   7.0208  11.4164  11.4344  12.2934
    12.4636  12.6337  12.9310  13.3732  13.7193  13.9503  14.4820  14.5481
    14.6596  14.8879  14.9432  15.3506  15.5609  16.5986  19.2758  20.7675
    22.7622  25.3424  25.6058

          k = 0.0000 0.2500 0.3750 (  3710 PWs)   bands (ev):

   -87.4326 -87.4219 -87.4172 -47.8700 -47.8487 -47.8452 -47.8326 -47.8236
   -47.7993 -47.7910 -47.7645 -47.7403   7.8660  10.4045  11.7811  12.3828
    12.5217  12.8867  13.0019  13.3582  13.4290  14.0458  14.1502  14.4045
    14.5848  14.6824  14.8962  15.1955  15.2472  17.0374  19.1576  20.4380
    22.9628  23.5683  25.6738

          k = 0.0000 0.2500-0.5000 (  3712 PWs)   bands (ev):

   -87.4305 -87.4239 -87.4174 -47.8662 -47.8507 -47.8431 -47.8270 -47.8258
   -47.8066 -47.7874 -47.7678 -47.7413   8.6606   9.4924  11.9566  12.3879
    12.5733  12.9055  13.2089  13.2164  13.6706  13.7767  14.1286  14.1905
    14.6045  14.6120  14.9126  14.9889  15.2189  17.8463  17.9876  21.6661
    22.1069  23.1027  25.3202

          k = 0.0000 0.3750 0.3750 (  3690 PWs)   bands (ev):

   -87.4297 -87.4225 -87.4195 -47.8754 -47.8449 -47.8379 -47.8304 -47.8243
   -47.8119 -47.7802 -47.7738 -47.7357   8.6447  10.8645  10.9976  12.4535
    12.5255  12.9752  13.0362  13.2784  13.4284  14.0138  14.1635  14.3844
    14.5335  14.6314  14.6556  15.0008  15.1855  16.5302  17.7019  21.4580
    23.3775  24.0868  24.7823

          k = 0.0000 0.3750-0.5000 (  3698 PWs)   bands (ev):

   -87.4275 -87.4239 -87.4203 -47.8775 -47.8449 -47.8320 -47.8268 -47.8256
   -47.8194 -47.7787 -47.7761 -47.7346   9.3371  10.1751  11.2308  12.4058
    12.5336  12.9927  13.1172  13.2061  13.7065  13.7391  14.2281  14.2578
    14.4605  14.6064  14.6724  14.9040  15.0746  16.8305  16.8322  22.4910
    23.0679  23.6268  25.0498

          k = 0.0000-0.5000-0.5000 (  3676 PWs)   bands (ev):

   -87.4239 -87.4239 -87.4239 -47.8813 -47.8397 -47.8266 -47.8266 -47.8256
   -47.8256 -47.7850 -47.7718 -47.7319   9.9329  10.6089  10.6089  12.2154
    12.5164  13.0330  13.1909  13.1909  13.7283  13.7283  14.2803  14.3421
    14.3421  14.3988  14.6934  14.7690  15.0383  16.5023  16.5023  23.6025
    23.6445  23.6445  23.9321

          k = 0.1250 0.1250 0.1250 (  3725 PWs)   bands (ev):

   -87.4398 -87.4160 -87.4160 -47.8801 -47.8652 -47.8652 -47.8214 -47.8214
   -47.8104 -47.7635 -47.7430 -47.7430   6.1161  11.4522  11.9851  11.9851
    12.3597  12.5748  12.5748  13.7446  14.1978  14.1978  14.7239  14.7239
    14.9677  14.9677  15.1680  15.5915  16.2870  16.9097  16.9097  23.2405
    23.2405  24.0751  25.0303

          k = 0.1250 0.1250 0.2500 (  3714 PWs)   bands (ev):

   -87.4374 -87.4185 -87.4160 -47.8771 -47.8595 -47.8535 -47.8270 -47.8201
   -47.8060 -47.7787 -47.7475 -47.7439   6.6643  11.2223  11.8316  12.2984
    12.3535  12.6522  12.7411  13.5284  13.9087  14.0363  14.3719  14.6249
    14.7370  14.9583  15.0087  15.5398  15.5867  17.5023  17.6189  22.7875
    23.1429  24.0116  24.0132

          k = 0.1250 0.1250 0.3750 (  3706 PWs)   bands (ev):

   -87.4340 -87.4218 -87.4160 -47.8687 -47.8514 -47.8486 -47.8339 -47.8151
   -47.8023 -47.7936 -47.7522 -47.7483   7.5318  10.1439  12.0646  12.3693
    12.5768  12.8462  12.8889  13.4868  13.6136  13.7846  14.2781  14.4337
    14.5158  14.7847  14.9970  15.0285  15.4862  18.4847  18.5749  21.3605
    21.4291  24.0819  24.4856

          k = 0.1250 0.1250-0.5000 (  3710 PWs)   bands (ev):

   -87.4319 -87.4239 -87.4160 -47.8609 -47.8520 -47.8438 -47.8410 -47.8091
   -47.8019 -47.8011 -47.7540 -47.7512   8.3654   9.1736  12.2672  12.2921
    12.6379  12.8662  13.2151  13.3557  13.5698  13.7116  14.2281  14.2647
    14.5427  14.6012  14.8428  15.0053  15.4677  19.1127  19.6149  20.1744
    20.4903  24.2359  24.8714

          k = 0.1250 0.2500 0.2500 (  3717 PWs)   bands (ev):

   -87.4352 -87.4193 -87.4174 -47.8784 -47.8563 -47.8484 -47.8282 -47.8173
   -47.7989 -47.7958 -47.7507 -47.7410   7.1939  11.4309  11.5647  12.3027
    12.3651  12.7177  12.9243  13.3327  13.6917  13.8403  14.4772  14.4967
    14.6838  14.7564  14.8586  15.4679  15.7712  16.6700  18.1373  21.1757
    23.5669  23.7319  24.3413

          k = 0.1250 0.2500 0.3750 (  3716 PWs)   bands (ev):

   -87.4321 -87.4219 -87.4178 -47.8735 -47.8575 -47.8469 -47.8284 -47.8135
   -47.8078 -47.7910 -47.7564 -47.7411   8.0243  10.5183  11.7532  12.4406
    12.5492  12.8363  13.0195  13.3337  13.4708  13.7368  14.3465  14.4949
    14.5252  14.6169  14.8280  15.2309  15.3765  17.0829  18.5879  19.9819
    22.0140  24.3977  24.8364

          k = 0.1250 0.2500-0.5000 (  3702 PWs)   bands (ev):

   -87.4300 -87.4239 -87.4178 -47.8662 -47.8629 -47.8470 -47.8283 -47.8172
   -47.8058 -47.7871 -47.7591 -47.7419   8.7912   9.6472  11.8523  12.4709
    12.6459  12.9580  13.0752  13.2704  13.5922  13.6022  14.2657  14.3675
    14.5158  14.6164  14.8124  14.9888  15.3153  17.7697  18.0171  20.3431
    20.9066  24.7827  25.4461

          k = 0.1250 0.3750 0.3750 (  3710 PWs)   bands (ev):

   -87.4293 -87.4225 -87.4199 -47.8763 -47.8607 -47.8464 -47.8305 -47.8143
   -47.8084 -47.7802 -47.7637 -47.7361   8.7794  10.9849  11.0006  12.4353
    12.6108  12.9002  13.1708  13.1845  13.4922  13.7454  14.3210  14.3960
    14.4486  14.6365  14.7103  15.1698  15.2187  16.4756  17.5949  20.3071
    22.7745  22.9610  25.1983

          k = 0.1250 0.3750-0.5000 (  3710 PWs)   bands (ev):

   -87.4272 -87.4239 -87.4206 -47.8775 -47.8596 -47.8474 -47.8361 -47.8125
   -47.8055 -47.7762 -47.7675 -47.7348   9.4267  10.3134  11.2450  12.3666
    12.6256  13.0182  13.1456  13.1949  13.6579  13.6666  14.2216  14.3309
    14.4864  14.6172  14.6676  15.0476  15.0886  16.7536  16.7807  21.0362
    21.7889  23.5256  24.9951

          k = 0.1250-0.5000-0.5000 (  3688 PWs)   bands (ev):

   -87.4239 -87.4239 -87.4239 -47.8811 -47.8522 -47.8472 -47.8472 -47.8054
   -47.8054 -47.7726 -47.7721 -47.7322   9.9354  10.7449  10.7449  12.1005
    12.6113  13.1532  13.1532  13.2357  13.7083  13.7083  14.1113  14.4195
    14.4195  14.4929  14.6776  14.9472  15.0092  16.4127  16.4127  21.8146
    22.4373  22.4373  24.1291

          k = 0.2500 0.2500 0.2500 (  3728 PWs)   bands (ev):

   -87.4332 -87.4193 -87.4193 -47.8826 -47.8558 -47.8558 -47.8163 -47.8122
   -47.8122 -47.7945 -47.7438 -47.7438   7.6994  11.3856  11.9193  11.9193
    12.4774  12.9081  12.9081  13.2770  13.6118  13.6118  14.4811  14.4844
    14.4844  14.7383  14.7383  15.5323  16.0740  16.8715  16.8715  21.8055
    21.8055  21.8297  26.4893

          k = 0.2500 0.2500 0.3750 (  3703 PWs)   bands (ev):

   -87.4305 -87.4220 -87.4193 -47.8796 -47.8610 -47.8597 -47.8322 -47.8098
   -47.7968 -47.7882 -47.7469 -47.7416   8.4795  10.7976  11.6427  12.3738
    12.6518  12.8735  13.0374  13.3324  13.5072  13.5426  14.2883  14.4240
    14.5443  14.6532  14.7528  15.4227  15.4591  17.1215  17.1643  20.2620
    20.4206  22.6802  25.5758

          k = 0.2500 0.2500-0.5000 (  3708 PWs)   bands (ev):

   -87.4285 -87.4239 -87.4193 -47.8732 -47.8676 -47.8633 -47.8372 -47.8094
   -47.7901 -47.7855 -47.7484 -47.7420   9.1555  10.0829  11.6141  12.6836
    12.6838  12.7744  13.1686  13.3301  13.4525  13.5802  14.2183  14.3781
    14.6636  14.6700  14.7014  14.9864  15.3931  17.2507  17.5997  19.4975
    19.8927  23.4017  24.6096

          k = 0.2500 0.3750 0.3750 (  3708 PWs)   bands (ev):

   -87.4282 -87.4225 -87.4210 -47.8810 -47.8705 -47.8623 -47.8494 -47.7964
   -47.7922 -47.7801 -47.7483 -47.7371   9.1493  10.9684  11.3659  12.2152
    12.8106  12.9675  13.0702  13.4149  13.5637  13.5881  14.0690  14.4558
    14.4739  14.6844  14.7682  15.3982  15.4016  16.2917  16.9414  19.5632
    21.0865  21.1612  23.9197

          k = 0.2500 0.3750-0.5000 (  3720 PWs)   bands (ev):

   -87.4264 -87.4239 -87.4214 -47.8776 -47.8759 -47.8654 -47.8555 -47.7943
   -47.7882 -47.7761 -47.7504 -47.7353   9.6455  10.6901  11.3092  12.2266
    12.8603  12.9502  13.1687  13.4938  13.6089  13.6334  13.9811  14.4487
    14.5184  14.6871  14.8625  14.9599  15.3303  16.4443  16.5435  19.7188
    20.2518  21.8339  22.9136

          k = 0.2500-0.5000-0.5000 (  3700 PWs)   bands (ev):

   -87.4239 -87.4239 -87.4239 -47.8814 -47.8730 -47.8653 -47.8653 -47.7878
   -47.7878 -47.7721 -47.7524 -47.7322   9.9397  11.1067  11.1067  11.9009
    12.8802  13.1106  13.1106  13.6857  13.6857  13.6918  13.8677  14.5433
    14.5433  14.6406  14.7368  14.9088  15.2140  16.1167  16.1167  20.2777
    20.8611  20.8611  21.9250

          k = 0.3750 0.3750 0.3750 (  3704 PWs)   bands (ev):

   -87.4266 -87.4225 -87.4225 -47.8860 -47.8731 -47.8731 -47.8668 -47.7820
   -47.7820 -47.7785 -47.7382 -47.7382   9.6175  11.0165  11.7928  11.7928
    13.0379  13.0567  13.0567  13.6160  13.6160  13.7952  13.8699  14.4349
    14.4349  14.7298  14.7298  15.4933  15.5555  16.0258  16.0258  19.6771
    19.9961  19.9961  22.2470

          k = 0.3750 0.3750-0.5000 (  3696 PWs)   bands (ev):

   -87.4252 -87.4239 -87.4225 -47.8854 -47.8780 -47.8767 -47.8712 -47.7809
   -47.7768 -47.7751 -47.7387 -47.7346   9.8589  11.1761  11.4370  11.9829
    13.0667  13.1144  13.1903  13.6426  13.6429  13.7871  13.9850  14.4265
    14.4713  14.7115  14.8038  15.0982  15.4518  15.9280  15.9860  19.2181
    19.6425  20.5088  21.2337

          k = 0.3750-0.5000-0.5000 (  3700 PWs)   bands (ev):

   -87.4239 -87.4239 -87.4239 -47.8882 -47.8814 -47.8773 -47.8773 -47.7761
   -47.7761 -47.7721 -47.7374 -47.7321   9.9418  11.5168  11.5168  11.7479
    13.2278  13.2278  13.2469  13.6719  13.6719  13.6967  14.1516  14.5155
    14.5155  14.6039  14.7248  15.0754  15.4084  15.6788  15.6788  19.2636
    19.8836  19.8836  20.2645

          k =-0.5000-0.5000-0.5000 (  3648 PWs)   bands (ev):

   -87.4238 -87.4238 -87.4238 -47.8932 -47.8810 -47.8810 -47.8810 -47.7715
   -47.7715 -47.7715 -47.7316 -47.7316   9.9421  11.6922  11.6922  11.6922
    13.4620  13.4620  13.4620  13.6364  13.6364  13.6364  14.3327  14.3327
    14.3327  14.5895  14.5895  15.2991  15.4791  15.4791  15.4791  18.9061
    19.5795  19.5795  19.5795

     the Fermi energy is    15.4936 ev

!    total energy              =   -1327.10074240 Ry

     total all-electron energy =     -9610.539845 Ry
     estimated scf accuracy    <          1.5E-10 Ry
     smearing contrib. (-TS)   =      -0.00104530 Ry
     internal energy E=F+TS    =   -1327.09969710 Ry

     The total energy is F=E-TS. E is the sum of the following terms:
     one-electron contribution =    -679.60838470 Ry
     hartree contribution      =     374.62171195 Ry
     xc contribution           =    -105.75525123 Ry
     ewald contribution        =    -608.41262835 Ry
     one-center paw contrib.   =    -307.94514476 Ry

     total magnetization       =    -0.00 Bohr mag/cell
     absolute magnetization    =     0.00 Bohr mag/cell

     convergence has been achieved in  10 iterations

     Forces acting on atoms (cartesian axes, Ry/au):

     atom    1 type  1   force =     0.00000000    0.00000000    0.00000000
     atom    2 type  2   force =     0.00000000    0.00000000    0.00000000
     atom    3 type  2   force =     0.00000000    0.00000000    0.00000000
     atom    4 type  2   force =     0.00000000    0.00000000    0.00000000

     Total force =     0.000000     Total SCF correction =     0.000000


     Computing stress (Cartesian axis) and pressure

          total   stress  (Ry/bohr**3)                   (kbar)     P=      -45.88
  -0.00031190   0.00000000   0.00000000          -45.88        0.00        0.00
   0.00000000  -0.00031190   0.00000000            0.00      -45.88        0.00
   0.00000000   0.00000000  -0.00031190            0.00        0.00      -45.88


     BFGS Geometry Optimization
     Energy error            =      0.0E+00
     Gradient error          =      0.0E+00

     bfgs converged in   1 scf cycles and   0 bfgs steps
     (criteria: energy <  1.0E-04 Ry, force <  1.0E-03 Ry/Bohr)

     End of BFGS Geometry Optimization

     Final energy   =   -1327.1007423995 Ry
Begin final coordinates

ATOMIC_POSITIONS (angstrom)
Al            0.0000000000        0.0000000000        0.0000000000
Ni            1.7850000000        0.0000000000        1.7850000000
Ni            1.7850000000        1.7850000000        0.0000000000
Ni            0.0000000000        1.7850000000        1.7850000000
End final coordinates



     Writing output data file ./tmp_Ni3Al/Ni3Al.save/

     init_run     :      8.38s CPU      7.20s WALL (       1 calls)
     electrons    :    254.52s CPU    218.44s WALL (       1 calls)
     forces       :      2.32s CPU      1.63s WALL (       1 calls)
     stress       :     10.91s CPU     10.10s WALL (       1 calls)

     Called by init_run:
     wfcinit      :      6.07s CPU      4.84s WALL (       1 calls)
     potinit      :      1.21s CPU      1.25s WALL (       1 calls)
     hinit0       :      0.79s CPU      0.78s WALL (       1 calls)

     Called by electrons:
     c_bands      :    191.20s CPU    160.73s WALL (      11 calls)
     sum_band     :     45.42s CPU     39.41s WALL (      11 calls)
     v_of_rho     :      1.57s CPU      1.46s WALL (      11 calls)
     newd         :      2.98s CPU      3.48s WALL (      11 calls)
     PAW_pot      :     13.92s CPU     14.04s WALL (      11 calls)
     mix_rho      :      0.73s CPU      0.66s WALL (      11 calls)

     Called by c_bands:
     init_us_2    :      4.45s CPU      3.92s WALL (    1750 calls)
     cegterg      :    172.32s CPU    144.05s WALL (     770 calls)

     Called by *egterg:
     cdiaghg      :      5.46s CPU      4.86s WALL (    2415 calls)
     h_psi        :    138.96s CPU    120.40s WALL (    2555 calls)
     s_psi        :      7.40s CPU      4.59s WALL (    2555 calls)
     g_psi        :      1.30s CPU      1.09s WALL (    1715 calls)

     Called by h_psi:
     h_psi:calbec :      8.21s CPU      5.14s WALL (    2555 calls)
     vloc_psi     :    121.64s CPU    108.39s WALL (    2555 calls)
     add_vuspsi   :      7.87s CPU      4.74s WALL (    2555 calls)

     General routines
     calbec       :     12.86s CPU      7.81s WALL (    3675 calls)
     fft          :      0.64s CPU      0.59s WALL (     315 calls)
     ffts         :      0.37s CPU      0.34s WALL (     267 calls)
     fftw         :    129.20s CPU    116.09s WALL (  156544 calls)
     interpolate  :      0.07s CPU      0.07s WALL (      22 calls)

     Parallel routines

     PWSCF        :   4m36.39s CPU   3m57.69s WALL


   This run was terminated on:  12:51:20   4Aug2026            

=------------------------------------------------------------------------------=
   JOB DONE.
=------------------------------------------------------------------------------=
